lattice_vector 10.1277444400000007 -0.0180272600000000 -0.0344942700000000 
lattice_vector -0.0245405700000000 10.3499888099999993 -0.0081069800000000 
lattice_vector 0.0047635300000000 0.0427359600000000 5.2227824500000004 
atom 1.3692497800000001 0.1466149600000000 1.6722332000000000 La
atom 1.3726495599999999 5.3898196499999997 1.7713162099999999 Hf
atom 1.3028038500000001 2.4750126799999999 4.3260545900000000 Hf
atom 1.4029671800000001 7.5457901900000000 4.3575346399999999 Hf
atom 3.7151727299999999 2.8851048600000002 1.8833008400000000 Hf
atom 3.6721667800000000 7.9142715299999997 1.7309454900000001 Hf
atom 3.6549564200000000 4.9840251499999999 4.4070699500000003 Hf
atom 3.7441584600000000 10.0715040800000004 4.2824254300000000 Hf
atom 6.4622263599999998 0.2183018000000000 0.8489320500000000 Hf
atom 6.4622633900000004 5.3856569199999997 0.7712035400000000 Hf
atom 6.4907526999999998 2.3914566100000001 3.4319484400000002 Hf
atom 6.4770780900000000 7.5523720100000000 3.3847402899999999 Hf
atom 8.7052671299999993 2.8292774199999999 0.7825639000000000 Hf
atom 8.6936954699999998 7.9528547200000004 0.7744790300000000 Hf
atom 8.6890640999999995 5.0034442600000002 3.3629209000000002 Hf
atom 8.6568628699999994 10.1527307300000000 3.4561041700000001 Hf
atom 0.3854075400000000 2.0210664600000001 0.9030038600000000 O
atom 0.3639963700000000 6.9777652899999998 0.9118432800000000 O
atom 0.2642807300000000 0.8723398700000000 3.6828865400000002 O
atom 0.3385849200000000 6.0229588600000001 3.4887031600000000 O
atom 4.7418492299999997 4.3175599599999996 0.8808340000000000 O
atom 4.6831878600000003 9.5329056100000003 0.8748200900000001 O
atom 4.7624662600000001 3.5107863600000000 3.5029983900000001 O
atom 4.7623394899999996 8.6141755599999996 3.4300724400000000 O
atom 2.8645419099999998 1.3630186099999999 3.2268481499999999 O
atom 2.7996213000000001 6.4320117300000001 3.0493328800000001 O
atom 2.7501328400000000 6.3825203500000001 0.4510481700000000 O
atom 2.2609171500000000 3.9259295700000001 3.0745767800000001 O
atom 2.3534098800000001 8.9258348000000005 3.0372003699999999 O
atom 2.3301771100000002 3.7853397300000000 0.4648253500000000 O
atom 2.4407407499999998 8.9083574199999997 0.2996744600000000 O
atom 5.3826573299999998 1.7267802699999999 1.7434096200000000 O
atom 5.4076098699999999 6.8755444499999996 1.6944059199999999 O
atom 5.4324601599999998 0.8875910500000000 4.3320242400000000 O
atom 5.3783261400000004 6.0773562800000001 4.3260370799999999 O
atom 9.7187482700000007 4.4239996799999997 1.6035719399999999 O
atom 9.5056297700000005 9.4980780100000004 1.7129837900000000 O
atom 9.7025270999999993 3.4694067600000000 4.1943700899999996 O
atom 9.7882964799999996 8.6267356500000005 4.2976353300000003 O
atom 7.8361751999999996 1.3355350300000000 4.7790076099999999 O
atom 7.8469549199999999 6.4793742600000002 4.6886160500000003 O
atom 7.8495801800000002 1.3361322099999999 2.1565954100000000 O
atom 7.8400743400000001 6.4980280300000004 2.0816790799999998 O
atom 7.3156309500000001 3.9192399800000000 4.7144390899999999 O
atom 7.3140136800000004 9.0696867599999997 4.7527876999999998 O
atom 7.3183442799999998 3.9047075000000002 2.1078863399999999 O
atom 7.1901579000000000 9.0769161100000009 2.1436397500000002 O
