lattice_vector 10.0831709600000003 0.0524545600000000 0.0696094500000000 
lattice_vector -0.0170682600000000 10.2044502200000000 -0.0209611400000000 
lattice_vector -0.1136952200000000 -0.1050194900000000 10.5465756899999992 
atom 1.0260673000000000 0.2101980600000000 1.2993698800000000 Si
atom 1.2878371500000001 0.1104357200000000 7.0614273900000004 Hf
atom 1.3664590999999999 5.2992078200000003 1.7936104100000001 Hf
atom 1.3129270500000001 5.2535497500000004 7.1243986699999997 Hf
atom 1.4883725999999999 2.2252874700000000 4.3141269400000004 Hf
atom 1.2592492900000001 2.2827619700000001 9.6496680500000007 Hf
atom 1.3225567100000000 7.3112780300000004 4.4847334600000002 Hf
atom 1.2253328000000001 7.3648766900000000 9.7626868400000006 Hf
atom 3.5916479500000000 2.7098180900000002 1.8380412800000001 Hf
atom 3.5337358999999999 2.7234674299999999 7.0889922800000003 Hf
atom 3.5836512500000000 7.9258359900000004 1.9122601900000000 Hf
atom 3.5245217499999999 7.7923935200000001 7.1502918900000001 Hf
atom 3.6000960100000001 4.8842267599999998 4.4641690399999998 Hf
atom 3.5076848300000001 4.8279350699999997 9.7689468799999997 Hf
atom 3.3864396399999999 9.8520866999999992 4.4610192900000003 Hf
atom 3.4702898100000001 9.9459686999999999 9.7843035700000005 Hf
atom 6.4122708599999996 0.2275333100000000 0.9109153200000000 Hf
atom 6.2989683000000003 -0.0058738000000000 6.3461205800000000 Hf
atom 6.3724471800000000 5.3982087600000002 0.8990261800000000 Hf
atom 6.3647618300000000 5.2755380199999999 6.1345052000000004 Hf
atom 6.4125511700000004 2.5274429800000000 3.3837896900000000 Hf
atom 6.2401225199999999 2.2940984800000002 8.8053276199999999 Hf
atom 6.4407599099999997 7.4815222900000000 3.5401942900000001 Hf
atom 6.3022335600000003 7.3846168600000004 8.8132659899999997 Hf
atom 8.6322349500000009 2.8164613500000000 0.8027572400000000 Hf
atom 8.6835169899999993 2.5613789599999999 6.2319996599999996 La
atom 8.6396845100000004 7.9431461499999996 0.9144089200000000 Hf
atom 8.6102553000000004 7.7768191699999996 6.1906906900000003 Hf
atom 8.6886436299999996 4.8512184999999999 3.5139699599999998 Hf
atom 8.5455684699999992 4.8725962899999997 8.8085453299999994 Hf
atom 8.8917957500000000 10.2364655500000001 3.6655771300000000 La
atom 8.5779130899999991 9.9850094600000006 8.8193965999999993 Hf
atom 0.1207965700000000 1.2693727600000000 0.3502711400000000 O
atom 0.2623842100000000 0.9756261100000000 5.4379609400000000 O
atom 0.2727118500000000 6.7583547499999996 0.8825910500000000 O
atom 0.2622778900000000 6.6698553599999997 6.1846179499999998 O
atom 0.8941651500000000 1.0156713900000001 2.7450269100000000 O
atom 0.0443893000000000 1.1531230500000000 8.3039376800000007 O
atom 0.3282934200000000 5.8340071900000003 3.5132358799999999 O
atom 0.2038795300000000 5.9431274299999997 8.8129089300000008 O
atom 4.6881004500000003 4.1860033200000002 0.8797080700000000 O
atom 4.6483958000000003 4.1354682100000000 6.1238590500000001 O
atom 4.6311342900000003 9.2904682300000001 0.8397431100000000 O
atom 4.5432935499999996 9.2852776699999993 6.0888012900000001 O
atom 4.7316450100000003 3.5523860500000000 3.4536623999999998 O
atom 4.5564415199999999 3.4218470999999999 8.7809034399999994 O
atom 4.7493080900000004 8.7338174100000003 3.4898582700000000 O
atom 4.6110139200000004 8.5761548500000000 8.7533998600000000 O
atom 3.2488877299999999 1.3599025100000000 3.4685498699999999 O
atom 2.6090674400000000 1.1884443600000001 8.4640598100000002 O
atom 2.7541018400000001 6.3085734799999997 3.1266772700000001 O
atom 2.6655160100000002 6.3220935500000000 8.4387480999999998 O
atom 2.5425491099999999 1.3004823200000000 0.6028965800000000 O
atom 2.6755700099999999 1.2123894900000001 5.8766049200000001 O
atom 2.7483753900000001 6.4995786200000003 0.5132488600000000 O
atom 2.7230098800000002 6.3048937299999999 5.8048008099999997 O
atom 2.2658497899999999 3.7741587299999999 3.0531169199999999 O
atom 2.1433699499999999 3.7572788899999998 8.3756247500000001 O
atom 2.2098340599999999 8.7783785499999993 3.2421270000000000 O
atom 2.1123870100000000 8.8588740399999999 8.4403695200000008 O
atom 2.2212277999999999 3.8632795299999998 0.4294098000000000 O
atom 2.1658265499999998 3.7516903799999999 5.7032242999999996 O
atom 2.0303231600000000 9.1587360199999992 0.5716861400000000 O
atom 2.1288257800000001 8.8099178400000007 5.8162563299999999 O
atom 5.2935360800000000 1.5829491000000000 1.9352849999999999 O
atom 5.1588885099999997 1.5470939500000001 7.1234447999999997 O
atom 5.2857952399999997 6.7815661699999996 1.9065588700000000 O
atom 5.2468819499999997 6.7098760400000002 7.1406642600000003 O
atom 6.9203017500000001 1.2011650500000000 4.8340065299999999 O
atom 5.1107919400000004 0.9260486500000000 9.8580053299999992 O
atom 5.2767660500000000 6.0705916000000002 4.5111423700000000 O
atom 5.1932628899999997 5.9749677600000002 9.7955225400000003 O
atom 9.7632878299999994 4.1960158400000003 1.7737585499999999 O
atom 9.6902986500000008 4.2804828800000001 7.1875407700000000 O
atom 9.8333104000000002 9.3923824099999997 1.6912685400000000 O
atom 9.6342608999999992 9.2542128699999999 7.1618874300000002 O
atom 9.7545051100000002 3.2608293599999998 4.2465599500000000 O
atom 9.6329852099999993 3.4268332400000001 9.7523308499999999 O
atom 9.6806058200000003 8.3317028499999992 4.4990041600000001 O
atom 9.6222531999999994 8.5380713299999993 9.7610047200000007 O
atom 7.5830610299999996 1.2209725499999999 10.1201925300000006 O
atom 7.6622654399999996 6.3359072100000002 10.1491833699999994 O
atom 7.7840711999999996 6.3176584499999997 4.8547153200000004 O
atom 7.7748600200000002 1.4388651400000001 2.1351700899999999 O
atom 7.5000259299999996 1.0954747300000001 7.6219739600000000 O
atom 7.7937459699999998 6.4236122900000003 2.2349024599999998 O
atom 7.7007615100000004 6.3439358300000004 7.5050726799999996 O
atom 7.1642324100000003 3.7710039300000000 10.1520881400000000 O
atom 7.2499326599999998 3.8803953799999999 4.7665793599999997 O
atom 7.1560075799999998 8.8818885600000002 10.1324433599999999 O
atom 7.1699751200000001 8.8174742399999992 5.0148181000000003 O
atom 7.2957256700000004 3.9184343500000001 2.1627927499999999 O
atom 7.0986111200000002 3.8475986799999999 7.5863241099999996 O
atom 7.2557228599999997 8.9586530399999997 2.1825138700000002 O
atom 7.2354180100000001 8.8372619799999992 7.5785839900000003 O
