lattice_vector 10.0535894300000006 0.0431444600000000 -0.0313256800000000 
lattice_vector 0.0302347300000000 10.4014105699999995 -0.0006471900000000 
lattice_vector -0.0616076300000000 -0.0276692700000000 5.0446130199999999 
atom 1.1854643400000000 0.0732397900000000 1.2149561300000000 La
atom 1.3276912100000000 5.3986908099999997 1.2397595600000000 Hf
atom 6.3039127700000002 0.1950106200000000 1.2317576100000001 Hf
atom 6.3770730899999997 5.3651415900000003 1.2549189000000001 Hf
atom 1.3968416600000000 2.5538542199999998 3.6964351999999998 Hf
atom 1.3454212900000000 7.6424801699999998 3.7819414600000001 Hf
atom 6.3301217300000001 2.4422480200000001 3.7453088100000000 Hf
atom 6.3288687499999998 7.5861931199999999 3.7953751699999998 Hf
atom 3.6764343099999999 2.7766775099999998 1.2031433400000000 Hf
atom 3.7304123100000002 7.9602937000000002 1.2070640100000001 Hf
atom 8.6832269899999996 2.8132168000000002 1.2518822100000000 Hf
atom 8.6757109999999997 7.9664266100000001 1.2937779100000000 Hf
atom 3.6738099399999999 5.0448932700000002 3.7452766099999999 Hf
atom 3.6740513300000002 10.2420547899999992 3.7157670500000002 Hf
atom 8.6995407300000007 5.0231735700000000 3.7839139400000001 Hf
atom 8.4952746399999999 10.1712369099999993 3.7772485800000002 Hf
atom 0.1883715000000000 1.9414796700000001 2.1686807899999998 O
atom 0.3512906300000000 7.1030315300000000 1.9910054300000000 O
atom 5.3959964200000003 1.9537400300000001 1.8928509200000001 O
atom 5.3870805300000004 7.0843864800000000 1.9733210999999999 O
atom 0.2879240500000000 5.9413443800000003 4.5024864000000004 O
atom 5.3583169699999997 0.6987436800000000 4.4355239099999997 O
atom 5.3352147900000002 5.8836373399999999 4.5084143000000001 O
atom 4.6885341900000004 4.5085115099999999 1.9493630099999999 O
atom 4.6615831999999999 9.7461034200000007 1.9105281700000001 O
atom 9.7067763399999993 4.5608265799999996 1.9858426199999999 O
atom 9.5232220999999999 9.5785339000000000 2.1915966400000002 O
atom 4.6406797299999996 3.2890628000000000 4.4335254500000003 O
atom 4.7259288000000002 8.5166387100000005 4.4899787199999999 O
atom 9.7323422599999994 3.3001825299999998 4.5606243700000002 O
atom 9.7891138899999994 8.7079593600000003 4.6818301299999998 O
atom 2.8066307600000000 1.3429797999999999 2.4980238799999999 O
atom 2.6958037600000000 6.3902249900000001 2.4820833000000002 O
atom 7.6536111800000004 1.2071825400000000 2.4916632999999999 O
atom 7.7422087700000004 6.4165127000000002 2.5118580000000001 O
atom 2.6189076500000001 1.4321956700000000 4.9342813100000003 O
atom 2.6727205900000000 6.5686080999999996 5.0056199499999998 O
atom 7.7339858599999998 1.3668447800000001 5.0164388500000001 O
atom 7.7077650200000001 6.5540032699999999 5.0222522400000003 O
atom 2.3043819499999998 4.0373754499999999 4.9841019700000002 O
atom 2.4138673399999999 9.0979735799999997 4.9116875000000002 O
atom 7.2994764900000000 3.9768934200000001 5.0061178200000001 O
atom 7.2889229100000001 9.1239908500000002 5.0768561600000002 O
atom 2.3099245700000002 3.8564623700000000 2.4321485400000000 O
atom 2.4344583399999999 8.9025423299999993 2.5082498599999998 O
atom 7.3413126399999999 3.8331912099999998 2.5042786299999999 O
atom 7.2112143099999999 9.0174333299999994 2.5461139300000002 O
