lattice_vector 10.1525312099999994 0.0456461200000000 0.8012724600000000 
lattice_vector 0.0563244500000000 10.2487225399999993 -0.0158099100000000 
lattice_vector 0.7936398500000000 -0.0182825000000000 10.4673811800000003 
atom 1.3828959700000001 0.0170890800000000 1.8246333299999999 Si
atom 1.8747147900000001 0.1950422800000000 6.8617464300000002 Hf
atom 1.9029572400000001 5.5193696499999998 1.5598283200000000 Hf
atom 1.9218446499999999 5.3074109199999997 6.8161284000000002 Hf
atom 6.5857831500000001 0.2529816900000000 2.0739298300000000 Hf
atom 6.9684131000000002 0.2416486100000000 7.2943270199999999 Hf
atom 6.5929388900000001 5.3363470900000003 2.0198511899999998 Hf
atom 6.9742453600000003 5.3571577100000001 7.3151597500000003 Hf
atom 1.7190403900000000 2.2870452800000001 4.1503525200000002 Hf
atom 2.2144012200000001 2.2772550599999999 9.4502814199999996 Hf
atom 1.7722081199999999 7.5093918400000002 4.2400631899999999 Hf
atom 2.1024819799999999 7.4410879000000003 9.4273961300000000 Hf
atom 6.7975171999999997 2.3889678499999998 4.6836434400000000 Hf
atom 7.2308697700000000 2.3953617399999998 9.9269260999999993 Hf
atom 6.7299050899999999 7.5217582800000002 4.6533236400000000 Hf
atom 7.2402626600000000 7.4779814699999996 9.9103659099999994 Hf
atom 3.7465713900000002 2.7409737700000001 1.3421819200000000 Hf
atom 4.1280109300000003 2.7726265099999998 6.5831330899999996 Hf
atom 3.8281322100000001 8.0698076200000006 1.3472215100000000 Hf
atom 4.1590366100000002 7.9218023100000003 6.6429955500000002 Hf
atom 9.0636856800000007 2.6815385599999999 1.9456558799999999 La
atom 9.2241095099999999 2.7302404700000000 7.0200675500000003 Hf
atom 8.8818954500000000 7.9292654599999999 1.7798414100000000 Hf
atom 9.2224246099999991 7.9137674999999996 7.0518588500000003 Hf
atom 3.9852245499999999 4.9140140399999996 3.9965387799999998 Hf
atom 4.3930973900000003 4.9044893199999997 9.1896632900000004 Hf
atom 3.9708722100000000 10.0917518499999996 3.9648136300000001 Hf
atom 4.4250149199999997 10.1103898099999991 9.2312342800000007 Hf
atom 9.1140493800000009 5.1081296500000004 4.5540112500000003 La
atom 9.4673831899999996 4.9005306099999997 9.6454108900000008 Hf
atom 9.0565273600000005 10.0232364700000005 4.4340634000000003 Hf
atom 9.4741838800000000 10.0492631899999996 9.6371827499999991 Hf
atom 0.8352867500000000 1.3411063100000000 0.8453497500000000 O
atom 0.7975181400000000 1.6064415700000001 5.9740758800000000 O
atom 0.4249417700000000 6.6279938999999999 0.7436078200000000 O
atom 0.7182913200000000 6.6573989200000003 5.8962773200000003 O
atom 5.5184576999999999 1.7549710999999999 1.2617949300000000 O
atom 5.8484827299999997 1.6960465800000000 6.4655419600000004 O
atom 5.5252189300000003 6.8778177600000001 1.2110533900000000 O
atom 5.7893607800000000 6.7964529300000001 6.4507263899999998 O
atom 0.6507046200000000 0.7194418200000000 3.3069054599999999 O
atom 0.9635790000000000 0.9020193600000000 8.6486658799999994 O
atom 0.8980184200000000 6.0236583299999999 3.2210370400000001 O
atom 0.9882130500000000 6.0554062799999997 8.5562839700000008 O
atom 5.5945951699999998 0.9455922600000000 3.8459825500000000 O
atom 6.1412156400000004 0.8829895800000001 9.0900516299999996 O
atom 5.6940381000000002 5.9883828699999997 3.8701353400000000 O
atom 6.0728679200000002 6.0514951899999998 9.0649780100000008 O
atom 4.8089513999999998 4.3197522499999996 2.1636158000000001 O
atom 5.2616752800000004 4.2486143099999998 7.4252182099999997 O
atom 4.9473572399999997 9.4127109900000008 2.2334971100000001 O
atom 5.2964515600000004 9.4025572900000007 7.4149225699999999 O
atom 10.3604597300000005 4.2303537799999997 7.7735059800000004 O
atom 10.1140781000000004 9.3538818100000007 2.5911992200000000 O
atom 10.4078552799999997 9.3412755599999997 7.8548087899999999 O
atom 5.0541422799999998 3.4497719199999999 4.8139914900000003 O
atom 5.5584155700000002 3.5317914899999998 10.0630360999999997 O
atom 5.0371284300000001 8.5888741599999996 4.8038192300000002 O
atom 5.5094633200000001 8.6221995099999997 10.0436982500000003 O
atom 10.0710879099999993 3.1523395700000001 5.0180269500000003 O
atom 10.7608233200000001 3.5884523200000000 10.5044366000000000 O
atom 10.1399797599999992 8.5187934500000004 5.2181043400000000 O
atom 10.5994795400000008 8.5978399900000007 10.4743958399999997 O
atom 2.8865647399999999 1.2151786099999999 2.5708709299999999 O
atom 3.3452435700000001 1.2804472800000000 7.8671276399999996 O
atom 3.2119898999999998 6.5825255599999997 2.6985504800000002 O
atom 3.3668424899999998 6.4266591599999998 7.9309949800000004 O
atom 7.9676545599999997 1.2189746299999999 3.2789143900000002 O
atom 8.4916854900000001 1.3326574600000001 8.3816379500000000 O
atom 7.9852106200000001 6.5495124999999996 3.0682811299999999 O
atom 8.4842386300000001 6.4474060900000003 8.4034614699999999 O
atom 3.1734771500000001 1.2529416200000001 5.2887687300000001 O
atom 3.9002075000000000 1.5189880400000000 10.2893357800000000 O
atom 3.1731322199999998 6.3683334199999999 5.3312972199999997 O
atom 3.6822450999999998 6.5238818600000004 10.5198323699999996 O
atom 8.2508931000000008 1.2260563600000001 5.7941165999999997 O
atom 8.6481878999999999 1.1993652100000001 11.0124202300000000 O
atom 8.0897862800000002 6.5170662699999999 5.9054368999999998 O
atom 8.7258331200000008 6.3906171699999996 10.9724948999999992 O
atom 2.3305281899999999 3.9854989399999998 0.2526902800000000 O
atom 2.6501743200000001 3.8573384599999998 5.4553171799999998 O
atom 2.3350135299999999 9.3588192600000006 0.4653521900000000 O
atom 2.6849283300000000 9.0015125499999993 5.5187526699999996 O
atom 7.4088995700000000 3.9544076700000002 0.6546982600000000 O
atom 7.7057620399999998 3.8304537100000000 6.0596414300000001 O
atom 7.4209513999999999 9.0183301799999995 0.7176686400000000 O
atom 7.7784024299999999 9.0332311000000001 5.9416408599999997 O
atom 2.4547379299999998 3.8117613299999999 2.8365468900000002 O
atom 2.9169207099999999 3.7789703000000001 8.0962940499999991 O
atom 2.4051574400000000 9.0212231500000009 2.8571876999999999 O
atom 2.9294296599999998 8.9232140300000005 8.1961746099999999 O
atom 7.4820029300000002 3.8423808400000001 3.3342105200000001 O
atom 8.0085443299999994 3.8186047699999999 8.5730887899999999 O
atom 7.6523167900000004 8.9549322999999994 3.3215899200000001 O
atom 8.0064873900000002 8.9486103200000002 8.5621962699999994 O
