lattice_vector 5.0730691600000002 -0.0293804700000000 0.3954157200000000 
lattice_vector -0.0172592400000000 10.3159240499999996 0.0181168800000000 
lattice_vector 0.8448224700000000 0.0307414200000000 10.4724056799999996 
atom 1.4346651500000001 0.0165154700000000 1.6037463500000000 La
atom 1.9545012799999999 0.2512587700000000 6.8902331200000004 Hf
atom 1.5247378700000001 5.3295494000000003 1.6465286600000000 Hf
atom 1.9591686399999999 5.3733799099999997 6.8865195400000001 Hf
atom 1.7159027300000000 2.3880159100000000 4.2849244400000002 Hf
atom 2.1676991900000000 2.3912022099999999 9.5094740600000005 Hf
atom 1.6887865399999999 7.4652265900000003 4.3123470199999998 Hf
atom 2.2369237499999999 7.5196408500000000 9.4299492600000008 Hf
atom 3.7267925000000002 2.7506981800000001 1.3838483699999999 Hf
atom 4.1727858099999997 2.8030569299999999 6.6310665699999998 Hf
atom 3.8389734999999998 7.7784766699999999 1.2495456300000001 Hf
atom 4.1740295900000000 7.9626759399999996 6.5987028299999997 Hf
atom 3.9448333899999999 4.9309539300000003 4.0012222099999999 Hf
atom 4.4114953699999999 4.9059174600000004 9.2229162099999993 Hf
atom 3.9153213000000000 10.1642524000000005 4.1402489200000003 Hf
atom 4.4096496199999997 10.1077570300000001 9.2272433599999992 Hf
atom 0.4114668500000000 1.8618668400000000 0.8523841700000000 O
atom 0.8413755800000000 1.7963083500000001 6.1521259300000004 O
atom 0.5566599900000000 6.9580591099999998 0.8707039500000000 O
atom 0.8474254100000000 6.9136906800000002 6.1252964099999998 O
atom 0.5658015199999999 0.8612867500000000 3.6441377199999998 O
atom 1.1076493000000001 0.8459587400000000 8.7281846699999992 O
atom 0.6116379600000000 5.9971736900000003 3.4717231700000002 O
atom 1.0760906200000000 6.0077317299999997 8.7209791499999998 O
atom 4.7903718700000004 4.3696360800000003 2.1226541600000002 O
atom 5.2745798199999996 4.3331724800000000 7.3773970400000000 O
atom 4.2450033999999999 9.4270597600000006 2.2692862699999998 O
atom 5.2805897699999997 9.4682701599999994 7.3983746000000004 O
atom 5.0338274700000003 3.4229110700000001 4.7738443400000001 O
atom 5.4830727799999996 3.4146931600000001 9.9783396300000007 O
atom 5.0738295999999998 8.5741358999999999 4.7831801499999997 O
atom 5.6588105400000002 8.6437610800000009 10.0368376099999992 O
atom 3.0098218399999999 1.4067697900000000 2.8651751499999998 O
atom 3.4485764200000002 1.3382573300000000 7.9793893000000002 O
atom 2.9489261800000000 6.5906356800000001 2.7462190700000000 O
atom 3.4490860300000001 6.4961409300000001 7.9518949299999999 O
atom 3.1631741199999999 1.2861961000000000 5.4292236200000001 O
atom 3.7006983199999999 1.2816586999999999 10.5312436100000006 O
atom 3.2073838700000001 6.3982083400000000 5.3607145200000001 O
atom 3.6667910300000002 6.3334314799999998 10.5696523899999999 O
atom 2.2708233099999999 3.8825051300000002 0.2851684300000000 O
atom 2.6874786199999998 3.9262497900000000 5.5254184400000002 O
atom 2.4511104900000000 8.8814122399999995 0.1343208800000000 O
atom 2.6833487800000002 9.0768908899999996 5.4981983200000002 O
atom 2.4492699500000001 3.8760685700000002 2.9123431399999999 O
atom 2.9151642400000002 3.8373508099999998 8.1314580599999999 O
atom 2.9290364900000001 8.9933986499999996 8.0792027900000001 O
