lattice_vector 10.2420151700000002 -0.0149951500000000 -0.0001693800000000 
lattice_vector 0.0067308000000000 5.1902255200000003 0.0132978000000000 
lattice_vector 0.0031641000000000 -0.0341774400000000 10.4449169899999994 
atom 1.3099384199999999 0.0678481800000000 1.6361262500000000 La
atom 1.4005338899999999 0.1120649000000000 6.9910139999999998 Hf
atom 1.3637261800000000 2.3305208300000002 4.3664547899999997 Hf
atom 1.4817097500000000 2.3613084500000001 9.5688182099999999 Hf
atom 3.7276368999999998 2.7209079599999999 1.7748193299999999 Hf
atom 3.8177622100000002 2.6426545799999999 6.8645904700000004 La
atom 3.6533555199999999 4.9706263100000001 4.3529648400000003 Hf
atom 3.7712500599999998 4.9047898900000000 9.5954631599999995 Hf
atom 6.5488816800000000 0.1872733300000000 0.8528257299999999 Hf
atom 6.5677633000000002 0.1486896700000000 6.0627103399999998 Hf
atom 6.5189509000000001 2.3610066000000001 3.4834902200000002 Hf
atom 6.6492946000000002 2.3694642500000000 8.7252149400000008 Hf
atom 8.8017272599999998 2.7576229300000001 0.8459192300000000 Hf
atom 8.8200460199999995 2.7618881800000001 6.0815748999999997 Hf
atom 8.7258925200000004 4.9787900699999996 3.5087707400000001 Hf
atom 8.8564774899999996 4.9354753899999997 8.7123022799999994 Hf
atom 0.4289893300000000 2.1117848600000002 0.9682172100000001 O
atom 0.3161938200000000 1.7465012099999999 6.1845710599999997 O
atom 0.1959726300000000 0.8464530900000000 3.6138858300000001 O
atom 0.3532449900000000 0.7833885800000000 8.8215837599999993 O
atom 4.8144955100000004 4.3523634700000002 0.9693149100000000 O
atom 4.7030472600000000 4.6843142999999996 6.1986080100000001 O
atom 4.7763589499999997 3.3886429599999999 3.6064514100000000 O
atom 4.9337151700000001 3.4165533500000000 8.8428690900000007 O
atom 2.8604376199999999 1.2612163199999999 3.0818779900000002 O
atom 2.7508117599999999 1.1270689000000000 8.2982750500000009 O
atom 2.9308044700000000 1.2956639100000000 0.3654817900000000 O
atom 2.5824264600000002 1.1275738300000000 5.5561549399999999 O
atom 2.3806189999999998 3.7400942300000000 3.0821897400000000 O
atom 2.2709712799999999 3.8401430300000001 8.3103455499999992 O
atom 2.5465756800000001 3.7395267400000001 0.3401638100000000 O
atom 2.1992039299999999 3.8745992600000001 5.5949783899999996 O
atom 5.4978743200000002 1.7299801800000001 1.7193650500000000 O
atom 5.9192492899999998 1.8787417500000001 6.8544628300000001 O
atom 5.4654763800000001 0.8031211000000000 4.2838184400000001 O
atom 5.5313652400000004 0.8109731600000000 9.5159010700000000 O
atom 9.4551551899999993 4.4853062599999998 1.6387031299999999 O
atom 9.8763418200000004 4.3008214100000002 6.9484412400000002 O
atom 9.8419573899999993 3.4176292099999999 4.2999959299999997 O
atom 9.9070345300000007 3.3755793700000001 9.5130580299999998 O
atom 7.9653931099999999 1.2352090499999999 10.0282405899999993 O
atom 7.8996546499999996 1.2694544100000000 4.7997441600000004 O
atom 7.9044334500000000 1.3340740700000000 2.1969602300000002 O
atom 8.1030728399999994 1.2875285400000001 7.4425075700000001 O
atom 7.4740123100000000 3.8479550800000002 10.0288674400000009 O
atom 7.4089123600000004 3.8483310199999998 4.8125369300000003 O
atom 7.2687669000000001 3.9014676499999998 2.2269703100000000 O
atom 7.4683275299999998 3.9122787200000002 7.4254889100000003 O
