lattice_vector 9.9958313000000008 -0.0027603600000000 -0.0048748900000000 
lattice_vector 0.0182223700000000 10.3783012600000006 -0.0004459400000000 
lattice_vector 0.0030422000000000 -0.0068688500000000 10.0411097700000003 
atom 1.2350266800000000 0.0827216900000000 1.2198075200000000 La
atom 1.3436096399999999 0.1613122100000000 6.2850118899999998 Hf
atom 1.3390346399999999 5.3520714199999997 1.2654311199999999 Hf
atom 1.3558579100000001 5.3759649999999999 6.3057263099999998 Hf
atom 6.3377482199999999 0.1613229700000000 1.2614561500000001 Hf
atom 6.3391212599999998 0.1612268500000000 6.2716385600000004 Hf
atom 6.3124219000000004 5.3706364999999998 1.2690370700000000 Hf
atom 6.3516479900000000 5.3485934000000004 6.2872250400000000 Hf
atom 1.4179268000000000 2.4575635600000001 3.8887168700000001 Hf
atom 1.3556039400000000 2.4478752199999998 8.7480648700000003 Hf
atom 1.3549714600000000 7.5916927200000002 3.7832121999999999 Hf
atom 1.3768853200000000 7.6057181399999996 8.8020203899999991 Hf
atom 6.3259239799999998 2.4185532599999999 3.7658266000000000 Hf
atom 6.3398472000000003 2.4074458900000000 8.7759399400000007 Hf
atom 6.3360725899999997 7.5998558200000002 3.8058360699999998 Hf
atom 6.3682513399999996 7.5977213800000003 8.7826329699999999 Hf
atom 3.6418596900000000 2.7553238200000001 1.2663134400000000 Hf
atom 3.6848534000000002 2.7595937799999999 6.3026037199999996 Hf
atom 3.7052508400000002 7.9226929600000000 1.2403954600000000 Hf
atom 3.6775992000000000 7.9607009599999996 6.2777069699999997 Hf
atom 8.5414039400000004 2.8216097100000002 1.2334047900000000 Hf
atom 8.6682052600000006 2.7631281699999999 6.2582590900000001 Hf
atom 8.6067838499999993 7.9371564299999999 1.2905534400000001 Hf
atom 8.6786170299999998 7.9327322899999997 6.2696766999999998 Hf
atom 3.6670473100000001 5.0177746900000004 3.7690470800000000 Hf
atom 3.6810700800000000 5.0074313200000002 8.8058015699999999 Hf
atom 3.6742657699999999 10.2052616100000009 3.7495430000000001 Hf
atom 3.7097191399999998 10.2076227900000003 8.7733341899999999 Hf
atom 8.6708824000000000 5.0079499600000004 3.7748851999999999 Hf
atom 8.6820516800000007 5.0093923599999997 8.7840188000000001 Hf
atom 8.6446022500000002 10.1955846900000004 3.8128190499999999 Hf
atom 8.6551699899999992 10.1848933600000002 8.7494439499999999 Hf
atom 0.4291136100000000 1.9699888100000000 6.8157529700000001 O
atom 0.3499459000000000 7.0917465899999996 1.9660686700000001 O
atom 0.3774452600000000 7.1007694399999997 6.9923110900000003 O
atom 5.3796983899999997 1.9151997400000000 1.9334447299999999 O
atom 5.3737882199999998 1.8989349900000001 6.9707693600000002 O
atom 5.3635945400000002 7.0762733100000004 1.9867044400000000 O
atom 5.3801800999999996 7.0905864899999997 6.9639486300000000 O
atom 0.3909679400000000 0.6832784600000000 4.3491319099999997 O
atom 0.3371972300000000 0.7488055900000000 9.1789856499999996 O
atom 0.3692064900000000 5.8536111499999999 4.4874458600000002 O
atom 0.3662718000000000 5.8879152699999997 9.4871633600000003 O
atom 5.3707798200000001 0.6710702800000000 4.4437043699999998 O
atom 5.3971556300000003 0.6681683899999999 9.4594873800000006 O
atom 5.3560178900000004 5.8550648799999996 4.4755431000000003 O
atom 5.3682065699999999 5.8761829600000004 9.5002768700000004 O
atom 4.6226282200000002 4.4964518399999998 1.9543091699999999 O
atom 4.6681008300000002 4.4918892899999996 6.9870242400000002 O
atom 4.6158971800000002 9.7322966799999993 1.8980121900000000 O
atom 4.6680942700000001 9.6876351100000004 6.9661600699999999 O
atom 9.6497509499999996 4.4226169100000003 1.9614756900000001 O
atom 9.6604680799999993 4.4965856700000000 6.9805340800000000 O
atom 9.4012652899999996 9.6477774699999994 2.0366592300000002 O
atom 9.6283746699999995 9.6911179799999996 6.9115694500000000 O
atom 4.6353211200000004 3.2663562499999999 4.4659247500000001 O
atom 4.6769280999999996 3.2893697400000002 9.4829215300000005 O
atom 4.6609464500000000 8.4784314799999994 4.4815381800000003 O
atom 4.7263398399999996 8.4680477700000001 9.4827779200000002 O
atom 9.6281479700000006 3.2619138500000000 4.4193760199999996 O
atom 9.6526951600000004 3.2890839999999999 9.5098259200000008 O
atom 9.6506100499999992 8.4536924199999994 4.4701608700000000 O
atom 9.7325105199999999 8.5384473900000000 9.5779129500000000 O
atom 2.7171358900000002 1.3377557700000000 2.5755951700000002 O
atom 2.7199222100000000 1.2184938800000000 7.5051999599999997 O
atom 2.6942415000000000 6.3585858599999998 2.5029441200000000 O
atom 2.7329401799999999 6.4160601399999999 7.5340235699999996 O
atom 7.7370113299999996 1.2673091500000000 2.4992285200000000 O
atom 7.7165817700000003 1.2177040299999999 7.4997232900000004 O
atom 7.7061447000000003 6.4015820400000001 2.5079622499999998 O
atom 7.7265035400000004 6.3922327200000000 7.5159407900000001 O
atom 2.7359472700000000 1.3525338400000000 5.0528981699999997 O
atom 2.7684650999999998 1.4266619300000001 9.9542988500000007 O
atom 2.7145537300000000 6.5616668499999999 5.0222385200000002 O
atom 2.7197070999999999 6.5242166800000003 10.0455817599999992 O
atom 7.6858417299999999 1.3763930799999999 5.0133063800000004 O
atom 7.7215095299999996 1.3556018599999999 10.0204352199999995 O
atom 7.7135070900000002 6.5446471800000001 5.0140428699999999 O
atom 7.7127005300000002 6.5365351399999998 10.0275299600000007 O
atom 2.3194262499999998 3.9758227599999998 5.0436153700000004 O
atom 2.3131429699999999 3.9704362500000001 10.0428594800000006 O
atom 2.3071351999999998 9.1653091199999999 5.0104215200000004 O
atom 2.4370561500000001 9.0498020799999992 9.9467513899999993 O
atom 7.3069331499999999 3.9648260000000000 5.0101733700000004 O
atom 7.2991878999999997 3.9561939700000002 10.0403127699999999 O
atom 7.3003605000000000 9.1307779900000003 5.0414733800000002 O
atom 7.3240220000000003 9.1279810000000001 10.0434010800000006 O
atom 2.2532449200000002 3.8104898999999999 2.5181760299999998 O
atom 2.3271094699999999 3.8365431000000001 7.5233443099999997 O
atom 2.4297346300000000 8.8731621500000006 2.5672312499999999 O
atom 2.3056645400000000 9.0105439199999999 7.4992658199999997 O
atom 7.2514478699999998 3.8507401400000001 2.5061234300000002 O
atom 7.3155004000000003 3.8068376800000001 7.5284624600000001 O
atom 7.1675487799999997 9.0037846899999998 2.5363602900000002 O
atom 7.3208997499999997 8.9875224800000009 7.5259026100000002 O
