lattice_vector 10.0618534000000004 -0.0014907600000000 -0.0526669300000000 
lattice_vector 0.0205546800000000 10.2478821900000003 0.0089828100000000 
lattice_vector -0.0177220100000000 -0.0031642700000000 10.4805144400000003 
atom 1.2834945600000001 0.2069721900000000 1.6395458100000000 La
atom 1.3991169000000001 0.2008687800000000 7.0289270300000002 Hf
atom 1.4001356100000000 5.3326006200000000 1.7904140700000000 Hf
atom 1.3946438400000001 5.3489156600000003 7.0113362199999996 Hf
atom 1.3857526400000000 2.3407776899999999 4.4181213200000000 Hf
atom 1.4489598400000001 2.4281304300000000 9.5300419499999993 Hf
atom 1.4018546700000001 7.4761850599999997 4.4033583700000003 Hf
atom 1.4090588799999999 7.4438451600000004 9.6452862600000007 Hf
atom 3.6280324899999998 2.7769172499999999 1.7771530600000001 Hf
atom 3.6522242700000001 2.7748801799999998 6.9847113500000004 Hf
atom 3.6650490300000000 7.8877300899999998 1.7811397899999999 Hf
atom 3.6428974599999999 7.9040708000000004 7.0081270499999997 Hf
atom 3.6363232900000000 4.9077498799999999 4.3914132300000004 Hf
atom 3.6400974399999999 4.9096290600000003 9.6405108599999991 Hf
atom 3.6421733399999998 10.0360051400000003 4.3860902800000003 Hf
atom 3.6747385399999999 10.0262688499999992 9.6083996999999997 Hf
atom 6.4229160700000003 0.2075515600000000 0.8094131700000000 Hf
atom 6.4117256800000000 0.2072073900000000 6.0466328599999999 Hf
atom 6.4088821999999999 5.3496106200000000 0.7928224900000000 Hf
atom 6.4349882699999998 5.3394267199999996 6.0215004900000002 Hf
atom 6.4066087100000004 2.3481842799999999 3.4231914600000000 Hf
atom 6.4195785000000001 2.3339405300000000 8.6455657600000002 Hf
atom 6.4292122100000002 7.4725643200000000 3.4264483200000000 Hf
atom 6.4354343500000004 7.4596730000000004 8.6376329799999993 Hf
atom 8.5726117800000008 2.8235899899999999 0.7873662700000000 Hf
atom 8.6667771299999998 2.7731798599999999 6.0326508600000004 Hf
atom 8.6370612900000001 7.8501159999999999 0.7845487100000000 Hf
atom 8.6847067599999992 7.9052662400000004 6.0461993700000001 Hf
atom 8.6781994499999993 4.9028693199999998 3.4147786400000002 Hf
atom 8.6797134299999996 4.8870438399999996 8.6416189600000006 Hf
atom 8.6217091000000003 10.0283005000000003 3.4646207400000000 Hf
atom 8.6918733899999996 10.0299334000000009 8.6849776900000002 Hf
atom 0.3349517800000000 1.7029463300000001 6.1678665900000000 O
atom 0.3273390200000000 6.7822651499999997 0.8493856600000000 O
atom 0.3340027300000000 6.8088972999999999 6.1112521600000003 O
atom 0.1892858300000000 0.9774098900000000 3.5473092899999998 O
atom 0.3728847600000000 0.8428950600000000 8.8567997999999992 O
atom 0.3183714900000000 6.0243995699999999 3.4679277599999998 O
atom 0.3320217000000000 5.9731119699999997 8.7225912900000004 O
atom 4.7010711399999998 4.2524330800000003 0.8435735200000000 O
atom 4.7157313700000003 4.2518991300000000 6.0776808200000003 O
atom 4.7138363700000001 9.4158337499999991 0.8669359599999999 O
atom 4.7038618699999999 9.3858041599999993 6.0975170700000003 O
atom 4.7108724100000003 3.4513221800000000 3.4596748100000001 O
atom 4.7000267400000002 3.4211975600000000 8.6999044600000008 O
atom 4.7203221900000001 8.5488553199999995 3.4838050900000002 O
atom 4.7265022200000004 8.5543754900000000 8.6898363399999994 O
atom 2.8172065599999998 1.3208544300000000 3.1227060500000001 O
atom 2.7896880899999998 1.2656514500000000 8.2476961800000002 O
atom 2.7844979099999998 6.3683156399999996 3.0648153499999999 O
atom 2.7784301600000001 6.3908161500000000 8.3048621499999999 O
atom 2.8307449000000000 1.4194078600000000 0.3045477700000000 O
atom 2.7660428700000002 1.2885104400000000 5.6879086299999999 O
atom 2.7816441200000002 6.3705478800000002 0.4646136900000000 O
atom 2.7810596300000001 6.4257507599999997 5.6839370300000001 O
atom 2.2473721900000001 3.8317512100000002 3.0799171400000001 O
atom 2.2791683200000001 3.8487373100000002 8.2889468300000004 O
atom 2.3073034699999999 8.8895918199999997 3.1060033300000001 O
atom 2.2687732199999999 8.9455394199999994 8.2962002899999998 O
atom 2.2306559600000000 3.8701265199999999 0.4455020800000000 O
atom 2.2612518399999999 3.8646833799999998 5.6977313499999998 O
atom 2.4210707999999999 8.8564125199999992 0.3491915300000000 O
atom 2.2554112399999999 8.9902785099999996 5.7021037100000003 O
atom 5.3678635999999997 1.7064567399999999 1.7126577300000001 O
atom 5.3736956300000003 1.7030783700000001 6.9437575999999996 O
atom 5.3724579600000002 6.8088375200000000 1.7260812900000000 O
atom 5.3719229300000002 6.8100343499999996 6.9565875899999998 O
atom 5.3625772999999999 0.8582319200000000 4.3339744400000004 O
atom 5.3949348700000002 0.8401793000000000 9.5502809499999994 O
atom 5.3649110400000000 5.9909489599999999 4.3434611700000003 O
atom 5.3425598799999996 6.0039347000000003 9.5845402800000006 O
atom 9.7564023800000008 4.1580965799999996 1.7451961199999999 O
atom 9.7503211000000007 4.2240485899999998 6.9835925000000003 O
atom 9.5361773099999994 9.2677632800000005 1.8133271000000000 O
atom 9.7457622300000004 9.3755336499999995 7.0001259200000003 O
atom 9.7463608799999992 3.4910267099999999 4.3911251699999996 O
atom 9.7215105000000008 3.3895510299999998 9.6230882999999992 O
atom 9.7518348699999997 8.5983298999999995 4.3842659900000003 O
atom 9.7662213500000004 8.5759579899999991 9.6307354899999993 O
atom 7.8292184100000002 1.2657426300000001 10.0021323899999999 O
atom 7.7687049300000002 1.2831359800000000 4.7701067999999998 O
atom 7.7880412600000000 6.3568297300000003 9.9576004800000000 O
atom 7.8245808900000000 6.3958374500000001 4.7389016599999998 O
atom 7.8204094599999996 1.3159012400000001 2.1192608000000002 O
atom 7.8143766100000001 1.2816403999999999 7.3797090900000004 O
atom 7.8084765100000002 6.4077424599999997 2.1124088799999998 O
atom 7.8241224100000002 6.4022729099999998 7.3556825500000000 O
atom 7.2620419299999996 3.8263384100000000 9.9746956999999998 O
atom 7.2868239099999998 3.8356188900000001 4.7289411000000001 O
atom 7.2952395900000004 8.9403373899999998 9.9866303100000007 O
atom 7.2867243300000002 8.9434115500000004 4.7755473000000004 O
atom 7.2663878600000000 3.8755141900000001 2.1142849799999999 O
atom 7.2953668699999996 3.8460657100000000 7.3547344399999997 O
atom 7.1729779899999997 8.9913835899999999 2.1531487800000000 O
atom 7.3055991699999998 8.9717003399999999 7.3790077199999997 O
