lattice_vector 10.0694691899999995 -0.0406057400000000 0.2171597900000000 
lattice_vector 0.0436800500000000 10.4342394699999996 -0.0145900800000000 
lattice_vector 0.0541415000000000 0.0868582700000000 5.2465187200000001 
atom 1.1869421300000000 0.0998070300000000 1.6796406300000000 La
atom 1.4835878700000000 5.4038076899999998 1.8209507000000000 Hf
atom 1.4455511599999999 2.5245934900000000 4.4687265199999997 Hf
atom 1.5380598000000001 7.6161718299999999 4.3471175899999999 Hf
atom 3.6864785699999998 2.7527953400000000 1.8380821500000000 Hf
atom 3.6801693700000002 8.0026155600000006 1.5906777599999999 Hf
atom 3.7276529900000002 4.9761880200000004 4.4410930300000002 Hf
atom 3.6677135600000002 10.3401256700000008 4.2106732999999998 Hf
atom 6.0525603900000000 -0.0146452900000000 1.0320086399999999 Hf
atom 6.4136198499999999 5.3644343699999997 1.0249215800000000 Hf
atom 6.4859569900000000 2.4457807200000001 3.7388864100000001 Hf
atom 6.2990841800000004 7.8188602800000000 3.7382094000000001 La
atom 8.6605137299999999 2.8551380399999999 1.1457576199999999 Hf
atom 8.7705010100000003 7.7375841100000002 0.9453779300000000 Hf
atom 8.7119358899999995 5.0178925699999999 3.6518329000000000 Hf
atom 8.7398173000000003 10.4827956199999992 4.1021546200000003 Hf
atom 0.3919679500000000 2.0540758299999999 1.0412386899999999 O
atom 0.5393579400000000 7.1235275199999997 1.0074437800000000 O
atom 0.4452757700000000 0.7928191400000000 3.9977520599999998 O
atom 0.4430510800000000 6.0870359100000000 3.5629293400000002 O
atom 4.6917939400000002 4.2926478899999996 1.0086017400000000 O
atom 4.8504609900000002 8.9949210900000001 0.1091524700000000 O
atom 4.6913313199999997 3.4044515500000001 3.6095645400000000 O
atom 4.8966644600000002 9.5104744700000001 2.5767285599999998 O
atom 2.7263775500000000 1.3671065800000000 3.0692207699999998 O
atom 2.9268693200000002 6.5021426099999999 3.0341082799999999 O
atom 2.9042152500000000 1.3017968200000001 0.3886732700000000 O
atom 2.8038994700000002 6.4457819699999996 0.4022321200000000 O
atom 2.3104704800000002 3.9390589500000002 3.0934919200000000 O
atom 2.4707286599999998 8.9797150999999999 3.0248097399999998 O
atom 2.2855170800000000 3.8917092100000001 0.4927486900000000 O
atom 2.4237489200000000 9.0634902400000001 0.2780181500000000 O
atom 5.4765389999999998 1.7043204300000001 1.9297989099999999 O
atom 5.3738908800000003 6.9388335100000003 1.7166721800000000 O
atom 5.4072678099999996 0.9053334100000000 4.5504402500000003 O
atom 5.4766396799999999 5.9023988100000002 4.4565045799999998 O
atom 9.7331265699999996 4.4841196700000001 1.9050331199999999 O
atom 9.0386924299999993 9.5894929700000002 2.0608892000000001 O
atom 9.7566587400000007 3.4888403600000002 4.5471738200000003 O
atom 9.8770605200000006 8.6923817900000007 4.5750659799999998 O
atom 7.7343812800000000 1.3497049699999999 5.3700609999999998 O
atom 7.9567156399999996 6.4441756699999999 5.0267479100000001 O
atom 8.1058803000000008 1.5793714500000000 2.8008393499999999 O
atom 7.8806080800000000 6.5393821000000001 2.3450720100000000 O
atom 7.3446191900000004 3.9251309999999999 4.9971604599999999 O
atom 7.5238006200000003 9.2307865400000004 5.2560289200000003 O
atom 7.2775206099999998 3.9752091900000002 2.3853400300000001 O
atom 7.6462261500000004 9.5021770799999992 2.4606888300000000 O
