lattice_vector 10.1848496100000006 -0.0282625300000000 0.0411024400000000 
lattice_vector -0.0447997700000000 5.2099676199999996 0.0189339200000000 
lattice_vector -0.0183234900000000 -0.0247519100000000 10.4388736000000009 
atom 1.2425759700000001 0.0713450400000000 1.6118521200000000 La
atom 1.4273190700000000 0.2159330200000000 6.9969882300000004 Hf
atom 1.3422495200000000 2.4084168199999998 4.4058593799999999 Hf
atom 1.3928741200000001 2.4059516099999998 9.5579564599999998 Hf
atom 3.6733139299999999 2.7063273400000001 1.7379636400000000 Hf
atom 3.6479751700000000 2.8185323800000002 7.0073253400000004 Hf
atom 3.7279996700000000 5.0751825300000002 4.2797596200000001 La
atom 3.6741690899999999 4.9582628599999996 9.6001966700000008 Hf
atom 6.5137247599999997 0.1734514900000000 0.8737990800000000 Hf
atom 6.5585371400000003 0.1607391500000000 6.1778753000000002 Hf
atom 6.5138246899999999 2.3824990499999998 3.5021966600000001 Hf
atom 6.4544613399999999 2.3472401500000002 8.6928367000000009 Hf
atom 8.6924422799999999 2.7560817900000001 0.8345947700000000 Hf
atom 8.7682534899999993 2.8081588200000001 6.1471986000000003 Hf
atom 8.6090864499999995 5.0129102200000002 3.5846351400000001 Hf
atom 8.7339100100000007 4.9658168099999997 8.7385379600000004 Hf
atom 0.3639320900000000 2.1152926500000002 0.9196951000000000 O
atom 0.3038903200000000 1.7944446599999999 6.2212434400000003 O
atom 0.1935123600000000 0.8553905100000000 3.6702116700000000 O
atom 0.3775031400000000 0.7729999100000000 8.8260042700000003 O
atom 4.7053991799999997 4.3822991299999998 1.0191751800000000 O
atom 4.7824055200000002 4.3491628999999996 6.3061936500000000 O
atom 4.6599434400000002 3.0299152600000001 3.6184967800000001 O
atom 4.7061075499999996 3.3589521100000002 8.7926202000000000 O
atom 2.5785281599999998 1.4078883200000001 3.0003341099999998 O
atom 2.8038091600000001 1.2757597700000001 8.2693670200000007 O
atom 2.8635375000000001 1.2842962099999999 0.3492915900000000 O
atom 2.7002286799999999 1.4017137900000001 5.7249345199999997 O
atom 2.2523260100000000 3.7452603299999998 3.0183227499999998 O
atom 2.2647729600000002 3.9006131200000000 8.2701052799999992 O
atom 2.4672755999999998 3.7581690700000001 0.3222092100000000 O
atom 2.1869021900000001 3.9125423800000001 5.7516745399999998 O
atom 5.4601639600000000 1.7116996099999999 1.6922033900000000 O
atom 5.4406366300000002 1.7376041200000001 6.9113511599999997 O
atom 5.8665253899999996 0.6149342400000000 4.2641962500000004 O
atom 5.4829347300000002 0.7490512100000000 9.5298401500000001 O
atom 9.3188155100000003 4.4951816400000002 1.6767979600000000 O
atom 9.7748081599999992 4.4002901799999998 6.9751169500000003 O
atom 9.7689885099999998 3.4551223800000002 4.3525518800000000 O
atom 9.7771934799999993 3.4013737900000001 9.5131175700000004 O
atom 7.8742503900000003 1.2369316900000000 10.0252532100000007 O
atom 7.9754480699999997 1.2829439100000000 4.8974403600000000 O
atom 7.8732819000000003 1.3336060599999999 2.2210618900000001 O
atom 7.8867583100000003 1.2847276400000001 7.4622147400000003 O
atom 7.3169048700000001 3.8387339500000000 10.0252923299999992 O
atom 7.3543979100000003 3.8292644600000001 4.8863643200000002 O
atom 7.1905020999999998 3.9122858200000001 2.2511013300000000 O
atom 7.3770320700000003 3.8715764600000000 7.4604802599999998 O
