lattice_vector 9.9623124799999996 -0.0183760800000000 -0.0136382800000000 
lattice_vector 0.0191990500000000 10.1736335800000006 0.0744275400000000 
lattice_vector 0.0163195900000000 0.0498049900000000 10.4323996999999995 
atom 1.0061365400000000 0.2491645500000000 2.2407461500000001 Si
atom 1.4105558300000001 0.2415319700000000 6.9331133300000003 Hf
atom 1.3863657700000001 5.3047598400000000 1.8146029400000001 Hf
atom 1.4355821499999999 5.3177510999999997 7.0332350999999997 Hf
atom 1.3902872700000000 2.4107396099999998 4.3943319000000001 Hf
atom 1.4988436599999999 2.2969112800000002 9.6256597599999996 Hf
atom 1.3652586700000000 7.4381988500000000 4.4388368500000004 Hf
atom 1.4174929500000000 7.4912689300000004 9.6160189400000000 Hf
atom 3.5526615499999998 2.7195331700000001 1.7543490200000000 Hf
atom 3.6667206900000000 2.8225527900000000 6.9477701999999999 Hf
atom 3.4334149400000000 7.9398032499999998 1.7061247600000000 Hf
atom 3.6536991599999999 7.8568576800000001 7.0063790399999997 Hf
atom 3.7035604300000000 4.9792313500000001 4.3448307200000000 Hf
atom 3.6169075400000001 4.8946493200000001 9.6207087300000005 Hf
atom 3.6358473800000000 9.9810874700000003 4.3734030700000002 Hf
atom 3.6247665100000002 10.0158129900000006 9.6122272199999994 Hf
atom 6.3272789899999999 0.2027720900000000 0.8229482600000000 Hf
atom 6.3793996799999997 0.1994495200000000 6.0778324799999996 Hf
atom 6.3709785600000002 5.2301411499999997 0.8671731499999999 Hf
atom 6.4803039800000004 5.3931506799999998 6.0684248500000004 Hf
atom 6.3645520800000002 2.3361260300000000 3.4471448699999998 Hf
atom 6.4137156299999996 2.3727814600000001 8.6604963399999999 Hf
atom 6.0021806299999998 7.3923310500000001 3.0211282800000001 Si
atom 6.4081693299999998 7.4489767499999999 8.7608172199999998 Hf
atom 8.6745069400000006 2.6532514400000000 0.9103269800000000 Hf
atom 8.5887625300000003 2.7876694899999999 6.0669340700000003 Hf
atom 8.6074798000000001 7.8251731700000002 0.9560052000000000 Hf
atom 8.5962804399999992 7.8404241199999998 6.1498853400000000 Hf
atom 8.5406374899999999 4.9133879599999997 3.5010770000000000 Hf
atom 8.6547006599999996 4.8595841699999998 8.7396924400000007 Hf
atom 8.4213430999999996 9.8673808300000001 3.6240818400000001 Hf
atom 8.6415542100000007 9.9991579799999997 8.7556351800000005 Hf
atom 0.5457315800000000 1.4633693699999999 1.0930013800000000 O
atom 0.3784097400000000 1.7688185000000001 6.1151430900000001 O
atom 0.3569997000000000 6.8239972800000004 0.9703652600000000 O
atom 0.4402779700000000 6.8496047899999999 6.1987204499999997 O
atom 0.2397632900000000 0.8171529199999999 3.6121352999999998 O
atom 0.4133478300000000 0.8553536000000000 8.7201858399999992 O
atom 0.3395715700000000 5.9480816100000000 3.5312752199999999 O
atom 0.4042515400000000 5.9242715099999996 8.7957254900000006 O
atom 4.6331042699999996 4.2231645599999998 0.8994256000000000 O
atom 4.7145701100000004 4.3556949300000003 6.0163732100000002 O
atom 4.6366530399999997 9.3395462899999995 0.9066491000000000 O
atom 4.6395898300000002 9.3751167100000004 6.1134706000000003 O
atom 4.6545812900000003 3.4058519500000002 3.4952863600000001 O
atom 4.7011249900000003 3.4543618199999999 8.6621008699999997 O
atom 4.6664345500000000 8.4500845000000009 3.4213065500000002 O
atom 4.6837357199999996 8.5008439700000000 8.7375226900000005 O
atom 2.5047364000000001 1.2200311300000000 2.9088147800000002 O
atom 2.8025719900000001 1.2783145499999999 8.1560210299999998 O
atom 2.7507371599999999 6.4516975600000004 3.0772457800000002 O
atom 2.8124794899999999 6.3595253800000000 8.2961628899999997 O
atom 3.0270603100000000 1.4474475000000000 0.2461160500000000 O
atom 2.8129280600000000 1.3406066500000000 5.5550357899999998 O
atom 2.7516934599999998 6.3752344900000004 0.4620321500000000 O
atom 2.8323279100000001 6.4105075700000000 5.6721408300000000 O
atom 2.2734378600000000 3.8685949399999999 3.1030574700000000 O
atom 2.2753438400000001 3.7961380899999999 8.3010821299999993 O
atom 2.0540897500000002 9.0545570499999997 2.9593421700000002 O
atom 2.2597505299999998 8.8989864200000000 8.2488825099999996 O
atom 2.1886071700000000 3.8487253099999998 0.4850426900000000 O
atom 2.2815322600000001 3.8940858100000000 5.6568835399999999 O
atom 2.2432860799999998 8.9348741399999998 0.3679088300000000 O
atom 2.2604560600000001 8.9615088299999996 5.6318019699999997 O
atom 5.3105366700000003 1.6972158500000001 1.7329285200000000 O
atom 5.3751023000000000 1.7705429500000001 6.9005727400000003 O
atom 5.2293547900000004 6.8284452800000004 1.6516995100000000 O
atom 5.4033287699999999 6.8393012100000004 6.9760536300000000 O
atom 5.3328018699999999 0.8200974599999999 4.2935245399999999 O
atom 5.4161822199999996 0.8438913000000000 9.4972433100000000 O
atom 5.5393327699999997 6.1803148500000002 4.1702005299999998 O
atom 5.3731973899999996 5.9248872800000001 9.5810469499999993 O
atom 9.6350319599999992 4.2222012600000003 1.7579076400000000 O
atom 9.6815226600000006 4.2235991000000004 7.0230254199999997 O
atom 9.6470803499999995 9.3520114999999997 1.9055522400000000 O
atom 9.6641670099999999 9.3508097800000005 7.0220732799999999 O
atom 9.6184712599999997 3.4062714199999999 4.3533809200000002 O
atom 9.6999539699999993 3.3231855399999999 9.6689246499999992 O
atom 9.6218826899999996 8.4633335100000000 4.4203576199999999 O
atom 9.6251608300000004 8.4777843199999996 9.6462129900000004 O
atom 7.8108068399999997 1.2748092900000001 10.0181697599999993 O
atom 7.7302661099999996 1.2609432500000000 4.7957818400000001 O
atom 7.8106452199999996 6.3447217599999997 10.1352353700000002 O
atom 8.0238401300000000 6.1878650300000002 5.0107177099999998 O
atom 7.7208179899999996 1.1842604600000000 2.1805843199999999 O
atom 7.7828562400000001 1.3258521599999999 7.3938643600000002 O
atom 7.4941229199999997 6.4168217299999997 2.3499177300000000 O
atom 7.7924060300000004 6.4069884300000002 7.5340234900000000 O
atom 7.2694173700000002 3.7929404700000000 10.0346793200000004 O
atom 7.1764000299999999 3.7892554500000002 4.7741719099999997 O
atom 7.2484205700000004 8.8994787300000002 10.1337874899999996 O
atom 7.2317498899999997 8.8768300799999995 4.9656661800000004 O
atom 7.2529718299999999 3.7691473599999998 2.1558034400000001 O
atom 7.2551958000000001 3.8913838799999998 7.3901665799999998 O
atom 7.0338907199999996 8.7577219300000007 2.3745082599999998 O
atom 7.2398482399999997 8.9623248699999998 7.5170894600000002 O
