lattice_vector 10.1441488900000003 -0.0194645300000000 -0.1185755200000000 
lattice_vector -0.0277183600000000 5.1494127900000004 -0.0385645100000000 
lattice_vector -0.0668115300000000 -0.0111788200000000 10.4625432899999993 
atom 1.3186482700000000 0.0932391700000000 1.6689426999999999 La
atom 1.3411221600000001 0.2031461200000000 6.9906672600000004 Hf
atom 1.2637810599999999 2.3586413500000001 4.4396436399999999 Hf
atom 1.3411896200000000 2.3952136300000002 9.5648022600000004 Hf
atom 3.7666019799999999 2.8054942000000000 1.6235408400000000 Hf
atom 3.5888154800000001 2.7396428700000000 6.9642376800000001 Hf
atom 3.6564453499999998 4.7893682599999998 4.3935329500000000 Hf
atom 3.6296180400000000 4.9485264600000001 9.5092619000000003 Hf
atom 6.5439223999999996 0.1871208000000000 0.7553660000000000 Hf
atom 6.4356245300000001 0.2018567200000000 5.9915105799999999 Hf
atom 6.4365448299999999 2.3324249899999998 3.3626956600000000 Hf
atom 6.4097396800000004 2.3405574200000001 8.5734480899999994 Hf
atom 8.6982127800000004 2.7696959200000002 0.6961921599999999 Hf
atom 8.6621896300000003 2.7864282299999998 5.9690724099999999 Hf
atom 8.6171121500000005 4.9338953500000002 3.3497938399999998 Hf
atom 8.6686116400000000 4.9236048500000003 8.5450937899999992 Hf
atom 0.4050932800000000 2.0767088600000001 0.9165956900000000 O
atom 0.3045470900000000 1.8198512800000000 6.2424821599999998 O
atom 0.2797424600000000 0.7996177500000000 3.6817283199999999 O
atom 0.3422677300000000 0.7682424100000000 8.8117557499999997 O
atom 4.7993121600000004 4.2509593700000003 0.7283850900000000 O
atom 4.7068629199999998 4.1835164699999998 6.0068664700000003 O
atom 4.7482381699999996 3.4309320300000001 3.3675525500000001 O
atom 4.6851519300000000 3.4389707000000000 8.5916531200000001 O
atom 2.7366253000000000 1.2704296200000000 8.2195190999999994 O
atom 2.9013289300000000 1.3200884399999999 0.3532576400000000 O
atom 2.7265237199999999 1.2587849799999999 5.5637857200000003 O
atom 2.3453187000000000 3.5594225300000000 3.0623151700000002 O
atom 2.2045519300000000 3.8482793200000001 8.2039363200000004 O
atom 2.4711175100000000 3.7831622500000002 0.2504725200000000 O
atom 2.2115978699999999 3.8620874000000001 5.6689912099999997 O
atom 5.3929260599999997 1.6171865900000000 1.6872811999999999 O
atom 5.3219352400000002 1.6371817099999999 6.9173969499999997 O
atom 5.3229893800000001 0.8465208800000000 4.3202502500000000 O
atom 5.3945271200000002 0.8666540000000000 9.5273187999999998 O
atom 9.3757626999999992 4.4705402699999999 1.4928746200000000 O
atom 9.6853081299999992 4.3624836299999998 6.7648178899999998 O
atom 9.6846822400000008 3.3801472100000001 4.1842872599999996 O
atom 9.7008087399999994 3.3798891300000000 9.3506241400000008 O
atom 7.8301319300000003 1.2430999400000000 9.8945764199999999 O
atom 7.7890593199999998 1.2642551300000000 4.7011960400000001 O
atom 7.8473780499999997 1.3424902400000001 2.0878430200000002 O
atom 7.8072817199999998 1.2976379400000000 7.2911497699999996 O
atom 7.2726673200000000 3.8282295999999998 9.8706682699999995 O
atom 7.2805567699999996 3.8422900100000001 4.6859596899999998 O
atom 7.1672127699999999 3.8569984300000000 2.0960345500000002 O
atom 7.2801258600000001 3.8555810400000001 7.2713812100000004 O
