lattice_vector 10.0507362400000009 0.0143164500000000 -0.0588050900000000 
lattice_vector 0.0369497000000000 10.2263785499999997 -0.0139378300000000 
lattice_vector -0.0273116600000000 -0.0286194700000000 10.4494151599999991 
atom 1.1613131000000001 0.0864811400000000 1.9029740200000000 Si
atom 1.3436074899999999 0.1973115300000000 6.9610254500000002 Hf
atom 1.4267537100000001 5.3437421000000001 1.7840513000000000 Hf
atom 1.3991862500000001 5.3022461500000002 7.0256283799999997 Hf
atom 1.3890103300000001 2.3203150099999998 4.3006056499999996 Hf
atom 1.4749732400000000 2.2748892999999999 9.6079482699999996 Hf
atom 1.3934609899999999 7.4297377800000000 4.4186455599999999 Hf
atom 1.3785433400000000 7.4680609699999998 9.6101347599999993 Hf
atom 3.5924458700000002 2.7736206700000001 1.7409146099999999 Hf
atom 3.6312953000000001 2.7760064000000000 6.9621190300000002 Hf
atom 3.5501619999999998 7.9445024100000001 1.7793825900000000 Hf
atom 3.6546171699999999 7.8895426899999999 6.9960947700000000 Hf
atom 3.5936786800000000 4.9168593400000002 4.4127232100000002 Hf
atom 3.6341473299999998 4.8881643500000003 9.6047905100000008 Hf
atom 3.5997090900000002 10.0246508500000004 4.3184866599999996 Hf
atom 3.6038101700000000 10.0481230400000001 9.5511945899999997 Hf
atom 6.3691739299999997 0.1510770000000000 0.9007502800000000 La
atom 6.3722599300000002 0.1897130900000000 5.9908462299999998 Hf
atom 6.4281195200000001 5.3114389900000001 0.7790871700000001 Hf
atom 6.4151286900000004 5.3183711100000002 6.0310930699999998 Hf
atom 6.3187016199999997 2.4266517900000002 3.4926317700000000 Hf
atom 6.4139082800000002 2.3126952599999999 8.6077972099999993 Hf
atom 6.4067787999999997 7.4061187400000001 3.3921163100000000 Hf
atom 6.4229884300000002 7.4458808500000000 8.6249850800000001 Hf
atom 8.8229509099999994 2.7602668499999998 0.7404540400000000 Hf
atom 8.6588112499999994 2.7510550999999999 5.9939210599999999 Hf
atom 8.7226051499999997 7.8561690200000003 0.7709619800000000 Hf
atom 8.6320707300000006 7.8478662400000001 6.0399449399999998 Hf
atom 8.6761383300000006 4.8792215900000002 3.3868041099999999 Hf
atom 8.6663394900000004 4.8647748300000000 8.6370263400000002 Hf
atom 8.7282989600000001 9.9422023199999998 3.4776565200000000 Hf
atom 8.6829587000000004 10.0080942600000000 8.6057428799999993 Hf
atom 0.5692676900000000 1.4898644100000000 0.9354217100000000 O
atom 0.2956026200000000 1.5983897600000001 5.9763873600000004 O
atom 0.3825106300000000 6.8169834399999996 0.8808253400000000 O
atom 0.3189575400000000 6.7492828100000004 6.1022265200000003 O
atom 0.3617729500000000 0.7917078500000000 3.3659939799999998 O
atom 0.3206629900000000 0.8823785500000000 8.6563958799999998 O
atom 0.3259508600000000 5.9772879999999997 3.4855535099999999 O
atom 0.3388287500000000 5.9814769600000002 8.7238156399999998 O
atom 4.6662239100000003 4.3334977600000002 0.8971041800000000 O
atom 4.6538222600000001 4.3236076600000004 6.1262401899999999 O
atom 4.5356552399999996 9.2309603700000000 0.6817182899999999 O
atom 4.6673271300000003 9.3963378800000008 6.0450524999999997 O
atom 4.5759407599999999 3.3564741400000000 3.6115898899999999 O
atom 4.7020168099999999 3.4192669100000002 8.6746117300000005 O
atom 4.6801949100000000 8.5494865900000008 3.4164338700000001 O
atom 4.7070284500000001 8.5189444499999993 8.6369019700000003 O
atom 2.6465202500000000 1.1486117700000000 2.8163748499999999 O
atom 2.7281055699999999 1.2490253899999999 8.1441939399999992 O
atom 2.7702969300000002 6.3934550600000000 3.0830765400000000 O
atom 2.7814671400000002 6.3656446899999999 8.2845675799999992 O
atom 3.1089486499999999 1.5635578400000001 0.1828749800000000 O
atom 2.7629672099999998 1.3103914500000000 5.5535829500000000 O
atom 2.8000296900000001 6.5276111400000003 0.4332799900000000 O
atom 2.7624282500000001 6.3990483700000000 5.6943868200000001 O
atom 2.2297083799999999 3.8247402400000001 3.0672316199999998 O
atom 2.2668477299999998 3.8026558100000001 8.2996245299999991 O
atom 2.1152427899999999 8.9744378800000000 3.0448670199999999 O
atom 2.2500117199999998 8.9197360900000007 8.3168084699999998 O
atom 2.2333550000000000 3.9429319500000002 0.4463652000000000 O
atom 2.2180439600000001 3.8287016800000000 5.6728061700000003 O
atom 2.0639234200000001 9.3470433699999997 0.6190359200000000 O
atom 2.2603315300000002 8.9504398799999993 5.6663970399999997 O
atom 5.4143727400000001 1.9580655499999999 1.7487855299999999 O
atom 5.3854678800000002 1.7783709999999999 6.8073925800000001 O
atom 5.3677276500000000 6.8472211200000004 1.6923773099999999 O
atom 5.3849616500000002 6.8394100699999996 6.8853310099999998 O
atom 5.3423363200000002 0.7918714300000000 4.2354523700000000 O
atom 5.3291431500000002 0.8057272000000000 9.3219134100000005 O
atom 5.3571671299999997 5.9281138499999999 4.3032987299999998 O
atom 5.3844243199999999 5.9419179499999997 9.5332719099999998 O
atom 9.7878782999999991 4.2431590000000003 1.7035225500000000 O
atom 9.7446160000000006 4.1776859899999996 6.9591507300000002 O
atom 9.7890909300000004 9.4205000099999996 1.7078562399999999 O
atom 9.7378627499999997 9.3117528400000005 6.9278451499999996 O
atom 9.7162652200000004 3.3950040600000002 4.2918229800000001 O
atom 9.7969377800000004 3.4197054499999999 9.5962487099999993 O
atom 9.7315414400000009 8.5220651000000007 4.3671026900000003 O
atom 9.7565742699999998 8.5615903699999993 9.5560048900000005 O
atom 7.8975498499999999 1.2877552999999999 9.9198062700000005 O
atom 7.7851808100000000 1.2622876900000000 4.6322557399999997 O
atom 7.8332893800000001 6.3219293600000004 9.9606559499999996 O
atom 7.8033924299999997 6.3663772900000000 4.7168889700000003 O
atom 7.7922734499999997 1.2674962000000001 7.2831657400000003 O
atom 7.7819864000000001 6.2995390799999997 2.0935279499999999 O
atom 7.8116200200000003 6.3748941200000004 7.3517397400000002 O
atom 7.3195237700000000 3.7852996299999999 9.9617583399999994 O
atom 7.2837555299999996 3.8416785400000002 4.7474964000000002 O
atom 7.3744612600000004 8.8142885399999997 9.8840201400000005 O
atom 7.2692489900000004 8.9047422500000000 4.7576810299999996 O
atom 7.3987807300000004 3.6787257900000001 2.1206252200000000 O
atom 7.2901242200000000 3.8422625500000001 7.3403280300000002 O
atom 7.5193576599999998 8.8024043699999996 2.2415474899999999 O
atom 7.2796886399999998 8.9568155899999997 7.3266333399999999 O
