lattice_vector 10.1749120000000008 0.0038200000000000 0.8419390000000000 
lattice_vector 0.0063860000000000 10.3470449999999996 -0.0120790000000000 
lattice_vector 0.8174370000000000 -0.0065330000000000 10.4312410000000000 
atom 1.4069879999999999 0.0716720000000000 1.5352790000000001 La
atom 1.9469559999999999 0.2205270000000000 6.8676529999999998 Hf
atom 1.5583229999999999 5.3999740000000003 1.5965790000000000 Hf
atom 1.9540740000000001 5.4066179999999999 6.8438699999999999 Hf
atom 6.6637540000000000 0.2170630000000000 2.0709000000000000 Hf
atom 7.0188550000000003 0.2157010000000000 7.2954119999999998 Hf
atom 6.6426530000000001 5.3698189999999997 2.0425279999999999 Hf
atom 7.0026640000000002 5.4043789999999996 7.2776870000000002 Hf
atom 1.6641619999999999 2.4299729999999999 4.1631919999999996 La
atom 2.1499320000000002 2.4095770000000001 9.4457419999999992 Hf
atom 1.7510390000000000 7.5329540000000001 4.2231949999999996 Hf
atom 2.1792460000000000 7.5321300000000004 9.4331119999999995 Hf
atom 6.8218639999999997 2.3947919999999998 4.6763279999999998 Hf
atom 7.2614479999999997 2.3605659999999999 9.9014310000000005 Hf
atom 6.7850149999999996 7.5376200000000004 4.6825530000000004 Hf
atom 7.2692600000000001 7.5447970000000000 9.8518050000000006 Hf
atom 3.7908550000000001 2.7844660000000001 1.3527130000000001 Hf
atom 4.1685249999999998 2.7945929999999999 6.5966980000000000 Hf
atom 3.8408449999999998 7.9525990000000002 1.3773720000000000 Hf
atom 4.1401339999999998 7.9938500000000001 6.5778319999999999 Hf
atom 8.8530180000000005 2.8421069999999999 1.8173170000000001 Hf
atom 9.1897450000000003 2.8067009999999999 7.0809139999999999 Hf
atom 8.8133719999999993 7.9202019999999997 1.7795280000000000 Hf
atom 9.2734400000000008 7.9719210000000000 7.0221289999999996 Hf
atom 3.9981640000000001 4.9776350000000003 3.9657000000000000 Hf
atom 4.3853169999999997 4.9402689999999998 9.2001749999999998 Hf
atom 3.9832489999999998 10.1544840000000001 3.9824299999999999 Hf
atom 4.4095670000000000 10.1325109999999992 9.1739560000000004 Hf
atom 9.0237119999999997 5.0193519999999996 4.4058520000000003 Hf
atom 9.4805740000000007 4.9530680000000000 9.6109439999999999 Hf
atom 8.9345990000000004 10.1056889999999999 4.4600790000000003 Hf
atom 9.4915500000000002 10.1193349999999995 9.6449540000000002 Hf
atom 0.4896770000000000 2.0420219999999998 0.9192460000000000 O
atom 0.7540300000000000 1.7484890000000000 6.2801520000000002 O
atom 0.4962020000000000 7.0550560000000004 0.9215480000000000 O
atom 0.8528320000000000 6.9338350000000002 6.0875700000000004 O
atom 5.5606190000000000 1.7337860000000000 1.2664070000000001 O
atom 5.9159059999999997 1.7454010000000000 6.5130010000000000 O
atom 5.5597079999999997 6.8966909999999997 1.2513369999999999 O
atom 5.8828030000000000 6.9006860000000003 6.4917600000000002 O
atom 0.5422260000000000 0.5300570000000000 3.6521830000000000 O
atom 1.0952820000000001 0.7652890000000000 8.8043060000000004 O
atom 0.6840190000000000 5.9275000000000002 3.5039600000000002 O
atom 1.0651530000000000 5.9791489999999996 8.7085629999999998 O
atom 5.7528290000000002 0.8341930000000000 3.9019140000000001 O
atom 6.1394299999999999 0.8564600000000000 9.1010639999999992 O
atom 5.7242540000000002 6.0281799999999999 3.8623379999999998 O
atom 6.1219200000000003 6.0357000000000003 9.0981909999999999 O
atom 4.9653010000000002 4.2842450000000003 2.1629529999999999 O
atom 5.2806860000000002 4.3188120000000003 7.3944450000000002 O
atom 4.9343089999999998 9.4890419999999995 2.1499630000000001 O
atom 5.2855740000000004 9.4971040000000002 7.3705439999999998 O
atom 9.9132829999999998 4.4530209999999997 2.5408070000000000 O
atom 10.3567520000000002 4.3628559999999998 7.7510839999999996 O
atom 9.5134360000000004 9.6202780000000008 2.5120079999999998 O
atom 10.3693349999999995 9.4995910000000006 7.8029440000000001 O
atom 5.0629150000000003 3.4110109999999998 4.7491550000000000 O
atom 5.5338250000000002 3.4537490000000002 9.9852729999999994 O
atom 5.0693590000000004 8.6185539999999996 4.7958439999999998 O
atom 5.6006289999999996 8.6509750000000007 9.9816939999999992 O
atom 9.8225099999999994 3.3772270000000000 5.1896060000000004 O
atom 10.5273280000000007 3.3997080000000000 10.3368819999999992 O
atom 10.0806030000000000 8.4840529999999994 5.1277590000000002 O
atom 10.5953700000000008 8.5759589999999992 10.4008269999999996 O
atom 3.1946740000000000 1.3111610000000000 2.6973500000000001 O
atom 3.4018869999999999 1.3443280000000000 7.9528070000000000 O
atom 3.0239110000000000 6.4958790000000004 2.7061350000000002 O
atom 3.4171160000000000 6.5100619999999996 7.9372129999999999 O
atom 8.0807870000000008 1.3878600000000001 3.2008619999999999 O
atom 8.4890150000000002 1.3219410000000000 8.4203480000000006 O
atom 8.0789259999999992 6.5260569999999998 3.1590810000000000 O
atom 8.5062909999999992 6.5080730000000004 8.3573179999999994 O
atom 3.2753779999999999 1.1833060000000000 5.4402609999999996 O
atom 3.6971300000000000 1.3116559999999999 10.4501100000000005 O
atom 3.2147960000000002 6.4706619999999999 5.3155039999999998 O
atom 3.6313450000000000 6.3912920000000000 10.5428669999999993 O
atom 8.2395980000000009 1.2399450000000001 5.8239349999999996 O
atom 8.7467109999999995 1.2470669999999999 11.0091529999999995 O
atom 8.2684899999999999 6.4245530000000004 5.7751150000000004 O
atom 8.7276050000000005 6.4054640000000003 10.9582510000000006 O
atom 2.3107289999999998 3.9396580000000001 0.2255060000000000 O
atom 2.8110849999999998 4.0392049999999999 5.5370489999999997 O
atom 2.4780760000000002 8.9535380000000000 0.1295610000000000 O
atom 2.6610399999999998 9.0884389999999993 5.4857529999999999 O
atom 7.3968210000000001 3.9336570000000002 0.6941460000000000 O
atom 7.6557870000000001 3.9370989999999999 5.9633269999999996 O
atom 7.3965439999999996 9.0856080000000006 0.6772520000000000 O
atom 7.7640310000000001 9.0709590000000002 5.9533680000000002 O
atom 2.6262409999999998 3.9657429999999998 2.7291159999999999 O
atom 2.9054660000000001 3.8441790000000000 8.0943229999999993 O
atom 2.6411060000000002 8.8995239999999995 2.9224410000000001 O
atom 2.9048250000000002 9.0091900000000003 8.0683849999999993 O
atom 7.5847389999999999 3.8731119999999999 3.3197250000000000 O
atom 7.9926779999999997 3.8431929999999999 8.5425109999999993 O
atom 7.4262020000000000 8.9784319999999997 3.3380290000000001 O
atom 8.0217390000000002 9.0106649999999995 8.5203889999999998 O
