lattice_vector 9.9962281599999994 0.0361059500000000 -0.0162572800000000 
lattice_vector 0.0607652000000000 10.1500380200000002 0.0023745900000000 
lattice_vector 0.0508371000000000 -0.0274869500000000 10.4318328299999994 
atom 1.0262230299999999 0.2244808600000000 2.1434396400000000 Si
atom 1.4581769499999999 0.1449347500000000 6.8856751599999999 Hf
atom 1.4357218100000000 5.3297204000000002 1.7913665700000001 Hf
atom 1.4686235999999999 5.2504702900000000 7.0078723900000002 Hf
atom 1.4649193300000001 2.2893220300000001 4.2851172300000000 Hf
atom 1.5141944899999999 2.2289408100000001 9.5981327600000004 Hf
atom 1.4441884599999999 7.4696327800000004 4.3351507299999996 Hf
atom 1.5220611399999999 7.4121346299999997 9.6077654300000006 Hf
atom 3.5610518400000002 2.6988485099999999 1.7314253900000001 Hf
atom 3.7163398499999998 2.7443433900000000 6.9801860199999997 Hf
atom 3.5128525900000001 8.0363273700000004 1.7823166399999999 Hf
atom 3.7084301499999999 7.7460278799999998 6.9845629400000000 Hf
atom 3.6383347499999998 4.8741437699999999 4.3822176500000003 Hf
atom 3.6819139999999999 4.8385954900000003 9.6408664599999998 Hf
atom 4.0176710699999996 9.9045294599999991 4.8038382000000004 Si
atom 3.7352604199999999 9.9383121899999995 9.5462237800000000 Hf
atom 6.3841929799999999 0.2417965300000000 0.7944658400000000 Hf
atom 6.5096305499999998 0.2373297900000000 6.1128380199999999 Hf
atom 6.3700889500000004 5.3396007200000000 0.8717251900000000 Hf
atom 6.4735524000000000 5.2715802600000004 6.0489757700000002 Hf
atom 6.3442301399999996 2.3214990100000001 3.4396633400000001 Hf
atom 6.4943058300000001 2.3494449700000000 8.6709400399999996 Hf
atom 6.3259590599999997 7.4486743300000002 3.4504846599999999 Hf
atom 6.4993482299999998 7.3916108100000004 8.6752697600000008 Hf
atom 8.6986355500000005 2.7206516500000002 0.8714762300000000 Hf
atom 8.7144138600000005 2.7667864500000001 6.0199465999999999 Hf
atom 8.6725037199999999 7.8731726100000001 0.8357430900000000 Hf
atom 8.6850778399999999 7.8011557500000004 6.0445822900000001 Hf
atom 8.6445985400000005 4.8891052100000003 3.4205740100000002 Hf
atom 8.7253241799999994 4.8473488800000002 8.7022091400000008 Hf
atom 8.5456824499999993 9.9254798399999995 3.4555910299999999 Hf
atom 8.7739820700000006 9.9500752099999996 8.6545973600000004 Hf
atom 0.4951597300000000 1.4543026999999999 0.9590071700000000 O
atom 0.4714960600000000 1.6629101600000000 6.0297277800000000 O
atom 0.3753151700000000 6.7835989000000003 0.8811233600000000 O
atom 0.4376683400000000 6.7643592799999999 6.0904903800000003 O
atom 0.2238333700000000 0.8104370800000000 3.5166030899999998 O
atom 0.4501336700000000 0.8010594100000000 8.6394343500000002 O
atom 0.3632167700000000 5.9439914199999997 3.4928278499999998 O
atom 0.4493743600000000 5.8782159399999996 8.7198544200000008 O
atom 4.6664850400000004 4.2552759499999997 0.9134876000000000 O
atom 4.7249954599999997 4.2564143100000003 6.0854045699999997 O
atom 4.7302735399999998 9.3478076899999998 0.8513162000000000 O
atom 4.7875434600000002 9.3458778099999993 6.1823666900000003 O
atom 4.6264659000000004 3.3191539300000001 3.5259917999999999 O
atom 4.7599538099999998 3.4021386200000001 8.6708905400000003 O
atom 4.4295853200000002 8.7033386400000001 3.6435852999999998 O
atom 4.7693878500000002 8.4220646600000002 8.6772092700000005 O
atom 2.3825399699999998 1.2370563000000001 2.6665595600000001 O
atom 2.8407562400000002 1.1838357399999999 8.0872542799999998 O
atom 2.7992536600000002 6.4147417700000000 3.0755013899999999 O
atom 2.8797427600000001 6.2871085300000003 8.2817620499999993 O
atom 3.0722393000000001 1.5134189700000000 0.1503969300000000 O
atom 2.9653172200000002 1.1085122999999999 5.3752324099999997 O
atom 2.8087220400000001 6.4181975199999997 0.4809467100000000 O
atom 2.8135713299999998 6.3227278499999997 5.6830424099999997 O
atom 2.2697093200000000 3.8355303100000002 3.0771416199999999 O
atom 2.3282044399999999 3.7412063199999999 8.2915592500000006 O
atom 1.8873610000000001 8.9258980000000001 2.7975905999999999 O
atom 2.3229999800000001 8.8031306699999998 8.1684714100000004 O
atom 2.2048785899999999 3.8720664199999999 0.4659513800000000 O
atom 2.3126904100000001 3.7252382200000000 5.6658814900000003 O
atom 2.3313752000000001 8.9671983300000004 0.3115058200000000 O
atom 2.5346629799999998 8.9159381100000008 5.5010266000000003 O
atom 5.3369990400000002 1.6993156800000000 1.7390545799999999 O
atom 5.4552692800000004 1.7324879700000000 6.9230846499999998 O
atom 5.2823250899999996 6.8768210400000003 1.7977016900000000 O
atom 5.4635652199999996 6.7727671699999998 6.9351034499999997 O
atom 5.2900457100000002 0.7668893600000000 4.3953153800000004 O
atom 5.4856323299999996 0.7994335700000000 9.4695980100000003 O
atom 5.3618629100000001 5.9426000099999996 4.3357547399999996 O
atom 5.4247468000000003 5.9210470099999997 9.5832410899999996 O
atom 9.7053816099999999 4.2439184499999998 1.7327869700000000 O
atom 9.7557603000000004 4.2089996100000002 6.9622232000000004 O
atom 9.6921054200000007 9.4270495299999997 1.7281306999999999 O
atom 9.7715674400000001 9.3087759000000005 6.8943551999999997 O
atom 9.7265919800000002 3.3992335900000001 4.3090817299999999 O
atom 9.7674489900000001 3.3362070400000001 9.6159851100000004 O
atom 9.6623439399999995 8.4794385200000004 4.3255836800000003 O
atom 9.7666012599999998 8.4571506999999997 9.5464597799999993 O
atom 7.8857887800000004 1.2515581600000001 9.9789984300000008 O
atom 7.7489166400000000 1.2606414600000000 4.7675088399999996 O
atom 7.8649842100000003 6.3215573000000003 10.0117488800000007 O
atom 7.7860032099999996 6.3535147600000004 4.7533332599999998 O
atom 7.7525110799999997 1.2965989300000000 2.1562803000000001 O
atom 7.8864756299999996 1.3083704800000000 7.3630892000000001 O
atom 7.7389903599999998 6.4088421699999998 2.1809379199999999 O
atom 7.8749443100000001 6.3418127100000001 7.3884963099999998 O
atom 7.3344320500000002 3.7835090899999999 10.0267873999999999 O
atom 7.2934108300000000 3.7899733599999998 4.7576768300000003 O
atom 7.3559767899999997 8.8581283699999993 9.9746472599999993 O
atom 7.2283906499999997 8.8637726000000008 4.7819585599999996 O
atom 7.2527563099999997 3.8225432499999998 2.1717005299999999 O
atom 7.3370789199999997 3.8298334600000001 7.3751286699999996 O
atom 7.2442396799999997 8.9187926399999995 2.1584452999999999 O
atom 7.3603135300000000 8.9051244999999994 7.3870249699999997 O
