lattice_vector 10.0456920600000004 0.0667895700000000 -0.0731885300000000 
lattice_vector 0.0646501600000000 10.1855803900000002 0.0387971100000000 
lattice_vector -0.0090465400000000 0.0125112300000000 10.4845788199999994 
atom 1.0573585500000000 -0.0325287500000000 1.8061711199999999 Si
atom 1.4163417400000000 0.1910084600000000 6.9893680099999997 Hf
atom 1.4171300700000000 5.3439128399999998 1.8272740999999999 Hf
atom 1.4473974700000001 5.3410432800000001 7.0700370699999997 Hf
atom 1.4687826200000000 2.2922854899999998 4.2799832300000000 Hf
atom 1.4592385600000000 2.3226805499999998 9.6463899699999995 Hf
atom 1.4069043500000000 7.4475720100000000 4.4386972099999999 Hf
atom 1.4116895199999999 7.4871793000000002 9.7037295199999996 Hf
atom 3.6325770099999999 2.7764175099999999 1.7566455200000000 Hf
atom 3.6663720600000000 2.7969638500000000 6.9994930799999997 Hf
atom 3.6242129400000000 7.9622828300000004 1.8243262499999999 Hf
atom 3.6691919199999998 7.8665171100000002 7.0606589700000004 Hf
atom 3.6599228199999998 4.9092594399999996 4.4175246599999998 Hf
atom 3.6347873399999999 4.9369761199999997 9.6801552300000004 Hf
atom 3.6240967199999998 10.0427325399999994 4.3653504099999996 Hf
atom 3.6748013300000002 10.0643778499999996 9.7098581799999995 Hf
atom 6.4184339899999996 0.2613150600000000 0.7697752700000000 Hf
atom 6.2880392900000004 0.1913077100000000 5.9697780399999996 Hf
atom 6.4293660099999999 5.3462688500000004 0.8393715500000000 Hf
atom 6.4800166299999997 5.3267620500000001 6.0642941400000003 Hf
atom 6.4263365099999996 2.3872432400000001 3.4132278100000000 Hf
atom 6.3752454600000004 2.4548261600000001 8.7670585299999999 Hf
atom 6.4269295700000004 7.4418945100000000 3.4508354799999998 Hf
atom 6.4328055300000004 7.4814042000000001 8.6846184599999994 Hf
atom 8.7456258200000008 2.7671664100000002 0.8200518100000000 Hf
atom 8.7727072800000006 2.6308440499999999 6.1958030900000001 La
atom 8.6475502500000001 7.8701106500000000 0.8234291800000000 Hf
atom 8.6833424200000007 7.9084584900000001 6.0582165600000000 Hf
atom 8.6938574099999997 4.8849971700000001 3.4497766699999999 Hf
atom 8.7148395300000008 4.9700534400000000 8.7221788999999994 Hf
atom 8.6947279900000005 10.0288299399999996 3.4354607499999998 Hf
atom 8.7322948100000009 10.0142354600000001 8.6862434799999999 Hf
atom 0.5373304600000000 1.3055335699999999 0.7699899300000000 O
atom 0.4294291000000000 1.2530019600000000 5.6720583500000004 O
atom 0.3402457800000000 6.7627594499999999 0.8807030300000001 O
atom 0.3720821400000000 6.7829334899999996 6.1165990900000002 O
atom 0.4065500900000000 0.8167772200000000 3.1780437500000001 O
atom 0.1794965000000000 1.1252584299999999 8.4350989300000005 O
atom 0.3345232000000000 5.9984071099999996 3.4998287000000001 O
atom 0.3789117800000000 6.0625742200000001 8.7884527600000002 O
atom 4.7021173799999998 4.3031283100000000 0.8831431000000000 O
atom 4.7203555000000001 4.2781021499999996 6.1235538600000003 O
atom 4.7351136599999997 9.3657599600000001 0.8754242100000000 O
atom 4.6805132399999998 9.3580969700000001 6.1113970899999996 O
atom 4.7317211900000000 3.4575007400000000 3.4905412899999999 O
atom 4.6664551000000003 3.4494490199999999 8.7599568100000003 O
atom 4.6668362999999999 8.5340411799999991 3.5087131000000000 O
atom 4.7313223899999999 8.5642500199999994 8.7310003199999997 O
atom 2.8370913600000001 1.3059744400000000 3.0103939099999999 O
atom 2.7417668800000001 1.2556860900000000 8.2438356899999992 O
atom 2.7891381399999999 6.4346682099999999 3.1061716000000001 O
atom 2.8133628800000001 6.3926490800000000 8.3562884600000000 O
atom 3.0630442800000002 1.5567009000000001 0.2265831200000000 O
atom 2.8846928300000001 1.3404239099999999 5.6756379399999997 O
atom 2.8146101200000002 6.5286253900000002 0.4788128000000000 O
atom 2.8115457500000001 6.4019305800000001 5.7253986799999996 O
atom 2.3119698899999999 3.8741005700000000 3.0690990800000000 O
atom 2.2935673200000002 3.8276799100000001 8.3224517700000007 O
atom 2.1382019699999999 9.0350898199999996 3.0182142800000000 O
atom 2.2897194000000001 8.9218233500000004 8.4125741400000003 O
atom 2.2209331500000000 3.9327229199999998 0.4503679200000000 O
atom 2.2684999200000000 3.8256960699999998 5.6988436699999996 O
atom 2.1365732700000000 9.2507954300000002 0.6189177900000000 O
atom 2.2961573799999999 8.9324520700000001 5.7069544900000002 O
atom 5.4129517700000003 1.7561840900000001 1.6866058399999999 O
atom 5.5244260799999996 1.7866150400000000 6.9646322600000001 O
atom 5.3620488200000000 6.8438934900000001 1.7514742999999999 O
atom 5.4028825500000002 6.8282055000000001 6.9824124599999999 O
atom 5.2986492800000002 0.8877234000000001 4.2904132500000003 O
atom 5.3876534400000002 0.8689442300000000 9.5454256399999995 O
atom 5.3753878999999998 6.0073541300000004 4.3850281899999999 O
atom 5.3890553299999997 5.9996743199999996 9.6093150400000003 O
atom 9.7949285499999998 4.2188060600000004 1.7351582500000000 O
atom 9.7841186800000006 4.4126563000000001 7.0652564599999996 O
atom 9.7824946799999992 9.2920662200000006 1.7401147600000000 O
atom 9.7827664100000007 9.3194480899999999 7.0451671800000000 O
atom 9.8368012999999994 3.4732890799999998 4.2680518999999997 O
atom 9.7796542899999999 3.4873624599999999 9.6633203400000003 O
atom 9.7499544100000008 8.6192271999999992 4.3863023500000002 O
atom 9.7601246899999996 8.6640672199999997 9.6679887499999992 O
atom 7.8315732100000002 1.3232575099999999 9.9256949700000003 O
atom 7.7077829299999996 1.1901930199999999 4.6746390900000003 O
atom 7.8195574700000003 6.4170331400000000 10.0189464000000008 O
atom 7.8477019500000003 6.3823338700000001 4.7700823699999999 O
atom 7.8430428200000000 1.3118422100000000 2.0630759900000002 O
atom 7.8075041100000000 6.4097902700000002 2.1481167100000000 O
atom 7.8478374899999999 6.4801344399999996 7.3985973899999999 O
atom 7.3411126099999997 3.8486725000000002 10.0903002399999995 O
atom 7.2573671800000001 3.8695935700000001 4.7230140000000000 O
atom 7.3077760700000001 8.9425701600000007 10.0189418900000007 O
atom 7.2747039100000004 8.8833424599999997 4.7755153400000001 O
atom 7.3456996999999999 3.8479008700000001 2.1336318300000001 O
atom 7.2355957100000001 3.9662565399999998 7.5427798399999997 O
atom 7.3372598699999996 8.9778148899999994 2.1694953400000001 O
atom 7.3236419899999996 9.0729326399999994 7.4061942900000002 O
