lattice_vector 10.0796305999999998 0.0359717500000000 0.7440742100000000 
lattice_vector 0.0427441300000000 10.2648747100000008 0.0081211900000000 
lattice_vector 0.8024543000000000 -0.0012901900000000 10.4189653700000004 
atom 1.2317206800000000 0.2627937900000000 2.0523690200000000 Si
atom 1.9118101599999999 0.2239496500000000 6.7693618300000002 Hf
atom 1.5442951000000000 5.3591858900000000 1.6392713100000000 Hf
atom 1.9541884700000001 5.3384364099999999 6.8363053200000001 Hf
atom 6.5203283799999996 0.2619655600000000 1.9890346699999999 Hf
atom 7.0197818200000004 0.2589642200000000 7.1731066300000004 Hf
atom 6.5666370199999999 5.3311155799999996 1.9973329799999999 Hf
atom 6.9845149800000002 5.3769040900000000 7.2342645799999996 Hf
atom 1.7174653400000000 2.4006828800000002 4.2159804100000002 Hf
atom 2.1955396999999999 2.2735432599999998 9.4393593199999994 Hf
atom 1.7095928600000001 7.4963283699999996 4.2141478599999997 Hf
atom 2.1458648500000002 7.6401282300000002 9.4082367199999997 La
atom 6.7540595100000003 2.3839437800000001 4.5935728200000003 Hf
atom 7.2008266799999996 2.4292930899999998 9.8363781499999998 Hf
atom 6.7744825899999999 7.4830457399999997 4.6000821399999996 Hf
atom 7.1802925899999996 7.5256922700000004 9.8307835000000008 Hf
atom 3.6850722899999999 2.7498821100000002 1.3113566299999999 Hf
atom 4.1562983500000001 2.8223430899999999 6.5507527600000000 Hf
atom 3.7825503600000001 7.9234509199999996 1.3806299300000000 Hf
atom 4.1808994200000003 7.9381761800000001 6.5090767999999999 Hf
atom 8.8719673799999992 2.7426989200000000 1.7744486900000001 Hf
atom 9.1816120899999998 2.8330324199999999 6.9444229799999997 Hf
atom 8.7696713600000002 7.9582397100000000 1.7867113699999999 Hf
atom 9.1995304400000002 7.9241452199999998 6.9735599500000003 Hf
atom 3.9454431300000001 4.9458675200000002 3.9463707100000001 Hf
atom 4.3389188399999998 4.9449350699999997 9.1786445000000008 Hf
atom 3.9185538499999999 10.0797395699999992 3.8964888800000002 Hf
atom 4.5043671900000000 10.1735949500000000 9.0436023399999996 Hf
atom 8.9834481099999994 4.9493557800000003 4.3425736400000003 Hf
atom 9.4358501399999994 4.9177598600000003 9.5843139700000002 Hf
atom 8.9307808800000004 10.0502024399999996 4.3834479599999998 Hf
atom 9.3781738099999998 10.1231053400000004 9.5529619700000001 Hf
atom 0.6054649200000000 1.5386342600000000 1.0104983000000001 O
atom 0.8512798300000000 1.7786042700000000 6.0610505100000003 O
atom 0.3964545100000000 6.8851019200000003 1.0581304700000000 O
atom 0.8933243100000000 6.9089085299999997 6.1120496900000001 O
atom 5.4696799900000004 1.7758489600000000 1.2213766300000000 O
atom 5.8935186100000001 1.7690645199999999 6.4269382000000004 O
atom 5.5011218399999997 6.9155667400000000 1.2630592500000000 O
atom 5.9176034599999996 6.8930889799999999 6.4184365500000000 O
atom 0.5930003000000000 0.7789233300000000 3.5344434400000000 O
atom 1.0879391500000000 0.7364486600000000 8.6904317800000008 O
atom 0.6882650500000000 5.8816273600000004 3.5452726800000001 O
atom 1.1017804600000001 5.7848159499999996 8.6948933499999992 O
atom 5.6141166000000000 0.8786200100000000 3.8211065099999999 O
atom 6.1923829499999998 0.8664980700000000 9.0151912299999992 O
atom 5.6936158399999997 5.9618832299999998 3.8344178000000002 O
atom 6.0892244199999999 6.0129183399999997 9.0509425500000003 O
atom 4.8080505599999999 4.3182775199999996 2.0999219700000000 O
atom 5.2654944099999996 4.3060780500000000 7.3423672399999997 O
atom 4.7987428799999998 9.4875857499999992 2.1128366700000001 O
atom 5.3740571600000004 9.4543391600000000 7.2541695199999996 O
atom 9.8974307899999996 4.3034272199999997 2.5076294099999998 O
atom 10.2579946300000007 4.3448140000000004 7.6843216900000000 O
atom 9.9692891800000005 9.5380152599999999 2.5404216100000001 O
atom 10.2956031899999996 9.4694547199999999 7.7069923800000000 O
atom 5.0311632199999998 3.4345653399999998 4.7192540200000002 O
atom 5.4658753000000004 3.4556948699999999 9.9495224600000007 O
atom 5.0256556500000000 8.5429143799999991 4.6591686399999999 O
atom 5.3031146400000004 8.5367401300000001 9.9333038800000004 O
atom 10.0299047600000009 3.3828797000000002 5.0713741399999996 O
atom 10.4981897100000001 3.3097977599999999 10.3643530699999999 O
atom 10.0374967999999996 8.5208882399999997 5.0978197200000004 O
atom 10.2001673799999999 8.5289318600000001 10.3643208300000005 O
atom 2.7246734099999999 1.2460499000000000 2.5664628299999999 O
atom 3.3764883299999999 1.3601042000000001 7.8206132799999999 O
atom 2.9852749500000000 6.5372200700000000 2.7501341899999998 O
atom 3.5018349600000001 6.4187639100000000 7.8198717400000000 O
atom 8.0089815899999994 1.3270496700000001 3.1047436700000000 O
atom 8.4763785400000007 1.3948735699999999 8.2907511899999999 O
atom 8.0187307000000008 6.4682895699999996 3.1120901999999999 O
atom 8.4602004599999994 6.4905840200000000 8.3399756800000002 O
atom 3.1869481899999998 1.2752005799999999 5.2294668099999999 O
atom 3.7777433199999999 1.3113957199999999 10.3405107899999997 O
atom 3.2008173100000001 6.3945299300000000 5.2920828799999997 O
atom 3.6835081600000001 6.3182107700000003 10.6413906199999992 O
atom 8.2343162299999992 1.2644781599999999 5.6868941800000004 O
atom 8.6427540000000000 1.2636644800000001 10.9309307400000009 O
atom 8.2614574600000008 6.3933653899999996 5.7155899999999997 O
atom 8.6214581500000005 6.3855041600000000 10.9327580700000002 O
atom 2.2487333999999999 3.8775277400000001 0.2582181700000000 O
atom 2.6711119499999998 3.9052796500000002 5.4557016899999997 O
atom 2.6714962000000000 9.0514955399999995 5.3701250500000004 O
atom 7.3834465399999996 3.8849324799999998 0.6835334100000000 O
atom 7.7118519200000000 3.9253738299999998 5.8531335100000002 O
atom 7.1745361900000004 9.0785995100000001 0.6758204600000000 O
atom 7.7354987199999998 9.0381716099999991 5.8516341000000001 O
atom 2.5027705199999999 3.7983438100000000 2.8686298099999998 O
atom 2.9080622500000000 3.7830231900000002 8.0817268900000006 O
atom 2.2984822299999998 9.0681988400000009 2.7001494099999999 O
atom 3.0698124899999999 9.0914444400000001 7.9111597299999996 O
atom 7.5418721900000003 3.8076195300000002 3.2439423000000001 O
atom 7.9353254000000000 3.8530112999999999 8.4799102699999995 O
atom 7.5463895399999998 8.9642035100000008 3.2573049100000002 O
atom 7.9418904200000000 8.9733954600000008 8.4613942099999999 O
