lattice_vector 10.1032743299999996 0.0438948900000000 0.7415732600000000 
lattice_vector 0.0290626600000000 10.1988398000000000 -0.0164018700000000 
lattice_vector 0.9014663100000000 -0.0353884200000000 10.4940429500000008 
atom 1.3665366800000001 0.1220657500000000 1.8485144600000001 Si
atom 2.0042488600000001 0.2249566000000000 6.8226715400000000 Hf
atom 1.5433083700000001 5.2843475099999999 1.6482311999999999 Hf
atom 2.0019392699999998 5.2813550899999999 6.8439178099999998 Hf
atom 6.4808317500000001 0.0615900400000000 1.8523380400000000 La
atom 7.0217571000000003 0.2313393400000000 7.2673927999999997 Hf
atom 6.5635019200000002 5.3373156499999999 1.9670411100000000 Hf
atom 7.0508849099999997 5.3082657299999996 7.2224104599999999 Hf
atom 1.7348391500000000 2.3010164700000000 4.1729840100000004 Hf
atom 2.2821741900000001 2.2872968199999999 9.5001327199999999 Hf
atom 1.7308664700000000 7.4058712900000003 4.2467620300000002 Hf
atom 2.1721467500000000 7.4360059200000004 9.4517541499999993 Hf
atom 6.7913749599999997 2.2965892700000001 4.5720839299999998 Hf
atom 7.2745887299999996 2.4031602200000002 9.8625630199999996 Hf
atom 6.8109479100000003 7.4346293699999997 4.6399887700000004 Hf
atom 7.2251698299999996 7.3890396500000000 9.8504718600000007 Hf
atom 3.7262982199999999 2.7684255499999999 1.3155616600000000 Hf
atom 4.2113564099999996 2.7746990100000000 6.5804194000000003 Hf
atom 3.6177541099999999 7.9257091700000002 1.3603714899999999 Hf
atom 4.2373693499999998 7.8718922600000001 6.6417474500000004 Hf
atom 8.8834504899999995 2.6940705500000002 1.7542945599999999 Hf
atom 9.2554511900000005 2.7794924499999998 6.9544562499999998 Hf
atom 8.9243966799999992 7.8446376500000001 1.7974380299999999 Hf
atom 9.2598574199999995 7.8639158100000000 7.0056292899999999 Hf
atom 3.9972397300000000 4.8891846699999997 3.9742683799999998 Hf
atom 4.4139872300000000 4.9021759500000002 9.2117210899999993 Hf
atom 3.9348134699999999 9.9399259700000009 3.9944590999999998 Hf
atom 4.4720681999999998 10.0477373500000002 9.2725034900000001 Hf
atom 8.9948827399999995 4.8717733100000000 4.3304637599999998 Hf
atom 9.5245185699999997 4.8665499199999998 9.6266753699999992 Hf
atom 9.0399279600000000 9.9954119400000003 4.3699936499999996 Hf
atom 9.6007377599999995 10.0641836999999992 9.5044698099999998 Hf
atom 0.6202366000000000 1.4489823600000000 0.8716411200000000 O
atom 0.8268782200000000 1.6013040199999999 5.9735263600000001 O
atom 0.4653421900000000 6.7435385600000002 0.7926275699999999 O
atom 0.8470320300000000 6.7107066599999996 6.0449262099999999 O
atom 5.4828863400000003 1.8827152500000000 1.1334198799999999 O
atom 5.8943534199999998 1.6387118100000000 6.4013822999999999 O
atom 5.4225684200000002 6.7689104699999998 1.1099602200000001 O
atom 5.8979926499999999 6.7276235599999996 6.3952838400000003 O
atom 0.6597321800000000 0.7807974600000001 3.3594052599999999 O
atom 1.1369641600000000 0.8979264200000000 8.6045142000000006 O
atom 0.6092221000000000 5.9463090899999997 3.4253354300000001 O
atom 1.0865446800000000 5.9779017000000003 8.6710723800000000 O
atom 5.5220519899999996 0.9576600900000000 3.8000057800000002 O
atom 6.1861168900000001 0.9192833000000000 9.0525109100000005 O
atom 5.6850116399999999 6.0276528699999998 3.7744290700000001 O
atom 6.0745403299999996 6.0866181600000004 8.9569576600000005 O
atom 4.8533147200000002 4.2727674499999999 2.1780029900000000 O
atom 5.3400465500000003 4.2088543500000002 7.4313780999999999 O
atom 4.8051004800000001 8.9826624099999997 2.4670941200000001 O
atom 5.3991606200000000 9.2505828599999997 7.5425697999999999 O
atom 9.9796065699999996 4.1773186100000004 2.5716569900000001 O
atom 10.4119171599999998 4.1949895899999996 7.8281409899999996 O
atom 10.0585259199999992 9.3709486200000001 2.5422436300000002 O
atom 10.4512318900000007 9.3070375399999996 7.7660653100000001 O
atom 5.1299309400000004 3.4773288000000000 4.8159878500000000 O
atom 5.6315860200000003 3.5891884699999999 10.0528256799999998 O
atom 5.1724949499999999 8.6273291600000004 4.9379982299999998 O
atom 5.6633445299999998 8.7222740699999992 10.2561037499999994 O
atom 10.1492457300000005 3.4274816499999998 5.1515666800000002 O
atom 10.6830442100000003 3.4227975300000000 10.4896545299999993 O
atom 10.1432065100000006 8.5306230700000008 5.2006696500000000 O
atom 10.5393659599999996 8.5562007300000005 10.4599612799999999 O
atom 2.8225741000000002 1.1496955499999999 2.4696802400000002 O
atom 3.4785171400000001 1.2766771100000001 7.8619372399999996 O
atom 2.9709739399999999 6.4297055600000004 2.7059054100000002 O
atom 3.4242517399999999 6.4050558899999999 7.9304745499999996 O
atom 8.1170509899999992 1.3148442600000001 3.1295824600000000 O
atom 8.5282603899999998 1.3326467799999999 8.2763937399999996 O
atom 8.0792198699999993 6.3560746100000003 3.0545873200000000 O
atom 8.5066370800000009 6.3973897600000003 8.3294766399999993 O
atom 3.1897809700000002 1.2630494500000000 5.2652764799999998 O
atom 3.9306414099999998 1.4844117500000000 10.3329764199999996 O
atom 3.2385174600000002 6.3386042800000002 5.3241185000000000 O
atom 3.6804660000000000 6.4357702999999997 10.5183534099999996 O
atom 8.2654386300000002 1.2374003800000000 5.7026764800000000 O
atom 8.8366526200000006 1.2634564600000000 10.8452184500000008 O
atom 8.2844058999999994 6.3395517300000002 5.7026719000000003 O
atom 8.7433382000000002 6.4077480299999996 10.9393933000000008 O
atom 2.2906529500000001 3.9536690399999999 0.2513514300000000 O
atom 2.7182883000000002 3.8451346499999999 5.4929905200000002 O
atom 2.2543712100000000 9.3224848599999994 0.4543963500000000 O
atom 2.7538123500000000 8.9297205999999996 5.5260880999999999 O
atom 7.4263754899999999 3.9083977399999998 0.6558056799999999 O
atom 7.7780288700000000 3.8564474500000001 5.8728665900000001 O
atom 7.7955421700000000 8.9540522399999993 5.9512764799999998 O
atom 2.5301951200000001 3.7472800899999998 2.8937108500000002 O
atom 2.9762750800000002 3.7664389800000002 8.1339991600000001 O
atom 2.3050960400000000 8.9430246600000007 2.8829657399999999 O
atom 2.9915412199999998 8.8930404200000002 8.2053012800000005 O
atom 7.5610435200000001 3.7628406299999999 3.2365819299999998 O
atom 8.0335971900000001 3.8280132999999998 8.5113488900000007 O
atom 7.7305943099999999 8.7862021299999995 3.3157764300000001 O
atom 8.0631494600000000 8.9086709899999992 8.6285681000000007 O
