lattice_vector 10.0159618100000003 0.0783980500000000 0.7920610100000000 
lattice_vector 0.0827594500000000 10.1617187599999994 0.0098823300000000 
lattice_vector 0.8517100600000000 -0.0390915600000000 10.4351000700000007 
atom 1.3510700700000000 0.1565521300000000 1.8118571999999999 Si
atom 1.9200814100000001 0.1837598900000000 6.8223832399999997 Hf
atom 1.5777911099999999 5.3295019600000000 1.6479590700000000 Hf
atom 1.9765688500000000 5.2921744200000003 6.8091973399999999 Hf
atom 6.5468892900000002 0.2793912900000000 2.0634342700000001 Hf
atom 6.9506353499999998 0.1653814900000000 7.2293682400000003 Hf
atom 6.5373066900000003 5.3368295100000003 2.0280657099999999 Hf
atom 6.9900490299999998 5.3008554300000004 7.2545117100000001 Hf
atom 1.7228299800000000 2.2851132999999999 4.1532738800000004 Hf
atom 2.2352046799999998 2.2779444600000001 9.4246036600000007 Hf
atom 1.6689255300000001 7.4690642299999999 4.2235904599999996 Hf
atom 2.1730423499999998 7.3947715900000004 9.4473061800000000 Hf
atom 6.8324217100000002 2.2671002499999999 4.6250562300000002 Hf
atom 7.1918576200000004 2.3479902300000002 9.8539874899999997 Hf
atom 6.8240167500000002 7.4625536099999996 4.6802987700000003 Hf
atom 7.1913457000000003 7.4247754199999996 9.9044058899999996 Hf
atom 3.7006695399999998 2.7578684600000001 1.3392403500000001 Hf
atom 4.1848195800000001 2.7565427800000002 6.5502153500000002 Hf
atom 3.6922824799999998 7.9534724900000002 1.3946337700000000 Hf
atom 4.1841901799999999 7.8335373600000002 6.6005916100000004 Hf
atom 8.8555205200000007 2.7516278100000000 1.7959503999999999 Hf
atom 9.2034938000000004 2.7869107700000000 7.0076814599999997 Hf
atom 8.8017869399999995 7.9356023100000002 1.8662325399999999 Hf
atom 9.1407833600000004 7.9036315400000001 7.0301388600000001 Hf
atom 3.9873861599999998 4.8837468199999998 3.9914331600000001 Hf
atom 4.3859203899999999 4.8806618799999999 9.2000749299999995 Hf
atom 3.9780256999999999 9.9411102000000007 3.9559096899999999 Hf
atom 4.4255578000000000 10.0157823599999993 9.2250800300000009 Hf
atom 8.9469711800000002 4.8909289999999999 4.3715610800000002 Hf
atom 9.3996579199999992 4.8896353299999999 9.6455589800000006 Hf
atom 9.1739702399999992 10.0643782599999998 4.2070773700000004 Si
atom 9.4559389199999995 9.9976626999999993 9.6324246700000007 Hf
atom 0.6198872100000000 1.4754287100000001 0.8743899600000000 O
atom 0.8478177300000000 1.6113399500000001 5.9522001500000004 O
atom 0.4687851400000000 6.7896031399999996 0.8484228800000000 O
atom 0.8254386400000000 6.7486823800000000 5.9850048300000003 O
atom 5.4515584900000000 1.7217027600000001 1.2346830799999999 O
atom 5.9376485299999997 1.6848888700000000 6.4142797199999997 O
atom 5.4227188899999996 6.8140409399999999 1.2413649700000000 O
atom 5.8178127499999999 6.6835938199999996 6.4043776899999996 O
atom 0.5478345100000001 0.7797807900000000 3.3486204499999999 O
atom 1.0433791200000000 0.8724667900000000 8.6089999299999995 O
atom 0.6126224300000001 5.9592795599999997 3.4294662300000001 O
atom 1.0773858800000000 5.9487316100000003 8.6398762700000002 O
atom 5.6008103000000000 0.9190216300000000 3.7976627800000000 O
atom 6.1129853799999996 0.8525953500000000 9.0495300800000003 O
atom 5.6972416199999998 5.9527276799999997 3.8504907799999999 O
atom 6.0802648200000000 5.9950565100000004 9.0308968899999993 O
atom 4.8275130600000002 4.2677833999999999 2.1690851800000002 O
atom 5.2960372400000004 4.1861730200000000 7.4238447900000004 O
atom 4.9238290600000001 9.3018392199999997 2.2214911599999998 O
atom 5.2631540100000000 9.3289053699999993 7.4048196500000003 O
atom 9.9119981300000006 4.2612116699999998 2.5900458099999999 O
atom 10.2989014500000007 4.2330716600000002 7.8149088300000003 O
atom 9.9772524300000001 9.4409233500000003 2.6706426699999999 O
atom 10.3327466300000008 9.3090067699999999 7.8456936500000003 O
atom 5.1019426000000001 3.4067298600000000 4.7782920600000001 O
atom 5.5580748699999996 3.4977840699999998 10.0503263199999999 O
atom 5.0731860800000002 8.4988381099999994 4.7847790799999999 O
atom 5.4385671100000001 8.4962616700000009 10.0402626999999995 O
atom 10.0559182899999993 3.4311454600000002 5.1714309700000003 O
atom 10.5505204700000004 3.4328885400000000 10.4696705199999993 O
atom 9.9045220000000000 8.7449337000000007 5.1446537699999997 O
atom 10.5284867700000007 8.5700330200000003 10.5023508400000001 O
atom 2.7391503899999998 1.1843479400000001 2.4907254100000000 O
atom 3.3907102099999999 1.2825089800000000 7.8220574500000000 O
atom 2.9809571799999999 6.4717878600000001 2.7445484300000000 O
atom 3.4213433900000001 6.3744559199999999 7.9169484099999998 O
atom 8.1355158900000006 1.2650794599999999 3.1308942599999998 O
atom 8.4345186999999999 1.3359878500000000 8.2794712199999996 O
atom 8.0101590599999994 6.4676725399999997 3.1283784899999998 O
atom 8.4406492800000006 6.4185360800000000 8.3669480600000004 O
atom 3.2094636200000002 1.2531314400000000 5.2145486400000003 O
atom 3.8613270800000001 1.4775163400000000 10.2972134299999993 O
atom 3.1748770899999998 6.3349745999999998 5.3074790900000002 O
atom 3.6510741599999998 6.3978239099999996 10.5447739600000006 O
atom 8.2721299899999998 0.8855672600000000 5.5184170100000003 O
atom 8.6614904700000004 1.2578810100000000 10.9641574199999994 O
atom 8.2408627299999999 6.2754062900000003 5.7535332199999996 O
atom 8.6772701600000008 6.3475393499999999 10.9818222199999997 O
atom 2.2839827100000001 3.9450084699999999 0.2659524700000000 O
atom 2.6991257399999999 3.8341494400000000 5.4730625000000002 O
atom 2.2521504299999999 9.3344035000000005 0.5005388200000001 O
atom 2.7145499100000001 8.9237482900000007 5.4903806499999996 O
atom 7.3498368999999997 3.8856982800000002 0.7120679500000000 O
atom 7.7252624100000000 3.7833719299999999 5.9102955399999999 O
atom 7.3152845700000002 8.9676760899999994 0.8044377600000000 O
atom 7.5148954000000003 8.7037622700000004 6.1571859699999996 O
atom 2.5145679699999999 3.7528581299999999 2.8911778600000000 O
atom 2.9356882299999998 3.7629875699999999 8.0875365400000003 O
atom 2.3890835799999999 8.9554855300000007 2.8885961400000002 O
atom 2.9415077699999999 8.8454755200000008 8.1750463000000000 O
atom 7.5435843100000000 3.7488344200000001 3.2750129399999999 O
atom 7.9550820699999996 3.8070894499999999 8.5377407900000009 O
atom 7.7853570100000002 9.0361817900000005 3.5287167400000001 O
atom 7.9853920199999999 8.8989356500000003 8.6327495499999998 O
