lattice_vector 10.1409610000000008 -0.0364650000000000 0.8330330000000000 
lattice_vector -0.0149070000000000 10.3736990000000002 -0.0001470000000000 
lattice_vector 0.8123359999999999 -0.0130750000000000 10.4313479999999998 
atom 1.4352920000000000 0.1268050000000000 1.5597410000000000 La
atom 1.8412880000000000 0.1201740000000000 6.7751479999999997 La
atom 1.5216909999999999 5.3918869999999997 1.6166110000000000 Hf
atom 1.9277489999999999 5.3853510000000000 6.8322589999999996 Hf
atom 6.6193840000000002 0.2036860000000000 2.0783269999999998 Hf
atom 7.0253439999999996 0.1969270000000000 7.2942049999999998 Hf
atom 6.5812229999999996 5.3464869999999998 2.0549170000000001 Hf
atom 6.9873859999999999 5.3399380000000001 7.2705750000000000 Hf
atom 1.7115270000000000 2.4069340000000001 4.2336309999999999 Hf
atom 2.1176550000000001 2.4003000000000001 9.4492279999999997 Hf
atom 1.7517689999999999 7.5166240000000002 4.2264850000000003 Hf
atom 2.1577890000000002 7.5101940000000003 9.4421160000000004 Hf
atom 6.7968729999999997 2.3594870000000001 4.6746299999999996 Hf
atom 7.2029389999999998 2.3528549999999999 9.8902800000000006 Hf
atom 6.7889330000000001 7.5027970000000002 4.6576350000000000 Hf
atom 7.1949670000000001 7.4962340000000003 9.8731799999999996 Hf
atom 3.7366199999999998 2.7751850000000000 1.3767450000000001 Hf
atom 4.1428620000000000 2.7685140000000001 6.5923710000000000 Hf
atom 3.7842259999999999 7.9476079999999998 1.3816800000000000 Hf
atom 4.1902580000000000 7.9408849999999997 6.5972660000000003 Hf
atom 8.7999179999999999 2.8167970000000002 1.8032379999999999 Hf
atom 9.2059130000000007 2.8101099999999999 7.0188449999999998 Hf
atom 8.7844549999999995 7.8960290000000004 1.7847320000000000 Hf
atom 9.1905110000000008 7.8895260000000000 7.0003430000000000 Hf
atom 3.9366240000000001 4.9282009999999996 3.9786769999999998 Hf
atom 4.3426200000000001 4.9215540000000004 9.1943739999999998 Hf
atom 3.9722149999999998 10.1369699999999998 3.9634860000000001 Hf
atom 4.3780599999999996 10.1304780000000001 9.1791499999999999 Hf
atom 9.0180570000000007 4.9377079999999998 4.3975650000000002 Hf
atom 9.4240729999999999 4.9312899999999997 9.6130250000000004 Hf
atom 8.9546159999999997 10.1172950000000004 4.5100749999999996 Hf
atom 9.3606789999999993 10.1109399999999994 9.7255009999999995 Hf
atom 0.4640380000000000 2.0651820000000001 0.9126200000000000 O
atom 0.8702270000000000 2.0587059999999999 6.1283930000000000 O
atom 0.4730910000000000 7.0288870000000001 0.9155770000000000 O
atom 0.8792650000000000 7.0223050000000002 6.1311730000000004 O
atom 5.4974650000000000 1.7303120000000001 1.2862760000000000 O
atom 5.9037059999999997 1.7236350000000000 6.5019320000000000 O
atom 5.5120170000000002 6.8913070000000003 1.2758190000000000 O
atom 5.9182129999999997 6.8847009999999997 6.4912200000000002 O
atom 0.5975100000000000 0.7867360000000000 3.7231329999999998 O
atom 1.0034060000000000 0.7803949999999999 8.9385150000000007 O
atom 0.6433600000000000 5.9838509999999996 3.4878830000000001 O
atom 1.0495019999999999 5.9772379999999998 8.7034579999999995 O
atom 5.7336220000000004 0.8141400000000000 3.8927209999999999 O
atom 6.1396080000000000 0.8076090000000000 9.1083400000000001 O
atom 5.6794799999999999 5.9958900000000002 3.8763600000000000 O
atom 6.0854689999999998 5.9893580000000002 9.0917639999999995 O
atom 4.8439490000000003 4.3038530000000002 2.1588740000000000 O
atom 5.2502089999999999 4.2972809999999999 7.3744990000000001 O
atom 4.8602189999999998 9.5198459999999994 2.1398839999999999 O
atom 5.2662550000000001 9.5130660000000002 7.3554830000000004 O
atom 9.8367959999999997 4.4440569999999999 2.5024060000000001 O
atom 10.2430310000000002 4.4373509999999996 7.7179770000000003 O
atom 9.5576600000000003 9.5424249999999997 2.6109990000000001 O
atom 9.9637930000000008 9.5359350000000003 7.8264839999999998 O
atom 5.0638620000000003 3.4220030000000001 4.7646160000000002 O
atom 5.4700540000000002 3.4154909999999998 9.9802739999999996 O
atom 5.1256029999999999 8.6222610000000000 4.7709190000000001 O
atom 5.5317080000000001 8.6157450000000004 9.9866840000000003 O
atom 10.0557739999999995 3.3758360000000001 5.0985360000000002 O
atom 10.4618749999999991 3.3694679999999999 10.3141619999999996 O
atom 10.1263509999999997 8.5578249999999993 5.1861780000000000 O
atom 10.5324259999999992 8.5514580000000002 10.4017429999999997 O
atom 3.0551309999999998 1.3825099999999999 2.7904770000000001 O
atom 3.4614410000000002 1.3758290000000000 8.0061409999999995 O
atom 3.0030009999999998 6.4578270000000000 2.7126399999999999 O
atom 3.4093249999999999 6.4511930000000000 7.9283089999999996 O
atom 8.0752830000000007 1.3434280000000001 3.1996609999999999 O
atom 8.4814889999999998 1.3367430000000000 8.4152480000000001 O
atom 8.0390689999999996 6.4976070000000004 3.1528380000000000 O
atom 8.4453800000000001 6.4910170000000003 8.3684460000000005 O
atom 3.2702920000000000 1.2990670000000000 5.2598950000000002 O
atom 3.6762830000000002 1.2925530000000001 10.4754810000000003 O
atom 3.1951760000000000 6.3884330000000000 5.3332940000000004 O
atom 3.6012260000000000 6.3820319999999997 10.5488640000000000 O
atom 8.2474390000000000 1.2309720000000000 5.8118259999999999 O
atom 8.6536200000000001 1.2246100000000000 11.0274249999999991 O
atom 8.2636070000000004 6.3842109999999996 5.7554010000000000 O
atom 8.6696930000000005 6.3778329999999999 10.9710500000000000 O
atom 2.2879760000000000 3.9404240000000001 0.2562470000000000 O
atom 2.6941280000000001 3.9339900000000001 5.4717909999999996 O
atom 2.4301789999999999 8.9795079999999992 0.1660860000000000 O
atom 2.8365900000000002 8.9730150000000002 5.3819749999999997 O
atom 7.3281330000000002 3.9169900000000002 0.6942720000000000 O
atom 7.7342250000000003 3.9103770000000000 5.9099120000000003 O
atom 7.3445570000000000 9.0737670000000001 0.7310630000000000 O
atom 7.7505550000000003 9.0671429999999997 5.9467970000000001 O
atom 2.4494859999999998 3.8500770000000002 2.8585400000000001 O
atom 2.8556940000000002 3.8433310000000001 8.0740929999999995 O
atom 2.5915830000000000 8.8946629999999995 2.9034480000000000 O
atom 2.9976360000000000 8.8880590000000002 8.1190259999999999 O
atom 7.5349079999999997 3.8311720000000000 3.3098730000000001 O
atom 7.9410850000000002 3.8243520000000002 8.5253730000000001 O
atom 7.4357509999999998 8.9997710000000009 3.3618549999999998 O
atom 7.8419650000000001 8.9928209999999993 8.5773240000000008 O
