lattice_vector 9.9814448200000001 -0.0209374400000000 -0.0040686600000000 
lattice_vector 0.0151113200000000 10.3812893200000005 -0.0077553100000000 
lattice_vector -0.0087231900000000 -0.0119915600000000 10.0309448499999991 
atom 1.1295416899999999 -0.0002837000000000 1.2678129499999999 La
atom 1.3268687100000001 0.1629684900000000 6.2728900400000001 Hf
atom 1.3429267400000000 5.3611721399999999 1.2517655599999999 Hf
atom 1.3465545699999999 5.3588236000000000 6.2759197899999997 Hf
atom 6.3441735599999998 0.1531242900000000 1.2458840700000000 Hf
atom 6.2946042899999997 0.1591587400000000 6.2880388099999998 Hf
atom 6.3037039100000003 5.3095702500000002 1.2562222900000000 Hf
atom 6.3196585100000000 5.3338660800000000 6.2623297300000003 Hf
atom 1.3437494999999999 2.4152708700000001 3.7730425500000000 Hf
atom 1.3389805900000000 2.4213667600000002 8.7488537700000002 Hf
atom 1.3545908700000000 7.6066072900000004 3.7920491799999998 Hf
atom 1.3673311200000000 7.6081600700000003 8.7912840600000006 Hf
atom 6.3112256899999997 2.4036352399999998 3.7520910399999998 Hf
atom 6.3189511899999999 2.4105621899999998 8.7812532799999996 Hf
atom 6.3261307999999996 7.5914236400000004 3.7669627800000001 Hf
atom 6.3193566800000003 7.5794039599999996 8.7565722600000004 Hf
atom 3.6230975600000002 2.7199659700000001 1.2660548899999999 Hf
atom 3.6424252300000002 2.7460264300000001 6.2701660600000002 Hf
atom 3.7058583600000001 7.9160605899999998 1.2440439900000000 Hf
atom 3.6556763600000002 7.9509131100000001 6.2728155699999997 Hf
atom 8.6349872199999993 2.7815990799999999 1.2489998099999999 Hf
atom 8.6482209799999996 2.7631212100000000 6.2615209500000004 Hf
atom 8.5870587700000005 7.8381915400000004 1.2275115000000001 Hf
atom 8.6517373200000005 7.9134115300000003 6.2529695399999996 Hf
atom 3.6453418300000000 4.9972251600000002 3.7627785399999998 Hf
atom 3.6536509100000001 4.9881004200000003 8.7860182200000008 Hf
atom 3.6679089800000000 10.1999168499999993 3.7552624799999998 Hf
atom 3.6670294000000001 10.2050121899999997 8.7771645100000004 Hf
atom 8.6478942300000003 4.9936969900000001 3.7659245000000001 Hf
atom 8.6481313699999998 4.9858854199999998 8.7672766699999993 Hf
atom 8.5793898300000002 10.2023272800000004 3.8594972099999998 Hf
atom 8.6096660800000002 10.1811020800000005 8.7324588599999995 Hf
atom 0.2851948800000000 2.0140249300000002 2.0178089600000000 O
atom 0.3922510300000000 1.9469389900000000 6.8470971499999997 O
atom 0.3808885500000000 7.2405621399999998 1.9440359599999999 O
atom 0.3617342200000000 7.1067936400000002 6.9748985299999999 O
atom 5.3778620300000002 1.9011035100000000 1.9189908700000000 O
atom 5.3371527700000003 1.8951295600000000 6.9682965899999996 O
atom 5.3871745200000003 7.0758788700000004 1.9500418100000001 O
atom 5.3474821700000001 7.0728622500000000 6.9567175299999997 O
atom 0.3754590500000000 0.6291329000000000 4.3606440400000004 O
atom 0.3007080800000000 0.7414266600000000 9.2159457000000007 O
atom 0.3591999400000000 5.8771346800000002 4.4648637799999999 O
atom 0.3281711200000000 5.9252683399999997 9.4914493899999997 O
atom 5.3602166599999999 0.6659353200000000 4.4616974200000001 O
atom 5.3683404399999999 0.6601367500000000 9.4647132999999997 O
atom 5.3513598099999999 5.8553808900000002 4.4433734400000002 O
atom 5.3380582099999998 5.8544861399999997 9.4818432000000001 O
atom 4.6242544099999998 4.4760830199999999 1.9560206300000000 O
atom 4.6323385699999999 4.4862739400000002 6.9617167200000001 O
atom 4.7073619300000002 9.6631605000000000 1.9629697600000000 O
atom 4.6379136299999999 9.6768487800000003 6.9702858799999996 O
atom 9.5948401699999994 4.5685596100000003 1.9254721900000000 O
atom 9.6295044900000004 4.4919253899999996 6.9684913899999996 O
atom 9.5915841999999998 9.6723392399999994 6.9011559499999997 O
atom 4.6275693100000002 3.2549991899999999 4.4523117699999997 O
atom 4.6293181399999996 3.2616317900000000 9.4687055600000001 O
atom 4.6570674399999996 8.4555917800000007 4.4860082300000004 O
atom 4.6976097399999999 8.4661535400000005 9.4738392299999994 O
atom 9.6162991600000005 3.2706994599999999 4.4531481199999998 O
atom 9.6305036899999994 3.2850258299999999 9.4749090099999993 O
atom 9.6119316700000006 8.4523092500000008 4.4213695700000004 O
atom 9.7243376099999992 8.5641735299999997 9.6208550299999995 O
atom 2.7723287999999999 1.2680084100000000 2.5518455499999999 O
atom 2.7009074499999999 1.2114376899999999 7.5031441399999999 O
atom 2.6835051800000000 6.3654066900000004 2.5004425900000000 O
atom 2.7010070700000002 6.4071358800000002 7.5260396299999996 O
atom 7.7000242900000000 1.1658484700000000 2.5074714899999999 O
atom 7.6751811900000000 1.2083267000000000 7.5053528299999996 O
atom 7.6756851800000003 6.3586868599999997 2.4887438500000001 O
atom 7.6961160000000000 6.3791320599999999 7.4933605999999999 O
atom 2.6898025099999998 1.3477832000000001 5.0275620200000004 O
atom 2.6968237099999999 1.3739496200000001 9.9793335600000006 O
atom 2.7125618000000000 6.5476229600000000 5.0181276500000003 O
atom 2.7071837500000000 6.5169420100000002 10.0275737800000009 O
atom 7.6797028699999998 1.3609154999999999 5.0210953700000003 O
atom 7.7020776099999999 1.3510320400000000 10.0206266399999997 O
atom 7.6891894399999998 6.5406525499999999 4.9878442800000000 O
atom 7.6770568499999996 6.5195372799999998 9.9950142700000004 O
atom 2.2937856999999999 3.9622773400000000 5.0112211400000000 O
atom 2.2784327000000002 3.9597233699999999 10.0303223399999997 O
atom 2.2965425100000001 9.1499736200000008 5.0141733999999998 O
atom 2.4191916099999999 9.0420501000000009 9.9578581699999997 O
atom 7.2742307999999998 3.9474957300000000 4.9995711800000002 O
atom 7.2692205599999999 3.9532908099999999 10.0074819200000000 O
atom 7.2514773300000002 9.1234927199999998 5.0319926900000000 O
atom 7.2989861300000003 9.1015194400000006 10.0243161799999996 O
atom 2.2694559399999998 3.8129109200000002 2.4981271500000002 O
atom 2.2954263699999999 3.8193636199999998 7.5069977799999998 O
atom 2.4483992200000002 8.8852540100000006 2.5720959699999999 O
atom 2.2809622599999999 9.0135321000000008 7.4989249800000000 O
atom 7.2816136699999996 3.7859909400000000 2.4979192100000001 O
atom 7.2813539499999997 3.7962243400000002 7.5099165399999999 O
atom 7.4084373499999998 8.9732136899999997 2.5125971699999998 O
atom 7.2901030000000002 8.9675320700000007 7.5095589599999997 O
