lattice_vector 10.1483031199999996 -0.0026088100000000 0.7480511399999999 
lattice_vector 0.0126313700000000 5.1413755099999996 -0.0200374000000000 
lattice_vector 0.8349136800000000 0.0189790400000000 10.4952369300000008 
atom 1.3551209300000000 0.2015714500000000 1.4725330299999999 La
atom 1.9575051900000000 0.2323515400000000 6.8530319200000003 Hf
atom 6.5516664899999997 0.2090503200000000 2.0154952700000002 Hf
atom 7.0421129999999996 0.2390412000000000 7.2589782800000000 Hf
atom 1.7217464300000000 2.3646331500000000 4.2313060299999998 Hf
atom 2.2402143300000001 2.4486230299999998 9.3501249400000006 Hf
atom 6.7758580200000003 2.3404263200000002 4.6321765600000004 Hf
atom 7.2518070300000002 2.3693658700000002 9.8508960699999992 Hf
atom 3.7720156299999998 2.7682404200000001 1.3293666200000001 Hf
atom 4.1936593400000000 2.8153759900000002 6.5413852199999996 Hf
atom 8.6720791800000008 2.7848914699999998 1.7656557500000001 Hf
atom 9.2730523599999994 2.8047347800000000 7.0132037800000004 Hf
atom 3.9287035800000001 4.9401266300000000 3.9227812800000001 Hf
atom 4.4521876300000001 4.9438654299999998 9.1737885600000002 Hf
atom 9.0036040600000007 4.8967674299999997 4.4195659500000000 Hf
atom 9.5176554800000002 4.9262112499999997 9.6367841199999997 Hf
atom 0.8340769099999999 1.7122255000000000 6.1176846100000004 O
atom 5.5174832599999997 1.7231077500000000 1.1815821900000001 O
atom 5.8954247899999999 1.7030417200000001 6.4370536400000002 O
atom 0.4540236500000000 1.0041113500000001 3.4888140600000002 O
atom 1.1050503199999999 0.8563632100000000 8.8241240300000001 O
atom 5.6825749200000004 0.8593125500000000 3.8173320300000002 O
atom 6.1470223300000004 0.9004499400000000 9.0459877300000002 O
atom 4.8477541000000004 4.2973253500000004 2.1091205000000000 O
atom 5.3330267700000000 4.2847782499999996 7.3728799299999999 O
atom 9.8453671600000003 3.9833152500000000 2.7657106800000002 O
atom 10.4315802299999998 4.2438492500000002 7.8887262600000003 O
atom 5.0711696100000001 3.4421092799999999 4.7497217899999997 O
atom 5.6047883799999996 3.5029504400000002 10.0081363999999997 O
atom 10.2095412299999992 3.5532804300000000 5.3042309400000001 O
atom 10.6443001000000006 3.4525373199999998 10.5656151499999993 O
atom 3.0340910499999998 1.3499884300000000 2.7218684099999999 O
atom 3.4260759300000001 1.3527436200000000 7.8728671700000001 O
atom 8.0612760699999999 1.2908823000000000 3.0964515499999998 O
atom 8.5407007099999994 1.3172215300000001 8.3662175399999992 O
atom 3.1792333199999998 1.2666781300000001 5.3047173100000000 O
atom 3.6662383799999998 1.3433734100000001 10.4255199300000001 O
atom 8.2602250799999997 1.2673991800000000 5.7574987799999997 O
atom 8.7190269600000008 1.2523092400000000 10.9773699300000001 O
atom 2.4228958700000001 3.8144376900000001 0.1017358400000000 O
atom 2.7069201700000001 3.9328833500000000 5.4840352399999999 O
atom 7.3704317100000001 3.9085732300000000 0.6357331000000001 O
atom 7.7786803700000000 3.8938553699999998 5.9059481800000002 O
atom 2.5314997799999999 3.7649862100000000 2.8803872500000001 O
atom 2.9658030599999998 3.8657328000000000 8.0544537900000002 O
atom 7.4497602399999998 3.8090026600000000 3.2770617199999998 O
atom 8.0422592799999997 3.8271826199999999 8.5200381400000005 O
