lattice_vector 5.0620241300000002 0.0086429000000000 0.0178123900000000 
lattice_vector -0.0305934000000000 10.0900489699999998 0.0474573700000000 
lattice_vector -0.0500249600000000 -0.0035087000000000 10.0978160999999993 
atom 1.2863120299999999 -0.0526414600000000 1.2165959700000000 Si
atom 1.2113846399999999 -0.0220170000000000 6.3524112400000003 Hf
atom 1.2207707400000001 5.0784791699999996 1.2734210100000001 Hf
atom 1.2430539199999999 5.0483178400000002 6.3472520000000001 Hf
atom 1.2870630500000000 2.4828372100000000 3.7666825300000002 La
atom 1.1655170100000001 2.4979779999999998 8.8685930600000002 Hf
atom 1.1751667500000000 7.5814072499999998 3.8079714999999998 Hf
atom 1.2745090400000001 7.5613314000000003 8.8751574400000006 Hf
atom 3.8114813399999998 2.5590572100000002 1.2394970000000001 Hf
atom 3.7524795000000002 2.5085968900000002 6.3929153799999998 Hf
atom 3.7860350500000002 7.5741839700000000 1.3083279900000000 Hf
atom 3.7487917099999999 7.5585036900000002 6.3552040200000004 Hf
atom 3.8058371000000002 -0.0471074200000000 3.8383788600000002 Hf
atom 3.7720385400000001 -0.0047147900000000 8.8518669800000005 Hf
atom 3.7573350799999998 5.1011686200000002 3.8090076800000001 Hf
atom 3.7437699900000001 5.0383951500000004 8.8677409600000008 Hf
atom -0.3435773600000000 1.5083920799999999 -0.2450971300000000 O
atom -0.2001154600000000 1.2320862100000001 5.0379628099999998 O
atom -0.1033588200000000 6.5008230899999999 -0.0966465600000000 O
atom -0.1883994200000000 6.4323612800000003 4.9333241699999997 O
atom 0.3502290200000000 0.9119017800000000 2.1813959800000000 O
atom 0.0878416300000000 1.1606379800000000 7.5001474600000000 O
atom 0.0976876300000000 6.2262835499999998 2.4542408700000000 O
atom 0.0339738900000000 6.2028647100000001 7.5000429500000001 O
atom -0.1965571800000000 3.7626406399999999 2.5220539700000000 O
atom -0.1960490300000000 3.6362114900000000 7.7274240699999996 O
atom -0.3799473700000000 8.5744170099999995 2.8190937800000002 O
atom -0.1462637800000000 8.6997979300000008 7.8160844799999998 O
atom 0.1205887600000000 3.9410761399999998 0.0486967200000000 O
atom 0.0250384300000000 3.9156962399999999 5.2107266100000000 O
atom 0.3092402700000000 9.0642554999999998 0.2877437200000000 O
atom 0.0775998900000000 8.8477209699999992 5.2581314900000002 O
atom 3.0714082000000000 1.4471184699999999 2.7296634300000000 O
atom 2.6293473600000001 1.3847294500000000 7.8283068499999997 O
atom 2.6408220299999998 6.5438115899999998 2.6969682900000000 O
atom 2.5993261900000002 6.4118187600000001 7.7271528900000002 O
atom 2.2020213399999999 0.9535929900000000 0.2464099800000000 O
atom 2.4735742500000000 1.1115474500000000 5.3017647600000002 O
atom 2.4647207500000001 6.1443591700000004 0.1177352200000000 O
atom 2.3558164700000002 6.2670076500000000 5.1830215300000004 O
atom 2.6586172100000001 3.5621045400000000 -0.1097989200000000 O
atom 2.7157691300000000 3.7873341500000000 5.0775130500000003 O
atom 2.8625235000000000 8.5610350400000002 -0.2202758300000000 O
atom 2.6144390999999998 8.6958292000000004 4.8761064599999999 O
atom 2.4790165499999999 4.0175102400000000 2.3998285400000001 O
atom 2.3484547600000001 3.8694190200000000 7.5578053599999997 O
atom 2.1680350300000000 9.0583922700000006 2.2643458900000000 O
atom 2.4212205199999999 8.8992240200000001 7.4575847399999997 O
