lattice_vector 9.9938239800000002 -0.0031247500000000 -0.0001724400000000 
lattice_vector 0.0032344400000000 10.1190121200000007 0.0029035200000000 
lattice_vector 0.0002329100000000 -0.0026836100000000 9.9937781300000008 
atom 1.2482459699999999 0.0067696500000000 1.2481747299999999 Si
atom 1.2484834100000000 0.0056640300000000 6.2452575299999999 Hf
atom 1.2502873500000000 5.0660533799999996 1.2501392099999999 Hf
atom 1.2504270799999999 5.0649060199999996 6.2468929900000001 Hf
atom 6.2453830899999998 0.0054466400000000 1.2481863900000001 Hf
atom 6.2453442099999998 0.0039095600000000 6.2449871000000003 Si
atom 6.2471781499999999 5.0646714099999999 1.2500005199999999 Hf
atom 6.2473175599999999 5.0631208699999997 6.2468621799999999 Hf
atom 1.2649057100000001 2.5302762599999999 3.7540746199999999 Hf
atom 1.2342662400000000 2.5288328500000001 8.7384892199999999 Hf
atom 1.2355228300000001 7.6013182800000001 3.7550828300000001 Hf
atom 1.2662201099999999 7.6000796399999997 8.7396328299999997 Hf
atom 6.2310757499999996 2.5284915699999999 3.7414149100000000 Hf
atom 6.2619344200000002 2.5275607099999999 8.7507488999999996 Hf
atom 6.2630324300000000 7.5998856400000001 3.7426869800000002 Hf
atom 6.2325377199999998 7.5983804199999998 8.7519678699999996 Hf
atom 3.7542950300000002 2.5301420700000001 1.2645895000000000 Hf
atom 3.7418267699999999 2.5285971699999998 6.2307259200000003 Hf
atom 3.7554254899999999 7.6012351799999998 1.2350752199999999 Hf
atom 3.7432324900000000 7.6000150499999997 6.2625881699999999 Hf
atom 8.7387481200000003 2.5284698200000002 1.2337308700000000 Hf
atom 8.7512198199999993 2.5274267600000000 6.2613700300000001 Hf
atom 8.7400137299999994 7.5997734000000001 1.2655828800000000 Hf
atom 8.7525630000000003 7.5983188500000001 6.2318601899999999 Hf
atom 3.7468694999999999 0.0884512300000000 3.7466869100000002 Hf
atom 3.7469963100000001 -0.0788309000000000 8.7435453800000005 Hf
atom 3.7487276299999999 5.0993799900000001 3.7484361700000002 Hf
atom 3.7487254700000001 5.0296693399999999 8.7450416200000003 Hf
atom 8.7437929800000003 -0.0790319300000000 3.7465972000000001 Hf
atom 8.7437920699999996 0.0856503700000000 8.7433493700000007 Hf
atom 8.7455557899999992 5.0294407300000001 3.7480689599999999 Hf
atom 8.7458007400000000 5.0966145200000001 8.7452559099999991 Hf
atom -0.2393476800000000 1.5870181400000001 -0.2394798600000000 O
atom -0.2012493400000000 1.4409348200000001 4.7952672800000000 O
atom -0.0487636100000000 6.5972777100000002 -0.0489929900000000 O
atom -0.0461102300000000 6.4979762399999998 4.9501722600000004 O
atom 4.7953863600000002 1.4406873000000000 -0.2015503800000000 O
atom 4.7577613999999997 1.5841386500000001 4.7574468599999999 O
atom 4.9503639200000000 6.4977359600000000 -0.0465177200000000 O
atom 4.9485328199999996 6.5945500299999997 4.9480960400000003 O
atom 0.2542539500000000 0.9287185300000000 2.2425265099999998 O
atom 0.1158750500000000 1.1304383499999999 7.3784932899999998 O
atom 0.0310109900000000 6.0940508500000004 2.4694514299999999 O
atom 0.0379969600000000 6.1652112199999998 7.4598621700000001 O
atom 5.1125836400000004 1.1297977200000000 2.3816657299999999 O
atom 5.2512849499999996 0.9256805200000000 7.2394743999999998 O
atom 5.0345332200000001 6.1647206800000003 2.4630428900000001 O
atom 5.0284069999999996 6.0910782000000001 7.4665437099999998 O
atom -0.0490244200000000 3.5361272900000000 2.5484583199999999 O
atom -0.0466964100000000 3.6331844200000001 7.5431493300000003 O
atom -0.2371374100000000 8.5465419600000008 2.7390287000000000 O
atom -0.1990141900000000 8.6906345100000006 7.6979588999999997 O
atom 4.9502009100000004 3.6328106899999999 2.5459244299999999 O
atom 4.9479285500000003 3.5331103000000001 7.5450056099999996 O
atom 4.7976749700000001 8.6900567100000004 2.7011213900000000 O
atom 4.7598838800000003 8.5436116299999991 7.7358374200000002 O
atom 0.0304430200000000 4.0393922199999999 0.0302029400000000 O
atom 0.0368141100000000 3.9660319400000001 5.0336936699999999 O
atom 0.2572517500000000 9.2039422000000002 0.2568907000000000 O
atom 0.1184632500000000 9.0008345799999994 5.1148011200000001 O
atom 5.0339177599999996 3.9658196000000001 0.0364342000000000 O
atom 5.0272660599999996 4.0366859399999999 5.0268194199999998 O
atom 5.1152307400000003 9.0006172099999997 0.1178876500000000 O
atom 5.2542268800000000 9.2013388799999998 5.2536399700000000 O
atom 2.7367807599999998 1.5851201200000000 2.7365619600000000 O
atom 2.6993652400000001 1.4390789100000001 7.6959022499999996 O
atom 2.5498125599999999 6.5958625499999997 2.5494473300000000 O
atom 2.5477891499999998 6.4964766799999998 7.5440201399999998 O
atom 7.6961678800000000 1.4388794600000001 2.6989574599999999 O
atom 7.7337853599999997 1.5821411100000000 7.7333071200000001 O
atom 7.5443859199999999 6.4962633600000004 2.5472609899999998 O
atom 7.5470583700000002 6.5929393200000002 7.5464295899999998 O
atom 2.2425891600000001 0.9285927300000000 0.2540491300000000 O
atom 2.3819564099999999 1.1299219300000001 5.1123504500000001 O
atom 2.4696574099999999 6.0938934199999997 0.0307352400000000 O
atom 2.4634963600000002 6.1648724300000000 5.0342464900000001 O
atom 7.3786056999999996 1.1301024300000000 0.1154699400000000 O
atom 7.2398083199999999 0.9256101200000000 5.2508360700000001 O
atom 7.4601091200000003 6.1649089300000002 0.0375244400000000 O
atom 7.4670535999999998 6.0909337099999998 5.0278651200000004 O
atom 2.5486771699999999 3.5360577700000002 -0.0493171100000000 O
atom 2.5463053800000002 3.6329044399999999 4.9499244899999999 O
atom 2.7392787300000001 8.5464192600000004 -0.2375397600000000 O
atom 2.7016302400000001 8.6901119199999997 4.7972386599999997 O
atom 7.5433908900000004 3.6328361100000000 -0.0471690900000000 O
atom 7.5454487300000004 3.5330211100000000 4.9474268300000004 O
atom 7.6982971400000002 8.6902530299999992 -0.1996620300000000 O
atom 7.7363819999999999 8.5434645899999992 4.7592086800000004 O
atom 2.4697117400000002 4.0381284300000004 2.4693411099999998 O
atom 2.4630610000000002 3.9645724100000002 7.4595529699999998 O
atom 2.2453447199999998 9.2032438899999995 2.2449593499999998 O
atom 2.3843243500000000 8.9993753800000000 7.3808000800000002 O
atom 7.4599306500000004 3.9643454500000002 2.4625560100000001 O
atom 7.4666290599999998 4.0351466900000004 7.4660426299999996 O
atom 7.3812837199999999 8.9991649799999998 2.3837025999999999 O
atom 7.2423202099999999 9.2001161800000002 7.2416921600000004 O
