lattice_vector 10.0254662000000003 -0.0190453800000000 0.1572095300000000 
lattice_vector 0.0134570900000000 10.4441898200000001 0.0563111500000000 
lattice_vector 0.0274126200000000 0.0062195200000000 10.0240493100000005 
atom 1.1820026400000001 0.3890519600000000 1.0850532200000000 Si
atom 1.3497890299999999 0.1325778600000000 6.2545736700000001 Hf
atom 1.2648251100000001 5.5358848700000003 1.4254269500000001 Hf
atom 1.3440759499999999 5.3485851699999998 6.3047153600000003 Hf
atom 6.4539178300000000 0.1532158800000000 1.4050942000000000 Hf
atom 6.3153471100000003 0.1161426100000000 6.3295227100000000 Hf
atom 6.4675718399999997 5.4370860900000002 1.4996445700000001 Hf
atom 6.3894702299999997 5.4043387400000000 6.3608689299999996 Hf
atom 1.3242097300000000 2.3943486100000002 3.6711977299999998 Hf
atom 1.1871442000000001 2.3462598500000000 8.6075790699999999 Hf
atom 1.4380085499999999 7.6260281699999997 3.9173942600000000 Hf
atom 1.2989997799999999 7.6763973700000001 8.8274102800000005 Hf
atom 6.4194772200000001 2.3865706200000001 3.9223454699999998 Hf
atom 6.3638523800000000 2.3993685700000000 8.8474833700000008 Hf
atom 6.4043648199999996 7.7005828300000001 3.9232238100000001 Hf
atom 6.4233196499999998 7.6909913899999998 8.9944194799999995 Hf
atom 3.8258573999999999 2.5859856600000000 1.3481950500000000 La
atom 3.6722428599999999 2.7342608600000000 6.2629728299999998 Hf
atom 3.7294568400000001 8.0080890799999995 1.4042275799999999 Hf
atom 3.6923682499999999 8.0348574599999996 6.4468250300000003 Hf
atom 8.6683256100000001 2.7680965500000001 1.3912346300000000 Hf
atom 8.6283853199999996 2.7604674000000000 6.3910180099999998 Hf
atom 8.7969912299999997 8.0526654700000009 1.4442484900000001 Hf
atom 8.6986263899999994 7.9864993599999998 6.4464069700000000 Hf
atom 3.7391665399999998 5.0410018399999998 3.8579845000000001 Hf
atom 3.8773738000000000 5.2788664100000000 8.7461777200000004 La
atom 3.6547170599999999 10.2128253999999998 3.8466227000000002 Hf
atom 3.6151999500000001 10.3223511299999995 8.9803393800000002 Hf
atom 8.7149808800000006 5.0240646399999997 3.9346804999999998 Hf
atom 8.7086935600000004 5.0737674999999998 8.9421542200000008 Hf
atom 8.8124787700000002 10.2622132300000004 3.9399109299999999 Hf
atom 8.6842458499999999 10.2606831100000004 8.9234929699999999 Hf
atom 0.3976603600000000 1.8834793900000000 1.7776532199999999 O
atom 0.2413802700000000 1.7970944000000000 6.9533254099999997 O
atom 0.3597868300000000 7.1492018100000001 2.1222668300000000 O
atom 0.2414571800000000 7.0514151800000002 7.0871573000000003 O
atom 5.6966992200000002 1.8717469400000000 2.1302090100000002 O
atom 5.3790681100000004 1.8848970199999999 7.0110279699999998 O
atom 5.4530786400000002 7.2408334099999996 2.1485183399999999 O
atom 5.2516221999999999 6.9905396299999998 7.2970423899999997 O
atom 0.3756429200000000 0.7041084600000000 4.5005268400000000 O
atom 0.2714890400000000 0.6341103500000000 9.5750911399999996 O
atom 0.3837667200000000 5.8672155200000002 4.5231077700000002 O
atom 0.4680751000000000 5.8124160500000004 9.5399469000000003 O
atom 5.3776719499999999 0.6529800900000000 4.5482494400000002 O
atom 5.2675669999999997 0.7517960100000000 9.7176097099999996 O
atom 5.4408674100000001 5.9419313100000002 4.5514527600000001 O
atom 5.6115254999999999 6.0644733700000000 9.8255815099999992 O
atom 4.7498207900000002 4.6546850199999996 2.0944273799999999 O
atom 4.6576437200000003 4.4667505700000003 6.6659385799999997 O
atom 4.7519989100000002 9.7904991900000002 2.1276383299999999 O
atom 4.6745222399999999 9.7261882100000001 7.1847560499999998 O
atom 9.6358572099999993 4.5094226300000004 2.1239276600000001 O
atom 9.6722223700000001 4.4423273200000004 7.1331805299999997 O
atom 9.9895145799999998 9.8053855500000004 2.0790592900000000 O
atom 9.7177172400000007 9.6844352800000006 7.1881968299999999 O
atom 4.6284634400000000 3.2006487099999998 4.3721335799999999 O
atom 4.6999823000000003 3.2777143400000002 9.3541028399999995 O
atom 4.7500600400000001 8.5486626999999995 4.7253555000000000 O
atom 4.6183562299999998 8.5685088900000004 9.5937945800000008 O
atom 9.6738137399999999 3.2345829699999999 4.5872780300000002 O
atom 9.7400172900000008 3.3201852700000001 9.6408416700000004 O
atom 9.7491900299999994 8.5091074199999994 4.6882258500000002 O
atom 9.6724347500000007 8.5189713800000000 9.6481562299999997 O
atom 2.3607287200000000 0.8418613300000000 2.4439051400000000 O
atom 2.6902479499999998 1.1863034600000000 7.4676572500000002 O
atom 2.7394045999999999 6.3686095199999997 2.6072078699999999 O
atom 2.5406920300000002 6.5812665299999997 7.4901886800000002 O
atom 7.9088536400000002 1.1943271700000000 2.6344826900000000 O
atom 7.6813234899999996 1.1744036000000000 7.6128347999999999 O
atom 7.8041984600000003 6.4834755499999996 2.7176409300000000 O
atom 7.6733238699999999 6.4407884800000001 7.7101243699999999 O
atom 2.7213389100000001 1.3746752200000001 4.9285081399999999 O
atom 2.4270355900000000 1.4551017399999999 9.9590656299999996 O
atom 2.7797121400000000 6.5775272300000003 5.1062739400000003 O
atom 2.5869266400000002 6.7872239499999996 10.1960393400000005 O
atom 7.7596940800000000 1.3351613499999999 5.1373436999999997 O
atom 7.7260519700000003 1.3841818400000001 10.1186857400000001 O
atom 7.7401878499999999 6.6035456100000003 5.1957350599999996 O
atom 7.9321493800000002 6.6472144200000001 10.2219729899999994 O
atom 2.2963644900000002 3.9467144900000002 5.0272506999999997 O
atom 2.3365028300000001 9.1766743700000006 5.1946701700000002 O
atom 2.2518389200000000 9.5134319299999994 10.3973642700000006 O
atom 7.3419032299999998 3.9765444400000001 5.1629741700000000 O
atom 7.3790819900000004 4.0157677100000004 10.1771516599999998 O
atom 7.3968502300000001 9.2207066100000006 5.1430781799999998 O
atom 7.3553622900000004 9.2236582400000007 10.1686521600000006 O
atom 2.1799904500000000 3.8936587800000000 2.4333586500000002 O
atom 2.2540396700000001 3.7872688600000002 7.6009532499999999 O
atom 2.5875877300000001 8.7959998400000003 2.8106755500000000 O
atom 2.3060234600000000 9.0977321500000006 7.7267886299999997 O
atom 7.3695425999999999 3.8244958900000001 2.6920510300000000 O
atom 7.3071446699999996 3.8395448999999999 7.6568173899999996 O
atom 7.4861988799999999 9.0822532900000006 2.6522573999999999 O
atom 7.3268898800000004 9.0296143000000004 7.6438067099999998 O
