lattice_vector 10.1147872499999991 0.0076499400000000 0.0097927000000000 
lattice_vector -0.0032740300000000 10.5409582200000003 -0.0198194600000000 
lattice_vector -0.0050614200000000 0.0094337800000000 5.0564738199999999 
atom 1.2204026900000000 0.1008657100000000 1.2627794000000001 La
atom 1.3578276899999999 5.4601821599999996 1.2723050000000000 Hf
atom 6.4843122800000002 0.2008732700000000 1.3022439699999999 Hf
atom 6.3954795600000001 5.4375497499999996 1.2964901400000000 Hf
atom 1.3286237000000001 2.5625106099999999 3.7704893899999998 Hf
atom 1.3738910700000000 7.6950886499999998 3.8203920500000002 Hf
atom 6.4479331300000000 2.5153879300000002 3.8069166900000000 Hf
atom 6.4532839900000001 7.6732472700000001 3.8050450900000001 Hf
atom 3.6705263900000000 2.8566690700000001 1.3035725100000000 Hf
atom 3.7158534799999998 7.9890803400000001 1.2346031099999999 Hf
atom 8.7056862000000006 2.8860908599999999 1.2878796100000001 Hf
atom 8.7111550399999995 8.0437754100000003 1.2705558500000000 Hf
atom 3.6869384699999999 5.0915249800000000 3.8036458299999998 Hf
atom 3.8236564999999998 10.4511578699999994 3.7749476999999998 La
atom 8.7638724700000008 5.1218130100000003 3.8274561800000000 Hf
atom 8.6749047400000006 10.3581273500000002 3.8133002500000002 Hf
atom 0.2802544000000000 2.1897016400000000 1.9802738099999999 O
atom 0.3472205100000000 7.2383439599999999 1.9581666099999999 O
atom 5.3797397699999996 1.8982067499999999 2.0356273900000001 O
atom 5.4228963099999996 7.1405952800000003 2.0040762800000000 O
atom 0.3462853600000000 0.7313562900000000 4.1068226200000000 O
atom 0.3301662800000000 6.0002879199999999 4.5135633100000003 O
atom 5.7572049400000003 0.7495389800000000 4.5208401000000000 O
atom 5.4230215199999998 5.8914620500000003 4.5213866899999999 O
atom 4.7130156300000001 4.5539482700000002 1.9923992699999999 O
atom 4.6974223400000001 9.8215295999999999 1.5659817199999999 O
atom 9.7348903399999998 4.6705318900000004 1.9994986600000000 O
atom 9.4006700900000002 9.8121398200000005 1.9790261400000000 O
atom 4.6958511100000004 3.3157217800000001 4.4979480199999999 O
atom 4.7627086500000004 8.3647978399999996 4.5015045300000001 O
atom 9.7348760199999997 3.4214114200000001 4.5435159299999999 O
atom 9.7781521700000003 8.6638545899999997 4.5553964400000000 O
atom 2.7087184199999998 1.4954301900000000 2.5221197499999999 O
atom 2.7145408799999999 6.4573135500000003 2.5253118400000001 O
atom 7.7795263099999996 1.3095181100000000 2.5850723800000002 O
atom 7.7989875399999997 6.5062776800000002 2.5256846199999998 O
atom 2.6403513099999998 1.5966688499999999 5.0691069200000003 O
atom 2.7431464399999999 6.5903921399999996 5.0483825400000004 O
atom 7.9269405400000004 1.4167722599999999 5.1250975700000003 O
atom 7.7799759599999998 6.6363129199999999 5.0593629199999999 O
atom 2.3275630100000000 4.0989924400000000 5.0575729899999997 O
atom 2.3331118300000000 9.0608108299999994 5.0359209900000002 O
atom 7.3578135600000003 4.0576600699999998 5.0581679299999998 O
atom 7.3770453299999996 9.2543760600000002 5.0978227900000004 O
atom 2.2990488199999999 3.9658801399999999 2.5245705300000001 O
atom 2.4013516500000001 8.9599356700000001 2.5267849600000001 O
atom 7.3767474899999996 3.9276845300000001 2.5358441599999999 O
atom 7.2296140800000002 9.1471185800000008 2.5815269399999998 O
