lattice_vector 10.1359849999999998 -0.0018450000000000 -0.0015920000000000 
lattice_vector 0.0025620000000000 10.3091460000000001 0.0112040000000000 
lattice_vector 0.0026380000000000 -0.0181520000000000 10.4986759999999997 
atom 1.3592010000000001 0.1245300000000000 1.7115560000000001 La
atom 1.4053500000000001 0.1916740000000000 7.0581620000000003 Hf
atom 1.4092150000000001 5.3625559999999997 1.8194930000000000 Hf
atom 1.4221509999999999 5.3662479999999997 7.0419570000000000 Hf
atom 1.4021680000000001 2.3366620000000000 4.4189189999999998 Hf
atom 1.4224370000000000 2.3932240000000000 9.6292890000000000 Hf
atom 1.4149389999999999 7.4999229999999999 4.4569580000000002 Hf
atom 1.4205850000000000 7.5033690000000002 9.6788609999999995 Hf
atom 3.6569410000000002 2.7715550000000002 1.7756710000000000 Hf
atom 3.5971910000000000 2.7665120000000001 6.9874270000000003 Hf
atom 3.7027530000000000 7.8906029999999996 1.8287789999999999 Hf
atom 3.6615080000000000 7.9304740000000002 7.0552720000000004 Hf
atom 3.6644749999999999 4.9135780000000002 4.4116379999999999 Hf
atom 3.6265540000000001 4.9637209999999996 9.6921269999999993 Hf
atom 3.6678370000000000 10.0793140000000001 4.4409070000000002 Hf
atom 3.6882280000000001 10.0558379999999996 9.6769730000000003 Hf
atom 6.4872529999999999 0.1642770000000000 0.8709390000000000 Hf
atom 6.4700230000000003 0.2208860000000000 6.0816200000000000 Hf
atom 6.4856460000000000 5.3635760000000001 0.8325340000000000 Hf
atom 6.4823899999999997 5.3670220000000004 6.0544680000000000 Hf
atom 6.4729390000000002 2.3659650000000001 3.4423050000000002 Hf
atom 6.4290349999999998 2.4334549999999999 8.7890230000000003 La
atom 6.4899860000000000 7.5007460000000004 3.4693320000000001 Hf
atom 6.4797390000000004 7.5043839999999999 8.6919880000000003 Hf
atom 8.7517969999999998 2.8100000000000001 0.8337520000000000 Hf
atom 8.7339610000000008 2.7865730000000002 6.0697729999999996 Hf
atom 8.6928140000000003 7.9027279999999998 0.8188569999999999 Hf
atom 8.7334859999999992 7.9526510000000004 6.0987479999999996 Hf
atom 8.7277159999999991 4.9356200000000001 3.4554100000000001 Hf
atom 8.7717399999999994 4.9755170000000000 8.6819120000000005 Hf
atom 8.6663969999999999 10.0995439999999999 3.5230190000000001 Hf
atom 8.7286219999999997 10.0944000000000003 8.7350770000000004 Hf
atom 0.3928950000000000 1.9641970000000000 0.8686600000000000 O
atom 0.3495740000000000 1.7370070000000000 6.1842059999999996 O
atom 0.3347960000000000 6.8715780000000004 0.8822560000000000 O
atom 0.3265110000000000 6.8532529999999996 6.1444809999999999 O
atom 0.2176600000000000 0.9011300000000000 3.6593100000000001 O
atom 0.3616490000000000 0.8351160000000000 8.7951060000000005 O
atom 0.3283750000000000 6.0427689999999998 3.5181410000000000 O
atom 0.3439790000000000 6.0429420000000000 8.7337869999999995 O
atom 4.7775569999999998 4.2316729999999998 0.8263130000000000 O
atom 4.7516679999999996 4.2495950000000002 6.0981110000000003 O
atom 4.7256080000000003 9.4375579999999992 0.9785260000000000 O
atom 4.7443549999999997 9.3984559999999995 6.1321300000000001 O
atom 4.7437189999999996 3.4621810000000002 3.4722870000000001 O
atom 4.4715290000000003 3.4826890000000001 8.6789810000000003 O
atom 4.7802889999999998 8.5792690000000000 3.5459760000000000 O
atom 4.7223459999999999 8.5302539999999993 8.7537660000000006 O
atom 2.8611100000000000 1.3207860000000000 3.1657050000000000 O
atom 2.7915450000000002 1.2504340000000000 8.2936850000000000 O
atom 2.7988360000000001 6.3796390000000001 3.1174260000000000 O
atom 2.7976860000000001 6.4215739999999997 8.3574389999999994 O
atom 2.9235899999999999 1.3861340000000000 0.3407550000000000 O
atom 2.7443439999999999 1.2518760000000000 5.7027210000000004 O
atom 2.7738070000000001 6.4122060000000003 0.5174020000000000 O
atom 2.7969059999999999 6.4347040000000000 5.7304560000000002 O
atom 2.2670650000000001 3.8387920000000002 3.0811350000000002 O
atom 2.1534300000000002 3.8602690000000002 8.3089779999999998 O
atom 2.3799610000000002 8.8890630000000002 3.1886839999999999 O
atom 2.2733240000000001 8.9855809999999998 8.3301809999999996 O
atom 2.2816000000000001 3.9041610000000002 0.4661520000000000 O
atom 2.2798419999999999 3.8692730000000002 5.6907569999999996 O
atom 2.4586910000000000 8.8627889999999994 0.3789520000000000 O
atom 2.2780830000000001 9.0105319999999995 5.7534470000000004 O
atom 5.4283169999999998 1.7230529999999999 1.7054849999999999 O
atom 5.2867259999999998 1.6572739999999999 6.8412240000000004 O
atom 5.4106300000000003 6.8249089999999999 1.7776160000000001 O
atom 5.3976059999999997 6.8249550000000001 6.9934079999999996 O
atom 5.4169900000000002 0.8207250000000000 4.3164670000000003 O
atom 5.4628699999999997 0.5933680000000000 9.6315519999999992 O
atom 5.3938969999999999 6.0138330000000000 4.3666669999999996 O
atom 5.4049649999999998 5.9952899999999998 9.6289409999999993 O
atom 9.7876680000000000 4.3347990000000003 1.7569060000000001 O
atom 9.8480349999999994 4.2860980000000000 6.9645320000000002 O
atom 9.5401299999999996 9.3823519999999991 1.8317900000000000 O
atom 9.8142449999999997 9.4032269999999993 7.0383310000000003 O
atom 9.8103689999999997 3.4674619999999998 4.3787929999999999 O
atom 9.7946679999999997 3.4286080000000001 9.5322519999999997 O
atom 9.8205670000000005 8.6164539999999992 4.4124980000000003 O
atom 9.8488840000000000 8.6340880000000002 9.6842980000000001 O
atom 7.9936270000000000 1.1713350000000000 10.1590810000000005 O
atom 7.8119759999999996 1.3054340000000000 4.7972310000000000 O
atom 7.8437910000000004 6.4542710000000003 9.9939560000000007 O
atom 7.8644429999999996 6.4318390000000001 4.7808229999999998 O
atom 7.8580379999999996 1.3064350000000000 2.2063299999999999 O
atom 7.9299030000000004 1.2362730000000000 7.3344240000000003 O
atom 7.8641959999999997 6.4447250000000000 2.1535560000000000 O
atom 7.8680610000000000 6.4868649999999999 7.3936409999999997 O
atom 7.5278720000000003 4.0033810000000001 10.1319890000000008 O
atom 7.3442900000000000 3.8558880000000002 4.7576450000000001 O
atom 7.3531550000000001 8.9622080000000004 10.0446989999999996 O
atom 7.3487650000000002 8.9972390000000004 4.8200320000000003 O
atom 7.3384950000000000 3.8808980000000002 2.1811250000000002 O
atom 7.4477609999999999 3.9774759999999998 7.3224020000000003 O
atom 7.2210289999999997 9.0060870000000008 2.2016749999999998 O
atom 7.3374779999999999 9.0276890000000005 7.4298200000000003 O
