lattice_vector 9.9638478100000007 -0.0571784600000000 0.0777141600000000 
lattice_vector 0.0099537100000000 10.3789571100000000 -0.0282199900000000 
lattice_vector 0.0088460500000000 -0.0573695900000000 10.0046762299999994 
atom 1.1631198800000000 0.3527586600000000 1.0691338900000000 Si
atom 1.3473554100000000 0.1478341300000000 6.2916372899999997 Hf
atom 1.3741659900000001 5.3022329199999998 1.2699102000000000 Hf
atom 1.3410089199999999 5.3151915499999998 6.2893063299999996 Hf
atom 6.3950820100000003 0.1238472700000000 1.3447276500000001 Hf
atom 6.2733365399999999 0.0614965300000000 6.2574100899999996 Hf
atom 6.4588678200000000 5.3960397100000002 1.2990875099999999 Hf
atom 6.3176285500000002 5.3052290299999996 6.2709661600000004 Hf
atom 1.3262616100000000 2.3314862800000000 3.6791319599999999 Hf
atom 1.2914612999999999 2.4142344300000000 8.7493367000000006 Hf
atom 1.3684589599999999 7.5437761099999996 3.7889035600000001 Hf
atom 1.3217511500000001 7.5770008500000001 8.8133773899999994 Hf
atom 6.3622977699999996 2.3509541800000000 3.8539975200000001 Hf
atom 6.3194005500000001 2.3323218300000002 8.7426108199999994 Hf
atom 6.3567961700000000 7.5775649800000000 3.7999441699999998 Hf
atom 6.3038272099999997 7.5499783999999996 8.8014867799999994 Hf
atom 3.7465560700000000 2.5760284300000000 1.2261968700000001 La
atom 3.6444399800000000 2.7058428700000001 6.2680887500000004 Hf
atom 3.6840914800000002 7.8834176600000001 1.2900569799999999 Hf
atom 3.6581866999999999 7.9448482100000000 6.3390119900000004 Hf
atom 8.6137474500000000 2.7080107500000001 1.2877075400000000 Hf
atom 8.6313321999999992 2.6651243899999999 6.2992919499999998 Hf
atom 8.7831702299999996 7.9436528400000004 1.2897200799999999 Hf
atom 8.6567670000000003 7.8746488100000001 6.3057049500000000 Hf
atom 3.5980912200000001 4.9820402200000000 3.8903501299999999 Hf
atom 3.6546116099999999 5.0033527299999996 8.7402189600000000 Hf
atom 3.6183132300000000 10.1030388500000008 3.7343599900000002 Hf
atom 3.5685995099999999 10.1491482099999999 8.8639715900000002 Hf
atom 8.6573173600000004 4.9405961999999999 3.8101860900000002 Hf
atom 8.6281495300000000 4.9403722099999996 8.7902616299999998 Hf
atom 8.7241099999999996 10.1477943300000000 3.7921780900000002 Hf
atom 8.6025273599999998 10.1213534700000007 8.7682871599999999 Hf
atom 0.4287982700000000 1.8871562700000000 1.7446425100000000 O
atom 0.3262593300000000 1.8608653600000000 6.9902791200000003 O
atom 0.4277310100000000 7.0700386999999996 1.9510293200000000 O
atom 0.3559492700000000 7.0599973699999996 6.9629941700000000 O
atom 5.6051199799999996 1.8440810900000000 2.0755829499999998 O
atom 5.3683885299999998 1.8550632300000001 6.9040958300000002 O
atom 5.3736218100000004 7.0136001900000000 2.0164129000000002 O
atom 5.3228035100000000 7.0188840399999997 7.0174713999999998 O
atom 0.3578775800000000 0.6750287699999999 4.5269930499999997 O
atom 0.2562798800000000 0.5984983800000000 9.5676468299999993 O
atom 0.3868777200000000 5.7996052999999996 4.4595349700000000 O
atom 0.3285215300000000 5.8380356700000000 9.4633554300000000 O
atom 5.3468156400000000 0.6166294400000000 4.4677752899999996 O
atom 5.1902230899999999 0.7330635700000000 9.6435176100000000 O
atom 5.3853152900000003 5.8183881000000000 4.4257664500000002 O
atom 5.3309286399999998 5.8407196299999997 9.5497708800000005 O
atom 4.5611344899999997 4.5048135900000004 6.8230296399999997 O
atom 4.7229679600000001 9.6370406299999996 1.9891023000000001 O
atom 4.6187124199999996 9.6567366200000002 7.0531961499999998 O
atom 9.6169086600000000 4.4024639499999996 2.0051509200000002 O
atom 9.5993397399999996 4.4051955400000002 6.9962461700000000 O
atom 9.9110862300000004 9.6977380800000006 1.9140284599999999 O
atom 9.6245674500000007 9.6062635800000002 6.9948893200000004 O
atom 4.6206391599999996 3.2261869500000002 4.3823343899999996 O
atom 4.6432565600000002 3.2886153600000001 9.1887318699999998 O
atom 4.7098179199999999 8.4444530199999992 4.5899699199999997 O
atom 4.5710009700000001 8.4321103700000002 9.4609231800000000 O
atom 9.6018383699999994 3.1480251600000000 4.4546646900000004 O
atom 9.5524993699999996 3.1745146700000002 9.4644466600000001 O
atom 9.6505606999999998 8.3818511299999994 4.4875726900000004 O
atom 9.5628828099999996 8.3629227099999994 9.4493890599999997 O
atom 2.3390334600000000 0.7788062600000000 2.4389693100000001 O
atom 2.7087806799999998 1.1960370600000001 7.5157471600000001 O
atom 2.7741299700000002 6.2392185900000001 2.4908972600000001 O
atom 2.6739176499999999 6.3969157000000001 7.5280865600000002 O
atom 7.8547804899999996 1.1641697099999999 2.5554452500000000 O
atom 7.6407530299999999 1.1103447399999999 7.5287210199999999 O
atom 7.7780612500000004 6.3929027300000003 2.5479955300000001 O
atom 7.6606740300000000 6.3329160699999996 7.5559345400000000 O
atom 2.7229468300000002 1.3392704000000000 4.9384688199999998 O
atom 2.4175711799999999 1.1979196299999999 9.9927162400000000 O
atom 2.7274092500000000 6.5182663400000003 5.0479456100000002 O
atom 2.6756619100000001 6.5331640799999997 10.0202614800000003 O
atom 7.7055787000000002 1.2716274999999999 5.0547132100000001 O
atom 7.6346091300000003 1.2792075800000000 10.0297873499999994 O
atom 7.6863992500000000 6.5047224300000002 5.0450466100000000 O
atom 7.6959516900000002 6.5014480399999997 10.0670503199999999 O
atom 2.2575596299999998 3.8867155900000001 5.0408338400000003 O
atom 2.2544302200000002 3.9605044700000001 9.9302172399999993 O
atom 2.3011332499999999 9.1107398800000006 5.0857740400000004 O
atom 2.1580492499999999 9.2158435300000008 10.2427484599999996 O
atom 7.3086991299999999 3.9061660800000002 5.0496100799999999 O
atom 7.2580924099999997 3.8852690299999999 10.0332737299999994 O
atom 7.3390935900000001 9.0991894099999993 5.0009316500000001 O
atom 7.2583046099999997 9.0775661099999994 9.9993837299999999 O
atom 2.3003759600000002 3.8132317699999998 2.5703658500000000 O
atom 2.2730815600000001 3.7748210900000001 7.4957091599999996 O
atom 2.5683857400000001 8.6741340000000005 2.7006939299999999 O
atom 2.2649655900000001 8.9850478500000008 7.6032088800000004 O
atom 7.2459036699999997 3.8147480400000000 2.5409650500000001 O
atom 7.2579436800000003 3.7394027300000001 7.5186374899999997 O
atom 7.4240410099999998 8.9594238199999996 2.4995029999999998 O
atom 7.2595580999999996 8.9025280000000002 7.4979966500000002 O
