lattice_vector 10.1698670000000000 -0.0094960000000000 0.8386420000000000 
lattice_vector -0.0005270000000000 10.3445970000000003 0.0082970000000000 
lattice_vector 0.8303110000000000 -0.0076910000000000 10.4412610000000008 
atom 1.4293450000000001 0.1183260000000000 1.5467210000000000 La
atom 1.9659860000000000 0.2331400000000000 6.8674559999999998 Hf
atom 1.5237710000000000 5.3445200000000002 1.6071830000000000 Hf
atom 1.9547380000000001 5.3953329999999999 6.8715570000000001 Hf
atom 6.6864100000000004 0.2198870000000000 2.0456050000000001 Hf
atom 7.0096679999999996 0.2423540000000000 7.3047589999999998 Hf
atom 6.6156240000000004 5.3502190000000001 2.0793240000000002 Hf
atom 7.0235960000000004 5.3623130000000003 7.2883540000000000 Hf
atom 1.7263999999999999 2.3497560000000002 4.2475300000000002 Hf
atom 2.1473800000000001 2.4050419999999999 9.4452949999999998 Hf
atom 1.6859360000000001 7.6159960000000000 4.1895460000000000 La
atom 2.1872520000000000 7.5257410000000000 9.4607430000000008 Hf
atom 6.8050139999999999 2.4049909999999999 4.6852919999999996 Hf
atom 7.2547470000000001 2.3622130000000001 9.8960760000000008 Hf
atom 6.8067219999999997 7.5068289999999998 4.6978020000000003 Hf
atom 7.2818759999999996 7.5177379999999996 9.8864900000000002 Hf
atom 3.7582540000000000 2.7749440000000001 1.3898029999999999 Hf
atom 4.1459099999999998 2.8089320000000000 6.5928339999999999 Hf
atom 3.8480620000000001 7.9199950000000001 1.3550690000000001 Hf
atom 4.1808810000000003 7.9675219999999998 6.6190930000000003 Hf
atom 8.8260799999999993 2.8238639999999999 1.7884469999999999 Hf
atom 9.2636990000000008 2.7995749999999999 7.0434130000000001 Hf
atom 8.8210519999999999 7.8974719999999996 1.8105570000000000 Hf
atom 9.2019500000000001 7.9705339999999998 7.0763520000000000 Hf
atom 3.9320200000000001 4.9483210000000000 3.9863130000000000 Hf
atom 4.3944369999999999 4.9383600000000003 9.2197069999999997 Hf
atom 4.0396330000000003 10.1760140000000003 4.0120310000000003 Hf
atom 4.4038839999999997 10.1109899999999993 9.2028140000000000 Hf
atom 9.0397850000000002 4.9253929999999997 4.4183579999999996 Hf
atom 9.4762690000000003 4.9392959999999997 9.6324500000000004 Hf
atom 8.9138940000000009 10.1632949999999997 4.5125099999999998 Hf
atom 9.4975339999999999 10.1075739999999996 9.6543849999999996 Hf
atom 0.4505900000000000 2.0166029999999999 0.8557790000000000 O
atom 0.8606560000000000 1.7910349999999999 6.1483600000000003 O
atom 0.5111550000000000 7.0531079999999999 0.9747260000000000 O
atom 0.7660550000000000 6.9164349999999999 6.2677690000000004 O
atom 5.5256220000000003 1.7162670000000000 1.2743260000000001 O
atom 5.8819379999999999 1.7313030000000000 6.4975300000000002 O
atom 5.5747770000000001 6.8747769999999999 1.2559039999999999 O
atom 5.9287080000000003 6.8988339999999999 6.5279579999999999 O
atom 0.5782980000000000 0.7418000000000000 3.6850830000000001 O
atom 1.0987760000000000 0.7859920000000000 8.7617960000000004 O
atom 0.6519490000000000 5.7630970000000001 3.4530959999999999 O
atom 1.0840890000000001 5.9419490000000001 8.7748190000000008 O
atom 5.7748619999999997 0.8458920000000000 3.8927060000000000 O
atom 6.1399689999999998 0.8569860000000000 9.1134740000000001 O
atom 5.6989599999999996 6.0041710000000004 3.8866100000000001 O
atom 6.1267009999999997 6.0156760000000000 9.1145479999999992 O
atom 4.8947620000000001 4.2692170000000003 2.1859920000000002 O
atom 5.2822190000000004 4.3096779999999999 7.3947440000000002 O
atom 5.0212370000000002 9.4423820000000003 2.1691170000000000 O
atom 5.2921810000000002 9.4830970000000008 7.4207159999999996 O
atom 9.8436649999999997 4.4331030000000000 2.4668679999999998 O
atom 10.3508849999999999 4.3481649999999998 7.7795980000000000 O
atom 9.5654079999999997 9.5791509999999995 2.6053649999999999 O
atom 10.3668549999999993 9.5126919999999995 7.7935390000000000 O
atom 5.0591299999999997 3.4402430000000002 4.7859610000000004 O
atom 5.5262950000000002 3.4428999999999998 10.0125759999999993 O
atom 5.0892890000000000 8.5854119999999998 4.7960010000000004 O
atom 5.6133119999999996 8.6349870000000006 10.0035190000000007 O
atom 10.0929439999999992 3.3353090000000001 5.1639260000000000 O
atom 10.5111170000000005 3.3616130000000002 10.3101880000000001 O
atom 9.8208549999999999 8.5277960000000004 5.1920979999999997 O
atom 10.6045219999999993 8.5745660000000008 10.4430669999999992 O
atom 3.0745480000000001 1.3898370000000000 2.8176660000000000 O
atom 3.4191270000000000 1.3376370000000000 7.9383049999999997 O
atom 3.0974529999999998 6.3885670000000001 2.6211980000000001 O
atom 3.4225180000000002 6.5096559999999997 7.9823130000000004 O
atom 8.0821600000000000 1.3875329999999999 3.1859929999999999 O
atom 8.5203469999999992 1.3255680000000001 8.4002739999999996 O
atom 8.0721740000000004 6.4972570000000003 3.1853549999999999 O
atom 8.4803010000000008 6.4828500000000000 8.3999950000000005 O
atom 3.2078419999999999 1.2927260000000000 5.3544450000000001 O
atom 3.6987530000000000 1.3011699999999999 10.4688280000000002 O
atom 3.2881000000000000 6.3480350000000003 5.4433129999999998 O
atom 3.6273650000000002 6.3751759999999997 10.5469419999999996 O
atom 8.2398299999999995 1.2753350000000001 5.8228169999999997 O
atom 8.7338889999999996 1.2324500000000000 10.9892389999999995 O
atom 8.2745139999999999 6.3818080000000004 5.7982800000000001 O
atom 8.7473589999999994 6.3903619999999997 10.9995670000000008 O
atom 2.3110700000000000 3.9143990000000000 0.2562880000000000 O
atom 2.6573820000000001 3.9090500000000001 5.4829489999999996 O
atom 2.4635330000000000 8.9514049999999994 0.1437190000000000 O
atom 2.8396439999999998 9.2156549999999999 5.5641800000000003 O
atom 7.3583499999999997 3.9230670000000001 0.6940870000000000 O
atom 7.7715420000000002 3.9034810000000002 5.9446859999999999 O
atom 7.4145289999999999 9.0721329999999991 0.7029480000000000 O
atom 7.6461860000000001 9.1137219999999992 5.9918089999999999 O
atom 2.4722290000000000 3.8132839999999999 2.8593660000000001 O
atom 2.9104809999999999 3.8456969999999999 8.0977029999999992 O
atom 2.8108949999999999 9.0268119999999996 2.8059590000000001 O
atom 2.9020020000000000 9.0004950000000008 8.0997489999999992 O
atom 7.5566220000000000 3.8408549999999999 3.3259059999999998 O
atom 7.9937509999999996 3.8222969999999998 8.5343870000000006 O
atom 7.4598930000000001 8.9921159999999993 3.3561340000000000 O
atom 8.0216229999999999 9.0049560000000000 8.5606519999999993 O
