lattice_vector 5.0716706499999997 -0.0125028100000000 -0.0090447500000000 
lattice_vector 0.0255477400000000 10.3483902099999998 -0.0170431900000000 
lattice_vector 0.0175257300000000 0.0177557000000000 10.1509757300000008 
atom 1.2568365500000001 -0.0116479500000000 1.2404652599999999 La
atom 1.2651631400000001 -0.0036614200000000 6.3979592099999998 Hf
atom 1.2699022000000000 5.1626308300000003 1.2504312099999999 Hf
atom 1.2784390100000000 5.1701459300000003 6.3511022700000002 Hf
atom 1.2338016599999999 2.6550322400000002 3.8540204800000000 Hf
atom 1.3053521400000001 2.6103337600000001 8.8657261300000005 Hf
atom 1.3142628999999999 7.6769284200000003 3.8446216199999999 Hf
atom 1.2609459599999999 7.7407921000000002 8.8566389999999995 Hf
atom 3.8322320200000002 2.6462670300000002 1.2240436600000000 Hf
atom 3.7787372100000001 2.5989929699999998 6.3625205500000002 Hf
atom 3.7783752599999998 7.6661683299999996 1.2154745000000000 Hf
atom 3.8495971500000001 7.7289976999999999 6.3530593099999999 Hf
atom 3.7970642099999998 -0.0141791000000000 3.8458488100000001 La
atom 3.8053300900000000 -0.0055808900000000 8.8401254500000004 Hf
atom 3.8099476399999999 5.1598593599999996 3.8185651200000001 Hf
atom 3.8188806600000000 5.1693465400000003 8.8685443799999994 Hf
atom 0.0042592100000000 1.5879692599999999 -0.0763304100000000 O
atom -0.0125799900000000 1.5976141200000000 5.1622665899999998 O
atom 0.0846647400000000 6.6380046699999999 0.0037545100000000 O
atom -0.0672150300000000 6.6473457199999997 5.0653559200000000 O
atom -0.0077467000000000 1.4154419800000000 2.5431334300000001 O
atom -0.0012045100000000 1.0247092099999999 7.6181272900000003 O
atom 0.0026698100000000 6.1985829199999998 2.5337187999999999 O
atom 0.0154492200000000 6.2099940499999997 7.6108197400000002 O
atom 0.0068728000000000 3.7739787300000001 2.5421011199999999 O
atom 0.0103555600000000 3.6387402199999999 7.6177801799999996 O
atom 0.0141333600000000 8.6516444900000007 2.5344233699999998 O
atom 0.0208367700000000 8.7865277099999997 7.6102004100000000 O
atom -0.0770677800000000 4.1216568799999997 0.0245358600000000 O
atom 0.0759033000000000 4.1293970699999996 5.0612406999999999 O
atom -0.1462932700000000 9.1420836399999992 -0.1000226300000000 O
atom 0.1704269700000000 9.1499757299999995 5.1695797199999998 O
atom 2.5294477600000000 1.6775843900000000 2.5415378400000002 O
atom 2.5381340500000000 1.5591383299999999 7.6176463900000000 O
atom 2.5400341599999998 6.5543687999999998 2.5330363700000000 O
atom 2.5529785299999999 6.7067279600000003 7.6086741499999997 O
atom 2.6819596899999998 1.1783401499999999 -0.0913142500000000 O
atom 2.3821053700000001 1.1865930099999999 5.1789451399999997 O
atom 2.6128012400000000 6.1993097700000002 0.0158939900000000 O
atom 2.4762502600000000 6.2069745599999999 5.0524293399999998 O
atom 2.4520116900000000 3.6830463199999999 0.0022924100000000 O
atom 2.6193405400000001 3.6889305399999999 5.0635287699999996 O
atom 2.5307646300000002 8.7321066900000002 -0.0911606900000000 O
atom 2.5646182700000000 8.7398095500000004 5.1473281100000001 O
atom 2.5452280699999998 4.1300280400000000 2.5296275800000001 O
atom 2.5492975300000000 4.1352428999999997 7.6074651099999997 O
atom 2.5508999399999999 8.9128057100000007 2.5270993100000001 O
atom 2.5585938800000001 9.3208341200000007 7.6026812799999997 O
