lattice_vector 10.0704613700000003 0.0263552000000000 0.8026876200000000 
lattice_vector 0.0406555700000000 10.2675641899999999 -0.0069338600000000 
lattice_vector 0.8288267000000000 -0.0635046700000000 10.4324611500000000 
atom 1.3591176599999999 0.2012643500000000 1.7482219100000000 Si
atom 1.9201989500000001 0.1650569500000000 6.8326892099999998 Hf
atom 1.5472201500000000 5.3598200800000004 1.6222187800000001 Hf
atom 1.9737685199999999 5.2463158999999999 6.8489324299999996 Hf
atom 6.5418847099999997 0.2560065500000000 2.0436311100000002 Hf
atom 6.9181441299999999 0.0114659400000000 7.1363068199999997 La
atom 6.5628249500000004 5.3381059100000003 2.0065140200000000 Hf
atom 6.9849285400000003 5.3305085500000002 7.2529045500000002 Hf
atom 1.7361282400000000 2.3110956200000001 4.1670291800000001 Hf
atom 2.1875720699999999 2.2740513500000001 9.4181538299999996 Hf
atom 1.7444860700000000 7.4573779099999999 4.2344192500000002 Hf
atom 2.0972982199999999 7.3974495500000002 9.4382417099999998 Hf
atom 6.7745480400000000 2.3733549900000002 4.6131894200000003 Hf
atom 7.1919967299999996 2.2884354899999999 9.8453667700000000 Hf
atom 6.7659035100000002 7.4183542899999999 4.6062995600000001 Hf
atom 7.1679884600000001 7.4358857699999996 9.9177984000000006 Hf
atom 3.7101035499999999 2.7634399799999998 1.3210085499999999 Hf
atom 4.1601296600000000 2.7707602100000002 6.5536278899999996 Hf
atom 3.6929627300000001 7.9982114299999996 1.3985736799999999 Hf
atom 4.1115601000000002 7.8635854199999997 6.6250521100000004 Hf
atom 8.8508274599999996 2.7435481500000001 1.7859923799999999 Hf
atom 9.1789116499999999 2.7305568400000002 6.9865445599999996 Hf
atom 8.8046682300000008 7.9546429900000000 1.8043687700000000 Hf
atom 9.2824881700000006 7.7972481900000004 7.0728848700000002 Hf
atom 3.9322272699999998 4.8929161800000003 3.9489025199999999 Hf
atom 4.3754089100000000 4.8976822699999998 9.2108312699999999 Hf
atom 3.9571472000000001 10.0164547400000004 3.9592645900000001 Hf
atom 4.3287496299999999 10.0795480299999998 9.2643148600000007 Hf
atom 8.9979508300000006 4.9062136299999999 4.3768361999999996 Hf
atom 9.3891127099999991 4.8342343400000001 9.6190600300000000 Hf
atom 9.0887810299999998 10.0753129200000000 4.3340788699999999 Hf
atom 9.4275512399999997 10.0297577499999999 9.6093974400000004 Hf
atom 0.5979784100000000 1.5205539699999999 0.8847596400000000 O
atom 0.8334849400000000 1.6248697999999999 5.9691066099999999 O
atom 0.4295275400000000 6.8443294000000003 0.8608618000000000 O
atom 0.9072910600000000 6.7843881399999999 6.0886923800000003 O
atom 5.4822704099999999 1.7664580400000001 1.2872029000000000 O
atom 5.9275235200000003 1.9097813600000000 6.4475874199999996 O
atom 5.4564012599999998 6.8989482200000003 1.3020573900000001 O
atom 5.9668106999999999 6.9686440899999997 6.5172824199999999 O
atom 0.7132061300000000 0.7521411000000000 3.3163779400000002 O
atom 1.0457152100000000 0.7920619800000001 8.6520321599999992 O
atom 0.6509382400000000 5.9490357899999999 3.4675614000000001 O
atom 1.0470769700000000 5.9042564899999999 8.6698510500000001 O
atom 5.6705656400000004 0.8367574100000000 3.8812179800000002 O
atom 6.0769474099999998 0.7693842900000000 9.1873871499999993 O
atom 5.6991274100000000 5.9312018200000001 3.8855406700000001 O
atom 6.0966821700000002 5.9688790999999997 9.0747714199999994 O
atom 4.8177054500000001 4.3280996800000002 2.1220486200000002 O
atom 5.2057165699999999 4.3576334599999997 7.3282501499999997 O
atom 4.8849255400000002 9.4045552499999996 2.1984240300000000 O
atom 4.9402777799999997 9.4648857599999996 7.3888048700000004 O
atom 9.9228546800000004 4.2594280600000003 2.5789180799999998 O
atom 10.3167529400000006 4.1973331900000002 7.8070055900000002 O
atom 10.0358711100000004 9.4569223900000008 2.5460154500000001 O
atom 10.2904722100000008 9.3986044599999996 7.7669907399999998 O
atom 5.0212266200000002 3.3982005399999999 4.6936298000000001 O
atom 5.5224942400000003 3.4442008199999998 9.9824204900000009 O
atom 5.1115750400000000 8.5821352900000001 4.8196715799999996 O
atom 5.3834614800000002 8.5036550099999992 10.0067209899999998 O
atom 10.0917948099999997 3.3890538700000001 5.1446999299999998 O
atom 10.5332212799999994 3.3530452400000001 10.4496939900000001 O
atom 10.0204369300000007 8.5196748899999992 5.2146253199999997 O
atom 10.4755068199999997 8.5005421699999992 10.4218747799999996 O
atom 2.8248514999999998 1.1639610100000000 2.4717684300000000 O
atom 3.3507526699999999 1.3008355100000000 7.8442313800000001 O
atom 2.9917677899999999 6.4599019899999996 2.7207659600000000 O
atom 3.3912736300000001 6.4042947899999998 7.9388677999999997 O
atom 8.0424422399999997 1.3107744500000000 3.0971012999999998 O
atom 8.5199338099999995 1.3379500700000000 8.3943094600000006 O
atom 8.0408712700000002 6.4483809399999998 3.1133981999999998 O
atom 8.4773969999999998 6.3418635400000003 8.3584121299999996 O
atom 3.2050171700000001 1.2353290699999999 5.2296426199999999 O
atom 3.7934565899999999 1.4658755200000000 10.3102844099999995 O
atom 3.2192677800000000 6.3412413799999996 5.3174076000000001 O
atom 3.6058059299999998 6.4208033899999997 10.5469732199999999 O
atom 8.3224357500000004 1.2440129200000001 5.6156411600000000 O
atom 8.6608225300000008 1.1913682200000000 10.9755382200000007 O
atom 8.2490263499999994 6.3981951800000001 5.7366382700000003 O
atom 8.6510480100000002 6.3271080499999997 10.9643619399999999 O
atom 2.2787866499999998 3.9803917100000001 0.2582826600000000 O
atom 2.6694832800000001 3.8535125200000002 5.4520959600000003 O
atom 2.2569453700000000 9.4488488600000000 0.5341513500000000 O
atom 2.6989614500000001 8.9765300099999994 5.5006620000000002 O
atom 7.3599541700000000 3.8832981400000000 0.6967387000000000 O
atom 7.7528467000000001 3.9084806200000002 5.8811882500000001 O
atom 7.3172972700000001 9.0476205899999993 0.7477396700000000 O
atom 2.5005619800000001 3.7508656999999999 2.8606092200000002 O
atom 2.9211197900000001 3.7686263400000000 8.1004383900000008 O
atom 2.4569754200000000 8.9179788400000000 2.9338856999999998 O
atom 2.7788794299999999 8.8764723700000001 8.2022690699999998 O
atom 7.5514127999999996 3.8015325199999999 3.2638782800000001 O
atom 7.9135303700000001 3.7804532200000001 8.4952013300000004 O
atom 7.6144723200000000 8.9447704199999993 3.3880388300000002 O
atom 8.0513597800000003 8.7671613199999996 8.5887499999999992 O
