lattice_vector 9.8951022700000006 -0.0051474800000000 0.0963799500000000 
lattice_vector 0.0064597700000000 10.4029601199999995 -0.0244403200000000 
lattice_vector 0.0521432800000000 -0.0063083200000000 9.9445082599999992 
atom 1.1680114900000000 0.3246840100000000 1.1068425799999999 Si
atom 1.3990264100000001 0.1579504300000000 6.2601194900000001 Hf
atom 1.3148049700000000 5.3458165800000002 1.1845909699999999 Hf
atom 1.3799471699999999 5.3839453900000001 6.2319693999999997 Hf
atom 6.2492006299999998 0.1608953100000000 1.3389553199999999 Hf
atom 6.2778660200000003 0.1883616200000000 6.2585940899999999 Hf
atom 6.2970211000000003 5.3480986799999997 1.3224864900000000 Hf
atom 6.2990646400000001 5.4464372900000004 6.1936071200000002 Hf
atom 1.3579863500000000 2.3165364500000001 3.6743334100000000 Hf
atom 1.3585419200000000 2.4625527599999999 8.6985686100000006 Hf
atom 1.3669129900000001 7.5669706200000002 3.7513357100000002 Hf
atom 1.2941542800000001 7.6790613399999996 8.6885403900000000 Hf
atom 6.2848681900000001 2.4333415899999999 3.7908977699999999 Hf
atom 6.3314181100000004 2.4336723600000001 8.7107724500000003 Hf
atom 6.1586230500000001 7.3998935499999998 3.6657860100000002 Si
atom 6.3219150900000001 7.6443714199999997 8.7911515300000005 Hf
atom 3.6747478299999998 2.7574203700000002 1.1609248900000000 Hf
atom 3.6457107600000001 2.7797962900000002 6.2268103500000000 Hf
atom 3.6587744700000000 7.9019236499999996 1.2704236099999999 Hf
atom 3.7314423400000001 7.9845299299999999 6.2421560700000001 Hf
atom 8.5649785400000003 2.7153036699999999 1.2749153099999999 Hf
atom 8.6312694899999993 2.7760503299999999 6.2615840900000004 Hf
atom 8.5849301400000009 7.9816479500000002 1.3985487000000001 Hf
atom 8.5825145400000000 8.0322332500000009 6.2359479799999997 Hf
atom 3.6314163499999998 4.9818148899999999 3.7217329000000001 Hf
atom 3.6802194400000001 5.1065699100000002 8.6802052500000002 Hf
atom 3.6697568399999998 10.1577788099999999 3.6682508999999999 Hf
atom 3.6060260400000002 10.2510020999999991 8.8186212499999996 Hf
atom 8.6457366100000002 5.0079028900000004 3.7287233099999999 Hf
atom 8.5920131099999999 5.0413098999999999 8.7364609600000005 Hf
atom 8.6607833000000003 10.2663871699999998 3.7724764099999999 Hf
atom 8.6064786899999994 10.2179683200000007 8.7856922799999992 Hf
atom 0.3650748200000000 1.8076899099999999 1.8153673900000000 O
atom 0.3950094000000000 1.9035822899999999 6.9403561700000003 O
atom 0.3052421600000000 7.0274038599999997 1.9917137100000000 O
atom 0.3930288100000000 7.1303641500000001 6.8888984999999998 O
atom 5.2101632899999997 1.8640155300000001 2.0632342900000000 O
atom 5.3356640700000000 1.9565313799999999 6.9375178000000002 O
atom 5.3312194999999996 7.1306301200000002 2.1325902700000001 O
atom 5.3090381899999999 7.0822508199999996 7.0574901499999996 O
atom 0.3648580000000000 0.6906365600000000 4.5385887299999998 O
atom 0.3805973400000000 0.6730356100000000 9.5267176100000004 O
atom 0.3092182900000000 5.8783446799999997 4.4939499500000002 O
atom 0.3805813400000000 5.8826178000000002 9.3557740299999992 O
atom 5.3387848000000000 0.6692646500000000 4.4482586900000003 O
atom 5.2761638900000003 0.7585066100000000 9.5142585799999999 O
atom 5.3616450999999996 5.9087697400000003 4.3102902099999998 O
atom 5.2924463499999996 5.9523522599999996 9.5536970799999992 O
atom 4.6160144799999996 4.4766547000000001 1.9270095300000001 O
atom 4.6195064099999996 4.5653712500000001 6.8804564399999997 O
atom 4.6238456299999999 9.6690782300000002 1.9088353400000000 O
atom 4.6334946199999996 9.7180817099999999 6.9716107300000001 O
atom 9.5599358599999995 4.4369372699999996 1.9808498100000000 O
atom 9.5991347499999993 4.4967750100000003 6.9820422600000001 O
atom 9.7968236399999995 9.7364783599999996 1.9355253800000001 O
atom 9.6653513300000000 9.6817960400000000 7.0903388600000001 O
atom 4.6586741900000002 3.3319909399999998 4.4907199200000001 O
atom 4.6381992500000004 3.3310242099999998 9.3569524400000006 O
atom 4.9746244500000003 8.4023181400000002 4.4530318800000002 O
atom 4.6017884000000002 8.5287811199999997 9.4215647499999999 O
atom 9.5884593999999996 3.2420186800000002 4.4169253700000004 O
atom 9.5604252899999995 3.2856776100000000 9.4410001000000001 O
atom 9.6520596699999999 8.5148419799999999 4.4911620000000001 O
atom 9.5227750699999998 8.4720075999999995 9.5033105500000001 O
atom 2.3653834699999998 0.8036084200000000 2.4193126199999999 O
atom 2.7278067199999998 1.2315183400000000 7.4925758199999999 O
atom 2.6502090800000002 6.2408911700000003 2.4364623600000002 O
atom 2.7142819600000001 6.4601119000000002 7.4442851799999996 O
atom 7.6292774000000003 1.1687014600000001 2.5166782699999999 O
atom 7.6733812099999996 1.2141453000000000 7.5024484300000003 O
atom 7.5431607300000003 6.3920828199999997 2.6201254999999999 O
atom 7.6713993199999999 6.4272237900000002 7.4627933400000002 O
atom 2.7581289199999999 1.3780643500000000 4.9166327399999998 O
atom 2.5950299399999999 1.4127195299999999 10.0094074099999997 O
atom 2.7541733599999998 6.5573546499999997 4.9562491399999997 O
atom 2.6553772599999999 6.6602525999999997 9.9173216100000001 O
atom 7.6331081300000001 1.5184100400000000 4.9955519600000002 O
atom 7.6308700700000003 1.3720577899999999 9.9832634799999997 O
atom 7.3383714700000002 6.9487314299999996 4.9527851500000004 O
atom 7.6807129600000001 6.5867503500000000 10.0381174899999994 O
atom 2.2689713100000000 3.9565927300000001 4.9449150800000004 O
atom 2.3444262400000002 4.0252087200000002 9.8962527700000003 O
atom 2.4236322499999998 9.1744629000000000 5.0332260099999999 O
atom 2.1959050900000001 9.3885709800000008 10.1987394200000008 O
atom 7.3216600999999999 4.1049921600000001 4.9940649600000002 O
atom 7.2487872299999996 3.9779650000000002 9.9714774700000000 O
atom 7.5556196800000004 9.4841595800000000 5.2003731000000002 O
atom 7.2505304800000001 9.1784238400000007 10.0800129799999993 O
atom 2.3357522099999999 3.6572127600000002 2.4407525500000000 O
atom 2.3149193200000000 3.8418855999999999 7.4524344400000002 O
atom 2.5480622300000002 8.7017589300000004 2.6704502099999998 O
atom 2.3495816800000000 9.0338139999999996 7.5507546200000002 O
atom 7.2317891500000000 3.7639719999999999 2.5012938800000000 O
atom 7.2462369999999998 3.8399633899999999 7.4665386600000003 O
atom 7.2302990200000004 8.8595912400000003 2.7467702100000002 O
atom 7.2499332900000004 9.0221661300000005 7.5711367200000002 O
