lattice_vector 9.9619889599999993 0.0309875100000000 -0.1851612300000000 
lattice_vector 0.0701958500000000 10.1903666400000006 0.0913688000000000 
lattice_vector -0.1030959400000000 0.0238008600000000 10.4087205399999991 
atom 1.0511801300000001 0.2467654300000000 2.2120375900000000 Si
atom 1.3160392200000000 0.2377084200000000 6.8961136099999996 Hf
atom 1.4028151400000000 5.3209055599999999 1.7371549799999999 Hf
atom 1.0352068200000000 5.3537249600000001 7.4615955899999999 Si
atom 1.3848542300000000 2.4467633400000000 4.3386789800000001 Hf
atom 1.3496171100000001 2.2879874199999999 9.5822564999999997 Hf
atom 1.4365682600000000 7.3723492100000003 4.4226353500000002 Hf
atom 1.3681865300000000 7.5541127200000000 9.5887816699999995 Hf
atom 3.5753135000000000 2.7530659200000001 1.6680704200000001 Hf
atom 3.4884533200000001 2.8546199600000000 6.8649861100000003 Hf
atom 3.5757505100000002 7.9377749499999997 1.7061589699999999 Hf
atom 3.5581075200000001 7.8600700300000002 6.9177200299999999 Hf
atom 3.5920595299999998 4.9235048399999997 4.3245625600000004 Hf
atom 3.4967103800000001 4.9313509499999997 9.4996691799999997 Hf
atom 3.5834572400000000 10.0147349299999995 4.3409745500000003 Hf
atom 3.5756644400000002 10.0304183600000005 9.5745449399999991 Hf
atom 6.3756545999999998 0.2449605800000000 0.7103418100000000 Hf
atom 6.2712314600000001 0.2485729400000000 5.9253318400000001 Hf
atom 6.3581599999999998 5.3319390300000000 0.7663827500000000 Hf
atom 6.3587121099999999 5.3523193899999999 5.9603823199999999 Hf
atom 6.3510137799999997 2.3736203599999999 3.3386471900000001 Hf
atom 6.2637170900000001 2.3722279799999999 8.5257716699999992 Hf
atom 6.3506028900000002 7.4556119799999996 3.3675532700000002 Hf
atom 6.3342145800000003 7.4809154199999996 8.5884515700000001 Hf
atom 8.6580398299999999 2.7095839100000001 0.7741486000000000 Hf
atom 8.5822192200000007 2.8307381399999998 5.9407165700000002 Hf
atom 8.6687634399999993 7.9137484999999996 0.7819497100000000 Hf
atom 8.6422727500000001 7.8165288500000001 6.0242644299999997 Hf
atom 8.5790275600000001 4.9381882600000004 3.3251899300000001 Hf
atom 8.4666898800000006 4.8761015800000003 8.6387802199999992 Hf
atom 8.5530208099999996 9.9595186200000008 3.4802449300000000 Hf
atom 8.5621654100000004 10.0452895400000006 8.5750574499999992 Hf
atom 0.5534462100000000 1.4891750800000001 1.0779812099999999 O
atom 0.3391906700000000 1.7931735400000000 6.1165918799999996 O
atom 0.4262426800000000 6.8769219499999998 0.9578180900000000 O
atom 0.5356075400000000 6.5965037799999999 6.3286718799999999 O
atom 0.2894553800000000 0.7831337600000000 3.6182618099999999 O
atom 0.2810074400000000 0.8273285700000000 8.6959422699999998 O
atom 0.3679454800000000 5.9111231799999997 3.5368775600000002 O
atom 0.2733394200000000 5.8896404799999997 8.8684266800000007 O
atom 4.6288971600000002 4.2820642500000003 0.8115449800000000 O
atom 4.6497968800000002 4.3045895600000001 6.0281893999999996 O
atom 4.7369306099999999 9.3878913700000002 0.8696594000000000 O
atom 4.6121271899999998 9.3894068199999996 6.0616289800000001 O
atom 4.6176918100000002 3.3714023000000002 3.4257698099999998 O
atom 4.5080375200000002 3.4212291700000002 8.6070348200000009 O
atom 4.5944430100000000 8.5046172400000000 3.4483757200000000 O
atom 4.6006110500000004 8.4781688400000004 8.6757974600000001 O
atom 2.5122583000000001 1.2169513599999999 2.8348152299999998 O
atom 2.6495978000000000 1.3369752100000001 8.1215198500000003 O
atom 2.7363439399999998 6.4202502600000004 2.9624244700000002 O
atom 2.4958404999999999 6.3241791200000002 8.0842641700000009 O
atom 3.0136596700000000 1.4553872400000001 0.2039228000000000 O
atom 2.7256964699999999 1.3269794800000001 5.5239803199999997 O
atom 2.8124230200000002 6.4097861099999998 0.3651752000000000 O
atom 2.9964142699999998 6.5626616899999997 5.4534805400000002 O
atom 2.2325364599999999 3.8328667500000000 2.9863090600000000 O
atom 2.0125516999999999 3.9673797600000000 8.1265888299999993 O
atom 2.0982419999999999 9.0501638300000007 2.9682804900000002 O
atom 2.2160586499999999 8.9401668399999998 8.2361863199999998 O
atom 2.1985715799999999 3.8830402500000001 0.3793511600000000 O
atom 2.2496517400000000 3.8729068000000000 5.5357566800000004 O
atom 2.3366105099999999 8.9558405200000006 0.3770444100000000 O
atom 2.1818211000000001 8.9905668999999993 5.6296793999999997 O
atom 5.3513634300000001 1.7491085300000000 1.6056609399999999 O
atom 5.2399101300000002 1.7724172600000001 6.7925079700000000 O
atom 5.3267456400000004 6.8557108700000002 1.6338768600000000 O
atom 5.3342157700000001 6.8559249099999997 6.8558241000000004 O
atom 5.2749791799999999 0.8379124999999999 4.1746679899999997 O
atom 5.2986850900000002 0.8321757900000000 9.3598278500000003 O
atom 5.3852213999999998 5.9155986299999999 4.2012853100000003 O
atom 5.2586750899999997 5.9454316299999999 9.4247027499999998 O
atom 9.6382847199999997 4.2753898000000001 1.5774778000000000 O
atom 9.6653497700000006 4.3550449000000002 6.8963431599999998 O
atom 9.7522643799999997 9.4377301899999999 1.7376578300000001 O
atom 9.6215351299999998 9.3828393499999994 6.8273731800000004 O
atom 9.5743446500000005 3.4069788100000000 4.1767918999999996 O
atom 9.5494852899999998 3.3454954699999999 9.4748052499999993 O
atom 9.6361120800000002 8.4289829100000002 4.3155158100000000 O
atom 9.5577822399999999 8.5139449700000007 9.4266386700000009 O
atom 7.6965193000000003 1.2974302200000001 9.8511430600000001 O
atom 7.7078417500000000 1.2800962199999999 4.6718904300000004 O
atom 7.6914559899999997 6.3873956700000001 9.9218986600000001 O
atom 7.7831273300000001 6.3809257900000000 4.6923315399999996 O
atom 7.7650216099999998 1.2892247800000001 2.0691779700000001 O
atom 7.6660985400000001 1.3457455599999999 7.2278030800000002 O
atom 7.7527244700000004 6.4293284799999997 2.0694395100000000 O
atom 7.7483356600000004 6.3963892600000003 7.3191878700000004 O
atom 7.1209641000000001 3.8099886299999999 9.9071140900000003 O
atom 7.2022338499999998 3.8434979999999999 4.6749660999999998 O
atom 7.1854501400000004 8.9506119000000002 9.9251573000000004 O
atom 7.2076738999999996 8.8933214199999995 4.7483736800000003 O
atom 7.2354220900000001 3.8416473700000000 2.0583490200000001 O
atom 7.2071018999999996 3.8754327599999998 7.2862071700000000 O
atom 7.2939707599999997 8.9585590600000007 2.1276902700000000 O
atom 7.2188331600000000 8.9489652900000003 7.3083552300000001 O
