lattice_vector 10.0684621700000001 0.0059687100000000 0.0259719200000000 
lattice_vector -0.0528361200000000 10.4243168599999994 -0.2609584900000000 
lattice_vector 0.1744020900000000 -0.3428631800000000 10.0561390300000006 
atom 1.1322741100000000 0.3295359500000000 1.0532955300000000 Si
atom 1.5775615000000001 -0.0089177900000000 6.3545134900000004 Hf
atom 1.0864402799999999 5.4075595400000003 0.9885777300000000 Hf
atom 1.4321582600000000 5.2465453100000001 6.2747823399999998 Hf
atom 6.4682749399999997 0.2282608000000000 1.2265409400000000 Hf
atom 6.1622826699999997 -0.1163654600000000 5.8811639099999997 Hf
atom 6.4295364900000003 5.4228650500000004 1.2098172500000000 Hf
atom 6.1122874600000001 5.1290477299999999 5.8932833400000000 Hf
atom 1.4197256700000001 2.1581099300000002 3.5889198200000001 Hf
atom 1.5135167000000000 2.1540504299999998 8.9221985499999992 Hf
atom 1.4657170200000000 7.4119083699999999 3.5506534599999999 Hf
atom 1.4912723100000000 7.5242871400000002 8.7377253899999996 Hf
atom 6.4052619999999996 2.3669354800000000 3.7545420500000000 Hf
atom 6.5061912499999996 2.1953149800000000 8.4946294600000005 La
atom 6.5091100900000001 7.5869972900000002 3.6667016399999999 Hf
atom 6.5113180399999999 7.2379404100000002 8.5076068500000002 Hf
atom 3.9700624900000001 2.7160359299999999 1.0038792400000001 Hf
atom 3.6632516499999999 2.6421798500000002 6.2351700499999998 Hf
atom 4.0338767700000000 7.8951204099999996 0.8368105400000000 Hf
atom 3.7517946900000001 7.8621048699999996 6.1549618400000004 Hf
atom 8.6819761000000000 2.7657805400000002 1.1776885300000000 Hf
atom 9.0255411999999993 2.3304846600000002 6.0886479400000004 La
atom 8.7668182600000009 8.0677345200000001 1.0292364100000000 Hf
atom 9.1264835699999995 7.7415122800000002 5.8039071599999996 Hf
atom 3.6600899700000000 4.8189701500000002 3.6236420599999999 Hf
atom 3.6971433100000000 4.8544958600000001 8.8032807599999998 Hf
atom 3.5893614399999998 9.9974040300000002 3.3398856399999999 Hf
atom 3.7060728699999999 10.0436054899999991 8.7106915899999997 Hf
atom 8.7290314400000000 4.9416255900000001 3.7321294900000002 Hf
atom 8.8904999300000007 4.8367104400000001 8.7402773499999995 Hf
atom 8.7876888100000006 10.2032543300000000 3.4467484499999999 Hf
atom 8.7647580099999995 9.8459475300000001 8.4242731600000003 Hf
atom 0.4293287100000000 1.8860534400000000 1.7143898200000001 O
atom 0.6646527700000000 1.5789380700000000 7.2096125300000002 O
atom 0.3318570800000000 7.1834729499999996 1.7633857300000000 O
atom 0.5010937500000000 6.9804236199999998 6.9517440500000003 O
atom 5.5243811899999997 1.9706843900000000 1.9541687400000001 O
atom 5.4595458099999998 1.7290559299999999 6.4926596900000000 O
atom 5.5302468600000001 7.1857765400000000 1.8999487500000001 O
atom 5.4313917700000003 6.9139943900000000 6.7612858400000002 O
atom 0.2749032300000000 0.7322647900000000 4.7072059900000003 O
atom 0.5208042899999999 0.3425516600000000 9.5525359099999996 O
atom 0.1923541000000000 6.0116283900000003 4.6208959800000002 O
atom 0.4562587000000000 5.7710803600000000 9.3063924700000005 O
atom 5.3051991300000001 0.6367844800000000 4.1293715899999999 O
atom 5.2952158300000001 0.6550434500000000 9.7603113300000004 O
atom 5.3203966400000002 5.9524200799999996 4.1918731999999999 O
atom 5.3040775599999996 5.8687602800000001 9.6674506000000004 O
atom 4.7190844399999996 4.5602060399999997 1.8464470700000000 O
atom 4.7179479100000004 4.2777880000000001 7.0585399300000002 O
atom 4.6877090600000004 9.7414830899999991 1.5680892900000001 O
atom 4.7322929699999996 9.5847453100000006 6.8917633599999997 O
atom 9.6420015100000001 4.5091032000000002 1.8637681300000000 O
atom 9.7862804499999996 4.4012596300000002 6.9700352900000002 O
atom 9.8479091299999997 9.8464818899999997 1.5750127500000000 O
atom 9.8931088700000007 9.5108505000000001 6.6718180399999998 O
atom 4.8841160600000002 3.4477154300000001 4.6365531899999999 O
atom 4.7638885000000002 3.2394595200000000 9.4001893699999997 O
atom 4.9484573699999999 8.6477198400000006 4.5287774900000004 O
atom 4.7733205700000001 8.3158780700000001 9.0978042400000003 O
atom 9.8724008399999992 3.2870177100000002 4.1131956799999996 O
atom 9.8618412200000005 3.0987376900000001 9.4338506700000000 O
atom 9.8800896300000005 8.5301568099999994 4.0520378399999997 O
atom 9.8045059600000002 8.2613528299999999 9.3287750200000001 O
atom 2.1308870199999999 0.4103174900000000 2.5105437700000000 O
atom 3.0069225999999998 1.0863264100000001 7.6411797799999999 O
atom 2.2049168899999998 5.7060769999999996 2.5777856400000001 O
atom 2.8400083299999999 6.2928202000000004 7.4777664000000001 O
atom 7.8726677699999996 1.2447078100000000 2.4156871099999999 O
atom 7.5943192699999997 0.4223008000000000 7.3601029699999998 O
atom 7.8385107800000000 6.4133281799999997 2.4314192399999999 O
atom 7.2677928700000001 5.2952905599999998 7.6001338799999996 O
atom 2.7921152400000002 1.1817898899999999 4.9550786000000002 O
atom 2.7202549500000002 1.0670352200000000 10.2609344000000000 O
atom 2.7888773400000000 6.4106445399999998 4.9285948700000004 O
atom 2.7466194800000001 6.3696721500000004 10.0251391699999992 O
atom 7.6326502999999999 1.1009550600000000 4.7936479600000004 O
atom 7.9872215500000001 0.9945507200000000 9.9534786999999998 O
atom 7.6914205700000000 6.4262383900000000 4.9894144799999998 O
atom 7.8853609100000002 6.3450728300000003 9.8948906599999997 O
atom 2.3192581400000001 3.8028883100000002 4.9952707900000002 O
atom 2.4630783900000002 3.7035743100000000 10.1170243600000003 O
atom 2.3752659399999998 8.9862997199999999 4.8078656200000003 O
atom 2.2846539699999999 9.0672566000000003 10.0360284199999992 O
atom 7.4480522499999999 3.8358001800000001 5.0026536799999999 O
atom 7.5881735800000003 3.7674958300000001 9.9952932899999993 O
atom 7.5725819699999999 9.0321238000000008 4.7960279899999998 O
atom 7.3418881499999999 8.8948212800000004 9.7140640900000008 O
atom 2.8808378000000001 3.0959076099999998 2.6383719700000001 O
atom 2.3359614999999998 3.6799324499999999 7.5753168600000000 O
atom 2.9190072900000001 8.2360619100000001 2.4688222600000000 O
atom 2.3879196999999999 8.8944537100000005 7.4032568000000003 O
atom 7.3284242300000004 3.8214290599999998 2.4726381399999999 O
atom 7.4154414800000001 9.0660270599999997 2.2553584600000001 O
atom 7.8977799299999996 8.1177526699999998 7.3755635100000001 O
