lattice_vector 9.8939159700000001 -0.0239078200000000 0.0985549500000000 
lattice_vector 0.0042864300000000 10.4095960000000005 -0.0110415000000000 
lattice_vector 0.0479334700000000 0.0520301400000000 9.9454078999999993 
atom 1.2122523300000001 0.3640985600000000 1.0325234299999999 Si
atom 1.3727701500000000 0.2387506500000000 6.2731447100000004 Hf
atom 1.3242753400000000 5.2965363700000001 1.2511540000000001 Hf
atom 1.4016105699999999 5.3654788900000003 6.2269427799999999 Hf
atom 6.2942885700000000 0.1218858200000000 1.3362500700000000 Hf
atom 6.2600226799999996 0.2483223100000000 6.1508807000000001 Hf
atom 6.2592580900000003 5.3577497200000002 1.3451558699999999 Hf
atom 6.3128522399999998 5.4799170400000001 6.2761482500000003 Hf
atom 1.3354086000000001 2.3576255499999998 3.6622326400000000 Hf
atom 1.2819371399999999 2.5572339099999999 8.6686435399999997 Hf
atom 1.4144391999999999 7.5557763500000004 3.7876010400000002 Hf
atom 1.3259143700000000 7.6661267899999999 8.6947507099999992 Hf
atom 6.1086998399999999 2.2517653200000001 3.6886482900000002 Si
atom 6.3177692099999998 2.4445991800000000 8.7563712500000008 Hf
atom 6.3073448499999998 7.7266973400000003 3.7457077200000000 Hf
atom 6.3090391800000001 7.7095697000000003 8.7544362499999995 Hf
atom 3.6856157399999998 2.7024022400000001 1.1836233500000000 Hf
atom 3.7095837299999999 2.7807826499999999 6.2014823899999998 Hf
atom 3.6317430300000000 7.9238146599999997 1.2603302100000000 Hf
atom 3.6531385699999999 8.0631023200000005 6.3038164099999996 Hf
atom 8.4746541600000000 2.7099239800000001 1.4316747999999999 Hf
atom 8.5487989599999992 2.8322247500000000 6.2303241399999996 Hf
atom 8.6937082799999992 7.8809174300000002 1.2404859900000000 Hf
atom 8.6286899399999992 8.0477305500000007 6.2634075500000002 Hf
atom 3.7555428200000001 4.9855670500000002 3.7396537500000000 Hf
atom 3.6876450900000002 5.1075118599999998 8.6971329700000002 Hf
atom 3.5895539400000001 10.1923855099999994 3.7017538700000001 Hf
atom 3.5989643000000000 10.3432503100000002 8.8053758099999992 Hf
atom 8.6220126100000005 5.0651100400000004 3.8046706800000001 Hf
atom 8.5767693999999999 5.0391789400000002 8.8101352700000000 Hf
atom 8.8203630400000002 10.1866515300000007 3.5919947799999998 Hf
atom 8.5946120799999992 10.2892817700000005 8.7298358300000007 Hf
atom 0.2947414100000000 1.7489695000000001 1.8608416900000000 O
atom 0.3358564100000000 1.9416393100000000 6.9452802199999999 O
atom 0.3650866100000000 7.0329119200000001 1.9953032799999999 O
atom 0.4108151900000000 7.1498991800000002 6.8831209500000003 O
atom 5.2702494499999997 1.8964412600000000 2.1629918600000000 O
atom 5.2898632799999996 1.9205328500000001 7.0458449800000000 O
atom 5.2924047400000003 7.0926520200000001 2.0183622200000002 O
atom 5.3008937600000001 7.1719857400000002 7.0150862900000002 O
atom 0.2928965600000000 0.7465524300000000 4.5450690500000004 O
atom 0.3691270700000000 0.7112664400000001 9.4765377399999995 O
atom 0.3928848300000000 5.8518403299999999 4.4837548900000002 O
atom 0.3292601200000000 5.9703572300000003 9.4591713100000003 O
atom 5.3040862899999999 0.7609741900000000 4.3373671700000003 O
atom 5.1888442299999999 0.8476802800000000 9.6614549699999994 O
atom 5.3694083700000004 5.9366293099999998 4.4387074899999996 O
atom 5.3242970900000000 5.9684121100000000 9.4882584500000000 O
atom 4.5871839899999998 4.4573622500000001 1.9133058400000000 O
atom 4.6315689799999999 4.5518131899999998 6.8948642099999997 O
atom 4.7124311199999998 9.6216335999999991 2.0310589299999999 O
atom 4.6141641099999999 9.8197178100000002 6.9835021800000003 O
atom 9.5178348600000007 4.3915402900000000 2.0363127400000001 O
atom 9.6494646799999995 4.4844467400000001 7.1121540799999998 O
atom 9.8908992700000002 9.6957540600000005 1.8711948300000001 O
atom 9.6156813000000003 9.7332175200000002 7.0094823899999996 O
atom 4.8883915000000000 3.2455200899999999 4.4151450199999998 O
atom 4.6420181200000004 3.3598255899999998 9.3993924900000003 O
atom 4.7268086499999997 8.6024099300000003 4.6021053600000004 O
atom 4.5760381499999996 8.5938212499999995 9.4080244999999998 O
atom 9.6198285299999995 3.2573553600000000 4.4747030499999996 O
atom 9.5374710000000000 3.3170489700000001 9.5641687599999994 O
atom 9.6399584699999998 8.4865856599999994 4.4539002500000002 O
atom 9.5351018799999991 8.5195334299999992 9.3909581899999992 O
atom 2.3980677099999999 0.8559042200000000 2.3696109399999998 O
atom 2.7069691400000000 1.2951169499999999 7.4810549999999996 O
atom 2.6721385999999998 6.2253369100000002 2.4995539400000002 O
atom 2.6903913199999998 6.4676268099999996 7.4868343499999996 O
atom 7.5548981499999996 1.1383114500000000 2.6264593299999999 O
atom 7.6398775299999997 1.2317724100000000 7.4435610800000003 O
atom 7.6314654500000003 6.3469593599999996 2.5312866700000001 O
atom 7.6809756399999998 6.4800829300000000 7.5263047199999997 O
atom 2.7191189900000001 1.4018650399999999 4.9078861700000003 O
atom 2.5110749499999998 1.4940369200000001 10.0009171600000002 O
atom 2.7898765299999999 6.5933056800000003 5.0099518900000000 O
atom 2.6642487699999999 6.6756608899999996 9.9577596400000008 O
atom 7.2288905899999998 1.8626790700000000 4.9841867000000004 O
atom 7.6431275500000000 1.4058610899999999 10.0094685999999999 O
atom 7.6080214499999999 6.8072264599999999 5.0059483599999997 O
atom 7.6398810199999998 6.6282477300000000 10.0113129500000007 O
atom 2.3962019400000001 3.9770494200000002 4.9228680499999999 O
atom 2.3306830999999999 4.0775712100000003 9.8922237000000006 O
atom 2.2897043300000002 9.2110681000000003 5.0584219700000004 O
atom 2.2361629399999998 9.4716010300000004 10.2017268699999999 O
atom 7.5435534400000002 4.3369268200000004 5.2489127599999996 O
atom 7.2337648100000003 3.9904675200000002 10.1213529199999996 O
atom 7.3992135200000000 9.4215330500000007 4.9228817100000004 O
atom 7.2318844300000000 9.2530533199999994 9.9456557599999993 O
atom 2.3183807700000001 3.6379410499999998 2.4139620700000002 O
atom 2.3529284900000000 3.8459944799999999 7.4254422699999996 O
atom 2.5383218799999998 8.7302492600000008 2.6770193600000001 O
atom 2.3001536400000000 9.1039517900000000 7.5827933900000000 O
atom 7.1031029800000001 3.5878680200000002 2.8214655700000000 O
atom 7.2292733499999997 3.8612734999999998 7.5939002999999996 O
atom 7.4237644899999999 8.9461812300000005 2.4439354999999998 O
atom 7.2309723100000003 9.0713052100000002 7.4432997399999996 O
