lattice_vector 10.1328495000000007 -0.0515162200000000 -0.0014433900000000 
lattice_vector -0.0322261900000000 10.5102239300000004 -0.0366750100000000 
lattice_vector 0.0014734000000000 0.0183012400000000 5.2323507999999999 
atom 1.2871421300000001 0.1215010000000000 1.5946810700000000 La
atom 1.4011270199999999 5.4873088900000004 1.7391163500000000 Hf
atom 1.3544630700000000 2.5170591099999999 4.3446075600000000 Hf
atom 1.4359204400000001 7.6378986900000001 4.3365592199999998 Hf
atom 3.6000221200000002 2.8674900999999999 1.7364756600000000 Hf
atom 3.6814602700000001 7.9891452300000001 1.7088792200000000 Hf
atom 3.6357045600000002 5.0184618600000004 4.3564812300000000 Hf
atom 3.7483141700000000 10.3835055000000001 4.1748248700000001 La
atom 6.5224107399999998 0.1867587600000000 0.9914783900000000 Hf
atom 6.4449314500000003 5.4107946900000004 0.7785226400000000 Hf
atom 6.4733417600000003 2.4691380500000002 3.4236196099999998 Hf
atom 6.4749368100000000 7.5799203700000000 3.4063901699999999 Hf
atom 8.6932154599999993 2.8682248299999999 0.8064306900000000 Hf
atom 8.6952406599999996 7.9783240400000004 0.7876393800000000 Hf
atom 8.7228962899999996 5.0370994099999997 3.3958260299999998 Hf
atom 8.6455221400000006 10.2622591199999995 3.5722839300000002 Hf
atom 0.3309402700000000 2.0925677100000000 0.9378678900000000 O
atom 0.3516167500000000 7.0597762800000003 0.8838978199999999 O
atom 0.2810942800000000 0.8351780800000000 3.7790804900000001 O
atom 0.3299632400000000 6.1244974799999996 3.4797962700000000 O
atom 4.7050480500000003 4.3753910200000004 0.8689482300000000 O
atom 4.7538662399999998 9.6671170199999992 1.1295371000000001 O
atom 4.6838630900000000 3.4390161699999999 3.5122838199999999 O
atom 4.7047261300000001 8.4082560500000003 3.5307733600000000 O
atom 2.6055818500000001 1.5238515100000001 2.9682798099999999 O
atom 2.8094392699999999 6.4896289200000004 3.0205087399999999 O
atom 2.8073735700000002 1.5379343200000000 0.3386998900000000 O
atom 2.7813554500000000 6.4861579100000002 0.4072156200000000 O
atom 2.2543190000000002 4.0104814500000003 3.0322680300000000 O
atom 2.2283084299999998 8.9583449700000006 2.9296589000000002 O
atom 2.2257211400000001 4.0076026200000001 0.4128792600000000 O
atom 2.4286646500000000 8.9721718300000006 0.3267524100000000 O
atom 5.3693717200000002 1.7382806000000000 1.7716103400000001 O
atom 5.4558003299999998 6.9628849400000004 1.6134660999999999 O
atom 5.7711205699999999 0.8517122700000000 4.3962222899999999 O
atom 5.4354780800000002 5.9867564000000000 4.2483016700000000 O
atom 9.7336308000000002 4.4671196300000000 1.6369363100000001 O
atom 9.3986020600000000 9.6006148200000005 1.7508140500000000 O
atom 9.7126435299999994 3.4907563800000001 4.2412838199999996 O
atom 9.7997242199999999 8.7167284699999996 4.3641871600000002 O
atom 7.9690791900000004 1.2839145199999999 4.8977909999999998 O
atom 7.8450131200000000 6.5112948499999996 4.7238268000000003 O
atom 7.8484730000000003 1.3245265100000001 2.2553584999999998 O
atom 7.8546517400000004 6.5321602900000002 2.1046886499999999 O
atom 7.3138078399999999 3.9244993600000000 4.7299144699999998 O
atom 7.3212682800000000 9.1334249300000003 4.8443555399999996 O
atom 7.3238762099999999 3.9456504799999998 2.1166606099999998 O
atom 7.1992498800000000 9.1750273999999994 2.2538963600000002 O
