lattice_vector 10.0706322000000004 -0.0149036900000000 -0.0142793900000000 
lattice_vector -0.0017215300000000 10.2901756100000004 0.0268514500000000 
lattice_vector 0.0053917800000000 0.0052068900000000 10.4506154299999992 
atom 1.3752265699999999 0.1381393400000000 1.6627095000000001 La
atom 1.4026523700000000 0.2063403200000000 7.0322924200000001 Hf
atom 1.3884052499999999 5.3428012799999998 1.8053320700000000 Hf
atom 1.3884131399999999 5.3623135900000003 7.0153066900000001 Hf
atom 1.3902109899999999 2.3330424700000001 4.4267127300000002 Hf
atom 1.3133140699999999 2.4451154900000001 9.5426948800000009 Hf
atom 1.3976421699999999 7.4996085499999996 4.4122847700000003 Hf
atom 1.4020991500000000 7.4694570799999997 9.6282657500000006 Hf
atom 3.6973595600000002 2.8548384800000002 1.8829217199999999 Hf
atom 3.6452142200000002 2.7804179400000000 7.0309783599999998 Hf
atom 3.6789569100000001 7.8802781800000004 1.8083842500000000 Hf
atom 3.6293207999999999 7.9122693100000001 6.9947888699999998 Hf
atom 3.6242751400000000 4.9354684799999999 4.4296869699999997 Hf
atom 3.6594924500000001 4.9153417599999996 9.6369633700000001 Hf
atom 3.6486702100000001 10.0660432499999999 4.4197886300000002 Hf
atom 3.7273232300000001 10.0004395499999994 9.5645433299999993 Hf
atom 6.4345872300000000 0.2085359100000000 0.8455761400000000 Hf
atom 6.4276403899999996 0.2142845300000000 6.0555215799999997 Hf
atom 6.4451754200000000 5.3511928600000003 0.8222089000000000 Hf
atom 6.4250886899999999 5.3533357300000004 6.0312345100000000 Hf
atom 6.4522977399999997 2.3536748699999999 3.4494133499999999 Hf
atom 6.4428533600000000 2.3534694599999999 8.6601549700000007 Hf
atom 6.4378245400000003 7.5028608800000001 3.4531056599999999 Hf
atom 6.4518299800000003 7.4803812799999996 8.6466087300000005 Hf
atom 8.6529929499999998 2.7984689700000001 0.8006187900000000 Hf
atom 8.6860166299999992 2.7864991400000001 6.0471595999999996 Hf
atom 8.6382869499999995 7.8981191300000004 0.8284067400000000 Hf
atom 8.6894508300000002 7.9319173500000000 6.0504908600000000 Hf
atom 8.6801045400000003 4.9228102900000001 3.4342813799999998 Hf
atom 8.6447218400000008 4.9454330300000002 8.6222319899999995 Hf
atom 8.6365320000000008 10.0718242500000006 3.4936849699999999 Hf
atom 8.6723116400000002 10.0620227199999999 8.6861679400000007 Hf
atom 0.3658505500000000 1.9464736300000001 0.8320189200000000 O
atom 0.3663207600000000 1.7777529900000000 6.2013548900000002 O
atom 0.3575279500000000 6.9039276599999999 0.9226524800000000 O
atom 0.3529711300000000 6.8910971600000002 6.1478569099999998 O
atom 0.2654025000000000 0.8673041300000000 3.6460541499999999 O
atom 0.3573101300000000 0.8153532800000000 8.7700959199999993 O
atom 0.3520591200000000 5.9920051000000001 3.5114011199999999 O
atom 0.3386715500000000 5.9668760699999996 8.7404022200000000 O
atom 4.7231097300000000 4.2969765600000001 0.8906724400000000 O
atom 4.7039003800000003 4.2605155200000002 6.1108396899999997 O
atom 4.6716073600000003 9.4858740499999996 0.9201282400000000 O
atom 4.7009830199999998 9.4183157200000007 6.1270598800000000 O
atom 4.7397503800000003 3.4849327099999998 3.5065159100000001 O
atom 4.7104773499999997 3.4276914100000000 8.7204735699999993 O
atom 4.7309584700000000 8.5777801300000007 3.5103431100000000 O
atom 4.7298846899999996 8.5564809499999992 8.6919098600000009 O
atom 2.8577473599999998 1.3323803900000000 3.1351407800000000 O
atom 2.7899798200000001 1.2825393500000000 8.3904009100000003 O
atom 2.7937278800000001 6.3838159200000000 3.0839714300000001 O
atom 2.7885019500000001 6.4191268399999997 8.3116146700000009 O
atom 2.7830535900000002 1.2784389899999999 5.7353640199999996 O
atom 2.7527898099999999 6.3350703800000003 0.4870239500000000 O
atom 2.7771597099999998 6.4371083000000002 5.6982831100000002 O
atom 2.2506760500000000 3.8586058300000001 3.1079110499999998 O
atom 2.2638703599999999 3.8751194099999999 8.2956906299999993 O
atom 2.3415263899999998 8.8828981799999998 3.1492573500000001 O
atom 2.2703209100000001 8.9763010600000008 8.2709826399999997 O
atom 2.3194615700000001 3.7482788299999998 0.4675944900000000 O
atom 2.2584840700000002 3.8688315400000000 5.7108392900000000 O
atom 2.4515304100000002 8.8387559000000007 0.3370004200000000 O
atom 2.2511797800000002 9.0164384999999996 5.7046375100000004 O
atom 5.3682243100000004 1.7155517700000000 1.7462282200000001 O
atom 5.3663047600000002 1.6915962200000001 6.9754684300000003 O
atom 5.3904104400000001 6.8390130600000001 1.7377326799999999 O
atom 5.3710607000000001 6.8369342700000004 6.9607973100000002 O
atom 5.3808020000000001 0.8672829000000000 4.3543325599999996 O
atom 5.3829628300000003 0.8680596600000000 9.5771172399999998 O
atom 5.3596107300000000 6.0096724999999998 4.3622003899999999 O
atom 5.3723706900000003 6.0136443200000000 9.5767944899999993 O
atom 9.6970257600000007 4.3361804499999996 1.6786402600000001 O
atom 9.7093287900000007 4.3286730899999997 6.9042333400000002 O
atom 9.4892528100000000 9.4173872599999999 1.7627794800000001 O
atom 9.7245832300000004 9.4472378599999995 6.9553082200000000 O
atom 9.7332833700000005 3.4201439100000002 4.3296164800000003 O
atom 9.6509431299999999 3.4081672099999998 9.4466884600000007 O
atom 9.7256685899999997 8.5433529999999998 4.3361755799999999 O
atom 9.7509290300000000 8.5640538100000008 9.5844257200000005 O
atom 7.8245725999999998 1.2676734800000000 9.9892709300000000 O
atom 7.7943904200000000 1.2874264799999999 4.7842079100000001 O
atom 7.8145358399999996 6.4072290599999997 9.9620397700000005 O
atom 7.8235135299999996 6.4128769099999996 4.7570004600000004 O
atom 7.8131460099999996 1.3119457400000001 2.1580333000000000 O
atom 7.8197982300000000 1.2912167699999999 7.3809434500000002 O
atom 7.8182307399999997 6.4380812299999999 2.1464288200000001 O
atom 7.8108878800000001 6.4429185799999997 7.3512242600000004 O
atom 7.2726047400000002 3.8552795400000002 9.9728289199999995 O
atom 7.2962732600000004 3.8500178100000002 4.7506293700000004 O
atom 7.2815731000000001 8.9828215100000008 9.9965592599999997 O
atom 7.2899186599999997 8.9889796099999995 4.7961915800000003 O
atom 7.2888120900000004 3.8707951899999999 2.1471072400000000 O
atom 7.2835395500000004 3.8591259700000000 7.3554998400000002 O
atom 7.1673327899999997 9.0081306600000008 2.1778252600000001 O
atom 7.3004983699999997 9.0048809599999995 7.3898389299999998 O
