lattice_vector 10.2497721599999991 -0.0604744900000000 0.8470609000000000 
lattice_vector -0.0734035900000000 10.4380218199999995 -0.0087653500000000 
lattice_vector 0.3868569300000000 -0.0162304500000000 5.2591746500000003 
atom 1.4552671100000001 0.1509903200000000 1.5970215800000001 La
atom 1.4606835100000000 5.4300432499999998 1.6616255400000000 Hf
atom 6.6769469099999998 0.1711020400000000 2.1099722000000001 Hf
atom 6.6645917700000004 5.3786087000000000 1.9734967900000000 Hf
atom 1.6951239899999999 2.4355146799999998 4.2745339199999997 Hf
atom 1.6596510600000001 7.5966990399999998 4.2755752700000000 Hf
atom 6.8703998700000000 2.3050954099999998 4.7169416300000000 Hf
atom 6.8203171500000002 7.5994856100000003 4.7096230400000003 Hf
atom 3.7797485399999999 2.7369124000000000 1.4042287000000000 Hf
atom 3.7423570399999999 8.0140799000000005 1.3941018300000001 Hf
atom 8.8539645199999999 2.8066652900000002 1.8085613500000000 Hf
atom 8.8309954200000007 7.9509465700000002 1.8064441499999999 Hf
atom 4.0198183700000003 5.0213636399999997 4.0816798299999997 La
atom 3.9408801599999999 10.1810636199999998 4.0083995000000003 Hf
atom 9.0478741700000000 4.9406297400000003 4.4152306399999999 Hf
atom 8.9867209399999997 10.1718541600000005 4.5426704600000001 Hf
atom 0.3996819400000000 2.0374347300000002 0.8791984200000000 O
atom 0.3199568400000000 6.9983647600000003 0.8689392400000000 O
atom 5.5777573599999997 1.6882030800000001 1.3487646200000001 O
atom 5.4718147100000003 6.8889975500000000 1.2268272700000000 O
atom 0.5471500400000000 0.8573288999999999 3.7127699999999999 O
atom 0.5485522000000000 6.0611594799999997 3.4954373500000000 O
atom 5.8262982900000004 0.7141406400000000 3.9631060599999999 O
atom 5.9747639499999998 6.0468742100000004 3.8021694500000001 O
atom 4.9283333200000001 4.3143544900000004 1.9663201699999999 O
atom 4.8536796600000001 9.5491148700000004 2.1743321799999999 O
atom 9.8982562999999999 4.3979317199999999 2.5622566400000002 O
atom 9.6755828499999996 9.5047850100000009 2.7129373499999998 O
atom 5.0756510300000004 3.1355367900000002 4.7998201399999996 O
atom 5.0819768099999996 8.6130285499999992 4.8012369499999998 O
atom 10.1471210799999998 3.4234591800000000 5.1764842800000004 O
atom 10.1789786699999993 8.6598867100000003 5.2884587600000001 O
atom 3.1059346300000001 1.3642760500000000 2.8490732900000002 O
atom 2.8548916200000001 6.6104912100000002 2.7214920299999998 O
atom 8.1528822600000002 1.3044248400000000 3.2169594300000002 O
atom 8.1767384399999994 6.5093686899999996 3.1266891499999998 O
atom 3.2481516899999998 1.2818232599999999 5.3191909400000004 O
atom 2.9983419800000002 6.5353980700000003 5.4894241600000004 O
atom 8.3121185700000009 1.2036411100000000 5.8649727299999999 O
atom 8.2657410200000001 6.4190768499999997 5.7708680299999999 O
atom 2.2272393799999999 3.8902536300000001 0.3596297400000000 O
atom 2.4032745800000002 9.0748990200000001 0.1805779000000000 O
atom 7.4129410099999999 3.9086991100000001 0.6602751900000000 O
atom 7.3852664700000004 9.1316094900000007 0.7451295700000000 O
atom 2.3694658999999998 3.8083867699999998 2.8298168399999999 O
atom 2.5469595400000000 9.0004474000000005 2.9482342600000000 O
atom 7.5721076199999997 3.8070032000000000 3.3087686299999999 O
atom 7.4744618200000001 9.0401514899999995 3.3890178700000000 O
