lattice_vector 10.1626462100000001 0.0177220500000000 0.8402981200000000 
lattice_vector 0.0164677800000000 10.3295668400000000 0.0406227400000000 
lattice_vector 0.8034627500000000 -0.0051423700000000 10.4333920399999993 
atom 1.4291139100000001 0.0521521600000000 1.4811587300000000 Hf
atom 1.8823538000000000 0.2152613300000000 6.8844741200000001 Hf
atom 1.5460507400000001 5.3867769499999998 1.6799047100000000 Hf
atom 1.8981030900000000 5.4173805000000002 6.9023635399999996 Hf
atom 6.6761149199999998 0.2133156600000000 1.9888311400000001 Hf
atom 6.9582716900000001 0.2263583200000000 7.2990445099999999 Hf
atom 6.6047149100000002 5.3752310500000000 2.0753898700000000 Hf
atom 7.0009656600000003 5.3874848599999998 7.3211514600000003 Hf
atom 1.6967044600000001 2.5957561999999998 4.4498917400000000 Hf
atom 2.1165340100000001 2.3673266900000001 9.4769304499999993 Hf
atom 1.7040136900000000 7.5645812699999997 4.2700884700000001 Hf
atom 2.1523052100000002 7.5012719399999996 9.4981997000000007 Hf
atom 6.8107423300000001 2.4081698800000000 4.6605058100000001 Hf
atom 7.2277689000000001 2.3773551199999998 9.8878995300000003 Hf
atom 6.7625079499999998 7.4714969099999999 4.7328259499999996 Hf
atom 7.2119060900000003 7.5211690400000002 9.9062822700000002 Hf
atom 3.7289398399999998 2.6517582700000002 1.5445936700000000 La
atom 4.1612652900000002 2.8039565700000000 6.6825645600000003 Hf
atom 3.7937825900000002 7.9686976500000002 1.4127049300000001 Hf
atom 4.1398735599999998 7.9373971399999999 6.6523085899999996 Hf
atom 8.8587235100000008 2.8165303499999998 1.8109683299999999 Hf
atom 9.1668199999999995 2.7955438099999999 7.0449064300000002 Hf
atom 8.8458172899999994 7.9302926300000003 1.8334954299999999 Hf
atom 9.2249805899999995 7.9838636000000003 7.0636266799999996 Hf
atom 3.9804671699999998 5.0138888599999998 4.0429541000000002 Hf
atom 4.3686907899999996 4.9176161799999996 9.2626141700000009 Hf
atom 3.9675668599999998 10.2346912499999991 4.0895651199999996 La
atom 4.3703072900000004 10.0745573299999993 9.2305948000000004 Hf
atom 9.0178571000000005 4.9928327899999996 4.4142559500000003 Hf
atom 9.4399336599999994 4.9510310600000000 9.6496767699999992 Hf
atom 8.7750053799999996 10.0464907300000004 4.4765014699999996 Hf
atom 9.4591543199999997 10.1019688199999997 9.6698316000000002 Hf
atom 0.3938510700000000 1.6969763400000000 0.8404138500000000 O
atom 0.6318089600000000 1.5698772000000001 5.9287647999999997 O
atom 0.4374913900000000 6.9039648299999996 0.8847791699999999 O
atom 0.7626639900000000 6.8751031999999999 6.0656685699999997 O
atom 5.8158866299999996 1.8769245200000000 1.3658447199999999 O
atom 5.9126650600000001 1.7939707600000001 6.5276215500000001 O
atom 5.5900393800000003 7.0120209700000000 1.3733068799999999 O
atom 5.9341284999999999 6.9458175100000004 6.6248865199999996 O
atom 2.1102046200000002 1.2577813000000000 2.9776720100000000 O
atom 0.9838412700000000 0.8909885700000000 8.6272194899999999 O
atom 0.5728849000000000 6.0716850700000000 3.4816504899999998 O
atom 0.9948610900000000 6.0342838700000003 8.6895804999999999 O
atom 6.0493828100000000 0.7296497400000000 3.9057683200000000 O
atom 6.1150984800000003 0.7926990500000000 9.1606718800000007 O
atom 5.8117878599999999 5.8637478400000003 4.0334880200000001 O
atom 6.1518417200000002 5.9428939999999999 9.1923375600000004 O
atom 4.8141642899999999 4.5514296300000003 2.1854344700000001 O
atom 5.2312191500000003 4.3970192600000004 7.3544238000000002 O
atom 4.8534750700000000 9.6580890900000007 1.9428521000000001 O
atom 5.2070245799999997 9.5520233599999997 7.3423344400000001 O
atom 9.9496095499999999 4.3421410500000004 2.6199100899999999 O
atom 10.3639777300000002 4.2674347900000003 7.8113566700000003 O
atom 9.8690391599999998 9.5316164000000008 2.7441458200000000 O
atom 10.3460696100000007 9.4379702699999992 7.8985802500000002 O
atom 4.9456530200000000 3.2671772400000001 4.6749308300000001 O
atom 5.4768081999999998 3.3696028700000000 9.8890910299999994 O
atom 4.9975818800000003 8.3562257199999994 4.7967799900000001 O
atom 5.4401017600000001 8.4928716299999998 9.9357907000000001 O
atom 10.0401490399999993 3.3954430699999998 5.1865973299999997 O
atom 10.5447879300000000 3.4513661500000001 10.4255527000000008 O
atom 10.1340581800000002 8.7723015300000000 5.2676703099999997 O
atom 10.6221041300000003 8.6717243199999992 10.5331875799999999 O
atom 3.3982506899999998 1.3306727199999999 8.0037870699999996 O
atom 3.0165384199999998 6.5280324399999996 2.8093750599999998 O
atom 3.3875981500000001 6.4832787099999996 8.0057133300000007 O
atom 8.2605709199999993 1.3480575600000000 3.1774922399999999 O
atom 8.4388041999999999 1.3384897700000000 8.3784343999999997 O
atom 8.0808091500000003 6.4880640500000002 3.1809740299999998 O
atom 8.4834634199999996 6.5110787900000000 8.4072233399999998 O
atom 3.0419550100000001 1.4194099800000000 5.5455807699999999 O
atom 3.4772775000000000 1.0970403000000000 10.5228266399999999 O
atom 3.1516467100000001 6.4339665600000000 5.4012676500000003 O
atom 3.6310613300000001 6.4097136499999996 10.6197982100000008 O
atom 8.2296634199999996 1.2282885900000000 5.7848937200000004 O
atom 8.7801960599999997 1.2291479800000000 10.9577215799999994 O
atom 8.2786853699999998 6.4178100699999998 5.8091505100000003 O
atom 8.7167640899999999 6.4285750100000003 11.0078344399999999 O
atom 2.2032467300000000 3.9662571299999998 0.2631157800000000 O
atom 2.7137808799999998 3.9875797500000001 5.5848019200000003 O
atom 2.3202831399999999 9.0065072700000002 0.2685649300000000 O
atom 2.5857507100000001 9.0304640900000006 5.6271630699999999 O
atom 7.3866727599999997 3.9561806399999999 0.6996318600000000 O
atom 7.7374694999999996 3.9275756099999999 5.9439031000000000 O
atom 7.4210545699999999 9.0634942400000007 0.7206115900000000 O
atom 7.6877012999999996 9.0597479399999994 5.9699420800000000 O
atom 2.4034308000000002 3.9740190599999998 3.0609962600000000 O
atom 2.8907726100000000 3.8276751099999999 8.1358824599999995 O
atom 2.3798007200000000 8.9264403300000001 2.8014778599999999 O
atom 2.8861277099999998 8.9827752699999994 8.1591184499999994 O
atom 7.5710148899999998 3.8306494000000000 3.3149157200000001 O
atom 7.9844491599999996 3.8427914200000002 8.5447251299999998 O
atom 7.5291703400000003 8.9191035700000008 3.3431405100000000 O
atom 7.9606560799999997 9.0012415400000005 8.5626257500000005 O
