lattice_vector 10.1038896600000001 0.0093996800000000 -0.1137511100000000 
lattice_vector 0.0136089100000000 5.1237703600000000 0.0026354900000000 
lattice_vector -0.0616732300000000 -0.0136377300000000 10.5159137900000008 
atom 1.2286060700000001 0.1856730500000000 1.6094845499999999 La
atom 1.3713821399999999 0.2021274800000000 7.0125841700000002 Hf
atom 1.3626692199999999 2.3521719800000001 4.3971111699999996 Hf
atom 1.4406582600000000 2.4157139999999999 9.5236171100000000 Hf
atom 3.6453870300000002 2.7663793399999999 1.7488252600000000 Hf
atom 3.6478719800000001 2.7803412800000000 6.9568336799999999 Hf
atom 3.6189085300000001 4.9193320099999998 4.3459185500000004 Hf
atom 3.6523662300000002 4.9115148800000004 9.6063050699999994 Hf
atom 6.4152110300000000 0.2292605500000000 0.7620971600000001 Hf
atom 6.4187251900000000 0.2086398200000000 6.0095801099999999 Hf
atom 6.4075198499999999 2.3492247200000000 3.3989476100000000 Hf
atom 6.4207341900000001 2.3302501200000001 8.6130057499999992 Hf
atom 8.5489485900000002 2.7973859999999999 0.7602002500000000 Hf
atom 8.6910698600000007 2.7795641500000001 6.0250458900000003 Hf
atom 8.6489721700000004 4.8971710000000002 3.4363028199999999 Hf
atom 8.7035231700000004 4.8925642299999996 8.6651088200000004 Hf
atom 0.2925243800000000 1.6546725300000000 6.1518642000000003 O
atom 0.1389794200000000 1.0234025700000000 3.5061295900000000 O
atom 0.3284522800000000 0.8486916900000000 8.8638443599999999 O
atom 4.7355840599999999 4.2718010900000003 0.8006876800000000 O
atom 4.7139703400000004 4.2465941599999999 6.0390313500000001 O
atom 4.7307304999999999 3.4642537099999999 3.4199534200000001 O
atom 4.7171115800000001 3.4363328399999999 8.6499319000000003 O
atom 2.7949367100000000 1.2927405900000000 3.0731693600000001 O
atom 2.7597492899999998 1.2658889300000000 8.2199853699999998 O
atom 2.8112359300000000 1.3627386300000000 0.2718290100000000 O
atom 2.7416960000000001 1.3019969800000000 5.6527339699999999 O
atom 2.2857756400000002 3.7743937700000001 3.0883159199999999 O
atom 2.2818487400000000 3.8403984400000000 8.2699056199999994 O
atom 2.4178263400000000 3.7766802500000001 0.3086786600000000 O
atom 2.2479357499999999 3.8768639100000000 5.6933469099999998 O
atom 5.3693438899999997 1.6942320099999999 1.6882680900000000 O
atom 5.3705027999999997 1.6858138800000000 6.9281545800000002 O
atom 5.3558329000000002 0.8730085800000000 4.3161070500000003 O
atom 5.3594310099999998 0.8727652200000000 9.5557729200000008 O
atom 9.6472686400000001 3.9389597699999999 1.9209447700000000 O
atom 9.7986932400000004 4.1759054000000004 7.0669355899999999 O
atom 9.7968747500000006 3.5784792099999998 4.4729966000000001 O
atom 9.7804482999999998 3.4591052800000002 9.7509401899999997 O
atom 7.8083194300000001 1.2440397999999999 9.9786485900000006 O
atom 7.7849033700000003 1.2877326600000001 4.7482783700000004 O
atom 7.8150758900000001 1.2903680900000001 2.0803950599999999 O
atom 7.8278502100000003 1.2654336399999999 7.3651795499999997 O
atom 7.2621098599999998 3.8263083500000001 9.9555350800000006 O
atom 7.2958856299999999 3.8237392200000002 4.7257685399999998 O
atom 7.2019632800000002 3.8818659499999999 2.0864183000000001 O
atom 7.3220221900000002 3.8434580299999999 7.3454617300000002 O
