lattice_vector 10.0989218100000002 -0.0030008400000000 -0.0730880300000000 
lattice_vector -0.0344968100000000 5.1516346500000001 -0.0034430200000000 
lattice_vector -0.0334593200000000 -0.0332858900000000 10.3688035799999998 
atom 1.3142758400000001 0.0553057900000000 1.5677766900000001 La
atom 1.3913282499999999 0.1742318000000000 6.9167462899999999 Hf
atom 1.3690289200000001 2.2942334500000001 4.3185551100000001 Hf
atom 1.3392991400000001 2.3428305200000001 9.4508067100000002 Hf
atom 3.6928310799999999 2.6627130499999998 1.7823404500000000 Hf
atom 3.6259638000000001 2.7478796600000002 6.9051688999999996 Hf
atom 3.5995664900000000 4.8887669000000002 4.3137977599999999 Hf
atom 3.6927140800000000 4.9553038300000001 9.4270937999999997 Hf
atom 6.4683705800000002 0.1646197900000000 0.8131904800000000 Hf
atom 6.4254675499999996 0.1802078500000000 5.9723646500000003 Hf
atom 6.4274243499999999 2.3410948999999999 3.4199429200000000 Hf
atom 6.4405458400000004 2.3397565500000002 8.5391945600000003 Hf
atom 8.6641309799999995 2.7779008900000002 0.7769447500000000 Hf
atom 8.7004278799999994 2.7710806400000001 5.9510034500000000 Hf
atom 8.5977783100000007 4.9429276399999997 3.3863325199999998 Hf
atom 8.6309524500000006 4.9098087899999996 8.5554362899999994 Hf
atom 0.5071722100000000 2.2318788100000000 0.9928472200000000 O
atom 0.3617107900000000 1.7702994900000000 6.1631112999999997 O
atom 0.2747855200000000 0.7773055900000000 3.5918550599999999 O
atom 0.3825733200000000 0.7136104500000000 8.8035250499999993 O
atom 4.5468600800000001 4.3161428400000004 0.8457843900000001 O
atom 4.6463656499999999 4.3005425600000002 6.0700133300000001 O
atom 4.6952447800000003 3.3631700800000002 3.4937110699999998 O
atom 4.6810834899999998 3.3675469800000002 8.6161469999999998 O
atom 2.8287055500000000 1.2182951500000001 3.0536952899999998 O
atom 2.7573258699999998 1.2536224899999999 8.1420344799999995 O
atom 2.8643358600000002 1.4109008199999999 0.2752672500000000 O
atom 2.7568396000000002 1.2549851500000000 5.5969274000000002 O
atom 2.2913653300000001 3.7085208199999999 3.0319836400000000 O
atom 2.2279282199999999 3.8397717400000002 8.2664884700000005 O
atom 2.2089463500000002 3.8417064700000001 5.6355877200000002 O
atom 5.4020011099999996 1.6732471200000001 1.6684466499999999 O
atom 5.3783032999999998 1.7197746899999999 6.8219108200000003 O
atom 5.3934900900000002 0.7715199100000000 4.2494163499999997 O
atom 5.4426891199999998 0.7845007800000000 9.4083141599999998 O
atom 9.2737696500000002 4.5519593499999997 1.4653071900000001 O
atom 9.6832385900000002 4.3530271599999999 6.7888347800000002 O
atom 9.6922760399999994 3.3575932100000001 4.1579210399999997 O
atom 9.6516203800000007 3.3241934600000000 9.3130997299999994 O
atom 7.8179556500000000 1.2263251700000000 9.8844101400000000 O
atom 7.8047033900000002 1.2597680700000000 4.7126688100000003 O
atom 7.8009466999999999 1.3428311399999999 2.1217806100000001 O
atom 7.8271345700000001 1.2782223900000000 7.2837838499999998 O
atom 7.2410959999999998 3.8070496800000000 9.8653523199999995 O
atom 7.2827516299999999 3.8305807999999999 4.7156634700000000 O
atom 7.1083076600000004 3.8549691199999998 2.1364366600000002 O
atom 7.2827308999999998 3.8435627700000001 7.2761434300000003 O
