lattice_vector 9.9648632100000007 -0.0213319500000000 -0.0161725900000000 
lattice_vector 0.0147853300000000 10.1893283900000000 0.0755493800000000 
lattice_vector 0.0219506600000000 0.0540260300000000 10.4128664000000004 
atom 1.0623317100000000 0.2565160200000000 2.1795203000000001 Si
atom 1.4617831699999999 0.3089493900000000 6.8659874099999998 Hf
atom 1.4000055100000000 5.3267625000000001 1.8027142700000001 Hf
atom 1.4410237900000000 5.3162836499999999 7.0019644799999998 Hf
atom 1.3469521700000000 2.4157729300000002 4.3596768900000002 Hf
atom 1.5431806200000000 2.3478400499999998 9.5508152200000005 Hf
atom 1.3535270399999999 7.4412944899999998 4.4180452199999998 Hf
atom 1.4750405400000000 7.5324964899999998 9.6207069700000005 Hf
atom 3.5781088500000000 2.7294489400000002 1.7113794700000000 Hf
atom 3.9588181100000002 2.8410073699999998 7.4336218799999996 Si
atom 3.5530293700000000 7.9076164100000002 1.7813355300000000 Hf
atom 3.6224983000000002 7.8942373100000003 6.9991446899999996 Hf
atom 3.5114053300000001 4.8204232400000002 4.4430657499999997 Hf
atom 3.6482568600000000 4.9726277400000001 9.6225556099999991 Hf
atom 3.5318323100000000 10.0425607200000009 4.3557413599999997 Hf
atom 3.6915520800000001 10.0326786800000001 9.6190291499999994 Hf
atom 6.4068724100000001 0.1993423100000000 0.8197633200000000 Hf
atom 6.2782095299999998 0.2682826700000000 6.0573160799999997 Hf
atom 6.3975400200000001 5.2984942799999999 0.8788645800000000 Hf
atom 6.3077211100000001 5.2720303499999996 6.1369642600000001 Hf
atom 6.3339876999999998 2.3577851500000002 3.4375219000000001 Hf
atom 6.5333664200000001 2.3519232400000001 8.7244926899999999 Hf
atom 6.2771672599999997 7.3898816399999996 3.5075207000000002 Hf
atom 6.4376173500000000 7.4774614899999996 8.6973381799999991 Hf
atom 8.7302385900000008 2.6759199300000001 0.9027890500000000 Hf
atom 8.5672651099999992 2.7881301600000001 6.0495583499999999 Hf
atom 8.6499229399999997 7.8710727299999999 0.9028807300000000 Hf
atom 8.5766519399999996 7.8590297500000004 6.0960462199999998 Hf
atom 8.5432439099999993 4.9002139199999997 3.4727874299999999 Hf
atom 8.6771056400000006 4.8979879200000003 8.7140089100000004 Hf
atom 8.4666768200000000 9.9492493500000005 3.5588138800000002 Hf
atom 8.7001172499999999 10.0061870600000002 8.6685155199999997 Hf
atom 0.5860314100000000 1.5062498799999999 1.0396518100000001 O
atom 0.3019558700000000 1.7573348499999999 6.0821098100000004 O
atom 0.4008180900000000 6.8603277199999999 0.9520551100000000 O
atom 0.3452734500000000 6.8143055800000001 6.1414083200000000 O
atom 0.2600993300000000 0.8158352100000000 3.5492547999999999 O
atom 0.4937626700000000 0.8804509900000000 8.6587146199999996 O
atom 0.3139893500000000 5.9406802399999998 3.5264748699999999 O
atom 0.4369414700000000 5.9284866999999997 8.7907075799999994 O
atom 4.6584409400000002 4.2539216599999996 0.9100944800000000 O
atom 4.4194838100000000 4.0856970800000001 6.3049816500000002 O
atom 4.7139707700000004 9.3303671300000008 0.9205588400000000 O
atom 4.5882752000000000 9.4275167199999999 6.1329862899999998 O
atom 4.5865283100000003 3.3466731500000000 3.5216886900000000 O
atom 4.7619984200000003 3.3927027399999998 8.8015229599999998 O
atom 4.5441508600000002 8.4664506900000003 3.5413853500000001 O
atom 4.7144038300000002 8.5151813300000008 8.7169081899999998 O
atom 2.5170697500000001 1.1879454000000000 2.8033810199999998 O
atom 2.9620927400000001 1.4621149800000000 8.0074887500000003 O
atom 2.7256842899999998 6.3959185500000002 3.1106938899999999 O
atom 2.8050834000000000 6.4232182900000003 8.3106542700000006 O
atom 3.0529208500000000 1.4649156299999999 0.1767832300000000 O
atom 2.6600558699999999 1.2946243300000000 5.4428809999999999 O
atom 2.8006032900000002 6.3785927300000003 0.4929047600000000 O
atom 2.7855615199999999 6.4279628300000002 5.7070764199999999 O
atom 2.2352320300000001 3.8060168299999999 3.0114849800000001 O
atom 2.5001647199999999 3.7960639600000001 8.1598592199999995 O
atom 2.0411940899999998 9.0430538400000007 2.9694538000000001 O
atom 2.3022006699999999 9.0146066099999995 8.2506492399999996 O
atom 2.2033633699999999 3.8808962199999999 0.4186214700000000 O
atom 1.9536673600000001 4.0118036799999999 5.5083424299999999 O
atom 2.3395917300000000 8.9217394799999994 0.4015927500000000 O
atom 2.2174794100000002 8.9455595100000007 5.6357246300000003 O
atom 5.3400100699999999 1.6966273199999999 1.7083601799999999 O
atom 5.2722817099999997 1.8224426000000000 6.9927411199999998 O
atom 5.2978774000000000 6.7821318699999997 1.7781722700000000 O
atom 5.3491828000000003 6.8201859200000001 6.9694781099999998 O
atom 5.2852824199999997 0.8385574200000000 4.2945296600000002 O
atom 5.4844664800000000 0.8246250600000000 9.4812412800000008 O
atom 5.2591085599999996 5.8764434699999999 4.4444285199999998 O
atom 5.4067945100000001 5.9551017000000002 9.5563252799999994 O
atom 9.6442783399999996 4.2413759999999998 1.7391101400000000 O
atom 9.6458319299999999 4.2452505499999997 6.9864520800000003 O
atom 9.7129159900000008 9.4080351899999997 1.8290799400000000 O
atom 9.6811528599999992 9.3764346199999995 6.9350671100000003 O
atom 9.5111748100000000 3.3395616399999999 4.2822951099999997 O
atom 9.7440057000000007 3.3450910999999999 9.6043810300000008 O
atom 9.5580539699999996 8.4433055699999997 4.3533256400000004 O
atom 9.6898406099999992 8.5076824900000005 9.5649558199999998 O
atom 7.9040560099999997 1.2698806199999999 9.9839256299999999 O
atom 7.6836997299999998 1.2555674699999999 4.7792974800000003 O
atom 7.8253450999999998 6.3963417400000004 10.0378093199999991 O
atom 7.6789345000000004 6.3348468499999999 4.8352683100000000 O
atom 7.7575229500000003 1.2691209800000001 2.1680408000000000 O
atom 7.7370355100000001 1.3143001000000001 7.3633837199999999 O
atom 7.7260528900000001 6.3941094900000000 2.2097793200000000 O
atom 7.7648948300000002 6.3730300000000000 7.4233995999999998 O
atom 7.3299524500000004 3.8077350999999999 10.0417209500000002 O
atom 7.1293477599999999 3.8120231100000002 4.8087785900000002 O
atom 7.3006525499999997 8.9394745100000002 10.0213756099999998 O
atom 7.1199882800000003 8.8928611300000000 4.8456518700000002 O
atom 7.2343046800000002 3.8147583200000001 2.1787949499999999 O
atom 7.2271935000000003 3.8593090399999999 7.4197664100000003 O
atom 7.2323716800000000 8.9038586599999991 2.2299809000000002 O
atom 7.2520124299999997 8.9702863700000002 7.4121749899999996 O
