lattice_vector 10.0137218699999995 0.0547809300000000 0.7950000500000000 
lattice_vector 0.0928715800000000 10.1680300500000005 -0.0327556600000000 
lattice_vector 0.8643803900000000 -0.0059646600000000 10.4579912700000008 
atom 1.3367191500000000 0.1914314400000000 1.7757650400000000 Si
atom 1.9245466099999999 0.2138467300000000 6.8391277500000003 Hf
atom 1.5821170700000000 5.3210328499999999 1.6202286900000000 Hf
atom 2.0168662099999999 5.3035030499999998 6.8077822599999998 Hf
atom 6.5186092400000000 0.2435972700000000 2.0247778200000002 Hf
atom 6.9388769300000002 0.2536699000000000 7.2852791999999997 Hf
atom 6.5715925000000004 5.2468282799999999 1.9737853800000000 Hf
atom 7.0242705399999998 5.3475362400000002 7.2873325299999996 Hf
atom 1.7257417100000001 2.3120587200000000 4.1570419799999998 Hf
atom 2.1389140900000001 2.3564056299999998 9.4276121400000008 Hf
atom 1.8162025300000000 7.4244439299999998 4.2179404199999997 Hf
atom 2.1651160100000002 7.3691801600000000 9.4079359799999995 Hf
atom 6.7692222600000003 2.3503726000000000 4.6556581000000001 Hf
atom 7.2429224400000001 2.4047278699999999 9.9305001900000001 Hf
atom 6.7961607300000004 7.4257154800000000 4.5922912399999998 Hf
atom 7.2728751300000001 7.3638162899999999 9.8637481600000001 Hf
atom 3.6815527100000001 2.7281839500000000 1.3062019300000001 Hf
atom 4.1552508899999996 2.7825657700000002 6.5809565299999999 Hf
atom 3.7443238200000000 7.9372590000000001 1.3397323000000001 Hf
atom 4.2212451000000000 7.8750024700000001 6.6116333200000001 Hf
atom 8.7859815099999992 2.7760053299999998 1.8093493599999999 Hf
atom 9.1987504399999995 2.8211995900000000 7.0796192199999997 Hf
atom 8.8520967000000006 7.9311390199999998 1.7957171999999999 Hf
atom 9.2011071199999996 7.8765612400000000 6.9860157599999999 Hf
atom 3.9856071100000001 4.8793192500000000 3.9514104400000001 Hf
atom 4.4057752700000004 4.8891475099999999 9.2119192299999995 Hf
atom 3.9933573500000001 9.9532808100000008 3.9166719699999999 Hf
atom 4.4458950399999999 10.0540222400000001 9.2297795300000001 Hf
atom 8.9999182300000005 4.9192125999999998 4.3972930699999999 Hf
atom 9.5881401099999994 4.9399334300000000 9.4615677199999997 Si
atom 9.0006900999999999 9.9973526499999998 4.3960294400000004 Hf
atom 9.4354464900000004 9.9798933900000009 9.5837061400000003 Hf
atom 0.5700339200000000 1.5023650700000000 0.8350931500000000 O
atom 0.8404071400000001 1.6523689300000000 5.9820646599999998 O
atom 0.4732791600000000 6.7517936100000000 0.7781192600000000 O
atom 0.9065704999999999 6.7588758400000000 6.0227364400000001 O
atom 5.3490202199999999 1.5962839099999999 1.1651830100000000 O
atom 5.8354478299999997 1.6721657000000001 6.4136609900000003 O
atom 5.5167033900000000 6.7741649199999996 1.1781254000000001 O
atom 5.9136605099999997 6.7738582100000002 6.4148334900000004 O
atom 0.6318495100000000 0.8148035100000000 3.3169649799999998 O
atom 0.9978514300000000 0.9175406600000000 8.6187721899999996 O
atom 0.6849681700000000 5.9647936000000001 3.4125630600000001 O
atom 0.9989531699999999 5.9162243400000003 8.6441075299999994 O
atom 5.5951566300000000 0.9385464800000000 3.7876744800000002 O
atom 6.0983802200000001 0.9144615800000000 9.0613880299999998 O
atom 5.7027584100000004 5.9531861299999997 3.8036418200000002 O
atom 6.0653666800000003 6.0462806300000000 8.9928840200000000 O
atom 4.8261543500000004 4.2187610800000002 2.1750206400000001 O
atom 5.3293578699999999 4.1941944600000003 7.4490403900000004 O
atom 4.9518533099999997 9.2543300100000003 2.2110589799999998 O
atom 5.3147927700000004 9.3474038099999994 7.4000354899999996 O
atom 9.9269907300000000 4.2152235200000003 2.6179175699999999 O
atom 10.2928082700000001 4.3182186199999997 7.9198590900000001 O
atom 10.0181054399999994 9.3841948399999993 2.5597073199999998 O
atom 10.3326700000000002 9.3359163400000007 7.7913316000000004 O
atom 5.0888185799999999 3.4606273999999999 4.8227935799999999 O
atom 5.5755106899999998 3.5365597200000001 10.0715430700000006 O
atom 5.1037246999999999 8.5268566000000003 4.7888908099999998 O
atom 5.5010542400000002 8.5267399099999999 10.0255264299999993 O
atom 10.0838612899999998 3.4806445199999998 5.2546893700000004 O
atom 10.3547829000000000 3.6302964700000002 10.4022295099999997 O
atom 10.1107537099999991 8.5417546499999997 5.1810105799999997 O
atom 10.5441814500000000 8.5489451299999999 10.4256660300000004 O
atom 2.7708230000000000 1.1642059800000000 2.4463247300000002 O
atom 3.3516970900000000 1.3171785300000001 7.8401224599999999 O
atom 3.0457858299999998 6.4224232900000002 2.6871137500000000 O
atom 3.4028434399999998 6.3955646799999997 7.9159532400000003 O
atom 7.9864246100000003 1.3343736300000000 3.1326749100000000 O
atom 8.4118791799999997 1.3961241499999999 8.3604211700000004 O
atom 8.0515426300000001 6.4299009399999996 3.0305194000000002 O
atom 8.5474252100000001 6.4059362599999998 8.3226524600000005 O
atom 3.1928024000000002 1.2756588000000000 5.2123733400000001 O
atom 3.7843456400000002 1.5497780000000001 10.2547352200000006 O
atom 3.2753195800000001 6.3343464599999999 5.3133221500000003 O
atom 3.6745972500000001 6.4280055300000001 10.5231834299999996 O
atom 8.2359868100000000 1.2751638800000000 5.7628977900000002 O
atom 8.6691648200000007 1.1868976300000000 10.9973953200000008 O
atom 8.2535892700000009 6.3547331700000003 5.7055666299999999 O
atom 8.7140160899999994 5.9391191100000000 10.7180522400000005 O
atom 2.2553802500000000 3.9460415900000001 0.2393167300000000 O
atom 2.6884014000000001 3.8577374799999999 5.4737814399999998 O
atom 2.3041035900000000 9.3617249099999995 0.4853852500000000 O
atom 2.7640231200000001 8.9461093399999996 5.4980492200000004 O
atom 7.1405256599999998 3.5830325599999999 0.9818726000000000 O
atom 7.7313252900000000 3.8570828399999999 6.0241870500000001 O
atom 7.3431252100000002 8.8730293499999995 0.6803515999999999 O
atom 7.7421448499999999 8.9663484600000007 5.8904012799999999 O
atom 2.5125104800000000 3.7371909300000001 2.8762048999999998 O
atom 2.9379447100000000 3.7980602800000001 8.1041164899999991 O
atom 2.4688431999999998 8.8963358899999996 2.8808584100000001 O
atom 2.9660155800000001 8.8707934099999992 8.1734123699999994 O
atom 7.5728911800000001 3.8155173900000001 3.3965525300000001 O
atom 8.1531631000000004 3.9691342999999999 8.7904051400000007 O
atom 7.6147102200000001 8.9051093699999999 3.2877840900000002 O
atom 7.9716745199999997 8.8793404999999996 8.5167813700000004 O
