lattice_vector 10.0622070000000008 -0.0231810000000000 -0.0412390000000000 
lattice_vector -0.0066960000000000 10.3958189999999995 -0.0220000000000000 
lattice_vector -0.0343320000000000 -0.0117250000000000 10.0867699999999996 
atom 1.2212920000000000 0.0456810000000000 1.2221489999999999 La
atom 1.3285050000000000 0.1617670000000000 6.2985810000000004 Hf
atom 1.2179979999999999 5.2437740000000002 1.2111740000000000 La
atom 1.3251900000000001 5.3596760000000003 6.2875290000000001 Hf
atom 6.3817570000000003 0.1315660000000000 1.2458389999999999 Hf
atom 6.3510169999999997 0.1412310000000000 6.2988460000000002 Hf
atom 6.3784770000000002 5.3294940000000004 1.2348830000000000 Hf
atom 6.3476710000000001 5.3391739999999999 6.2878610000000004 Hf
atom 1.3490940000000000 2.4201269999999999 3.8083060000000000 Hf
atom 1.3571899999999999 2.4351870000000000 8.7704380000000004 Hf
atom 1.3457100000000000 7.6180990000000000 3.7974770000000002 Hf
atom 1.3537779999999999 7.6331889999999998 8.7595060000000000 Hf
atom 6.3328650000000000 2.3908999999999998 3.7935070000000000 Hf
atom 6.3777879999999998 2.3851089999999999 8.7988719999999994 Hf
atom 6.3295420000000000 7.5888410000000004 3.7826499999999998 Hf
atom 6.3744529999999999 7.5830010000000003 8.7879970000000007 Hf
atom 3.6987510000000001 2.7009219999999998 1.2456280000000000 Hf
atom 3.6621820000000000 2.7460290000000001 6.2826139999999997 Hf
atom 3.6955350000000000 7.8988160000000001 1.2346670000000000 Hf
atom 3.6588889999999998 7.9439070000000003 6.2716349999999998 Hf
atom 8.6245419999999999 2.7425980000000001 1.2739250000000000 Hf
atom 8.7071360000000002 2.7441510000000000 6.2580720000000003 Hf
atom 8.6211439999999993 7.9404890000000004 1.2630900000000000 Hf
atom 8.7038049999999991 7.9420229999999998 6.2471040000000002 Hf
atom 3.6565029999999998 5.0081629999999997 3.7526329999999999 Hf
atom 3.6894909999999999 5.0003989999999998 8.7919689999999999 Hf
atom 3.6530870000000002 10.2060829999999996 3.7416369999999999 Hf
atom 3.6860640000000000 10.1983660000000000 8.7809790000000003 Hf
atom 8.6358940000000004 5.0059930000000001 3.8122919999999998 Hf
atom 8.6641100000000009 4.9785370000000002 8.7654300000000003 Hf
atom 8.6325439999999993 10.2039439999999999 3.8012720000000000 Hf
atom 8.6606539999999992 10.1764980000000005 8.7544369999999994 Hf
atom 0.3032800000000000 2.1250209999999998 2.0328059999999999 O
atom 0.3865580000000000 1.9549310000000000 6.8855079999999997 O
atom 0.3000190000000000 7.3230880000000003 2.0218479999999999 O
atom 0.3832330000000000 7.1527870000000000 6.8745289999999999 O
atom 5.4004779999999997 1.8668300000000000 1.9458219999999999 O
atom 5.3613410000000004 1.8738390000000000 6.9942120000000001 O
atom 5.3971689999999999 7.0646389999999997 1.9350330000000000 O
atom 5.3580540000000001 7.0717059999999998 6.9833330000000000 O
atom 0.3375290000000000 0.6602320000000000 4.4355989999999998 O
atom 0.2663790000000000 0.8014840000000000 9.2563320000000004 O
atom 0.3341660000000000 5.8581960000000004 4.4246990000000004 O
atom 0.2630340000000000 5.9994189999999996 9.2454339999999995 O
atom 5.3681780000000003 0.6506570000000000 4.4907680000000001 O
atom 5.3915629999999997 0.6561380000000000 9.5070910000000008 O
atom 5.3648429999999996 5.8485410000000000 4.4799360000000004 O
atom 5.3882519999999996 5.8540789999999996 9.4962789999999995 O
atom 4.6726510000000001 4.4909169999999996 1.9273880000000001 O
atom 4.6725009999999996 4.4695080000000003 6.9914820000000004 O
atom 4.6693429999999996 9.6888369999999995 1.9163110000000001 O
atom 4.6691000000000003 9.6673829999999992 6.9804389999999996 O
atom 9.3213539999999995 4.5528120000000003 1.9552140000000000 O
atom 9.6682419999999993 4.4880069999999996 6.9425020000000002 O
atom 9.3179289999999995 9.7508429999999997 1.9441409999999999 O
atom 9.6648060000000005 9.6859009999999994 6.9313529999999997 O
atom 4.6592669999999998 3.2632119999999998 4.4962879999999998 O
atom 4.7391079999999999 3.2768350000000002 9.5152280000000005 O
atom 4.6559510000000000 8.4611760000000000 4.4853600000000000 O
atom 4.7358180000000001 8.4747529999999998 9.5043190000000006 O
atom 9.6730619999999998 3.2761190000000000 4.4493700000000000 O
atom 9.7733740000000004 3.3662820000000000 9.5916820000000005 O
atom 9.6697520000000008 8.4740420000000007 4.4384370000000004 O
atom 9.7700540000000000 8.5642990000000001 9.5807420000000008 O
atom 2.7943910000000001 1.2442370000000000 2.5567199999999999 O
atom 2.7109009999999998 1.2055579999999999 7.5232370000000000 O
atom 2.7910460000000001 6.4420950000000001 2.5457670000000001 O
atom 2.7075469999999999 6.4034700000000004 7.5123509999999998 O
atom 7.6951179999999999 1.2194940000000001 2.5278179999999999 O
atom 7.7353850000000000 1.1903729999999999 7.5178399999999996 O
atom 7.6918439999999997 6.4173650000000002 2.5169380000000001 O
atom 7.7320479999999998 6.3882680000000001 7.5069689999999998 O
atom 2.6947890000000001 1.3490430000000000 5.0428850000000001 O
atom 2.7519149999999999 1.3555379999999999 9.9863610000000005 O
atom 2.6913740000000002 6.5470249999999997 5.0319539999999998 O
atom 2.7484890000000002 6.5535259999999997 9.9754489999999993 O
atom 7.7118080000000004 1.3538040000000000 5.0276329999999998 O
atom 7.7363510000000000 1.3276980000000000 10.0516310000000004 O
atom 7.7084169999999999 6.5517050000000001 5.0166800000000000 O
atom 7.7329070000000000 6.5256540000000003 10.0407709999999994 O
atom 2.2920060000000002 3.9740489999999999 5.0238129999999996 O
atom 2.4315579999999999 3.8477060000000001 9.9668030000000005 O
atom 2.2886039999999999 9.1719419999999996 5.0129700000000001 O
atom 2.4282599999999999 9.0455710000000007 9.9559080000000009 O
atom 7.3047170000000001 3.9368029999999998 5.0353890000000003 O
atom 7.3153990000000002 3.9199720000000000 10.0492779999999993 O
atom 7.3014419999999998 9.1347249999999995 5.0244580000000001 O
atom 7.3120700000000003 9.1178699999999999 10.0383600000000008 O
atom 2.4375779999999998 3.6983320000000002 2.5737850000000000 O
atom 2.3012959999999998 3.8283730000000000 7.4974200000000000 O
atom 2.4343560000000002 8.8961450000000006 2.5628060000000001 O
atom 2.2978630000000000 9.0262250000000002 7.4863860000000004 O
atom 7.1917669999999996 3.7925239999999998 2.5200650000000002 O
atom 7.3351990000000002 3.7782179999999999 7.5297289999999997 O
atom 7.1883850000000002 8.9903610000000000 2.5091079999999999 O
atom 7.3318209999999997 8.9761950000000006 7.5187489999999997 O
