lattice_vector 9.9607845400000006 -0.0455810500000000 0.0237336300000000 
lattice_vector 0.0063877700000000 10.4206052899999992 -0.0573069700000000 
lattice_vector 0.0003316500000000 -0.0305297800000000 10.0286533999999996 
atom 1.5542231900000001 -0.4065396000000000 1.6459495500000001 Si
atom 1.3815098699999999 0.1719918300000000 6.2504229699999998 Hf
atom 1.3271468300000000 5.3550082200000002 1.2259841199999999 Hf
atom 1.3580709500000001 5.3253224499999998 6.2216310899999998 Hf
atom 6.2728317999999996 0.1411137300000000 1.2352653300000001 Hf
atom 6.3005551700000000 0.1234325200000000 6.3174197100000002 Hf
atom 6.3322324400000003 5.3567357500000004 1.2438058599999999 Hf
atom 6.3174514600000000 5.3641335799999998 6.2550301700000004 Hf
atom 1.2457588600000000 2.3658269600000001 3.6614178300000000 Hf
atom 1.4120851500000000 2.5178548500000000 8.6877198700000005 Hf
atom 1.3096317900000001 7.5353892800000004 3.7830303900000000 Hf
atom 1.2956271800000001 7.5648585900000000 8.6966054699999997 Hf
atom 6.3130784400000000 2.3643423200000000 3.7792056000000001 Hf
atom 6.2856582000000003 2.4298049800000001 8.7455140999999994 Hf
atom 6.3639379099999998 7.6251132999999998 3.7507963300000000 Hf
atom 6.3400769500000003 7.6794667900000002 8.7706906500000006 Hf
atom 3.6577317300000001 2.7602726000000000 1.1478945500000000 Hf
atom 3.6634837999999998 2.7596483300000001 6.1916847500000003 Hf
atom 3.7464966300000002 7.8981469500000001 1.1951146100000001 Hf
atom 3.6644951699999999 7.9692825400000000 6.2661490500000001 Hf
atom 8.5953236200000003 2.7523289300000000 1.2917773400000001 Hf
atom 8.6119714300000005 2.7249227500000002 6.2808889800000003 Hf
atom 8.6629351900000007 7.9135628300000000 1.2208152800000001 Hf
atom 8.6297542899999993 7.9550285299999999 6.2393443900000003 Hf
atom 3.6738339400000002 4.9887996000000001 3.7197480000000001 Hf
atom 3.6855965199999998 5.0760453800000001 8.7380227799999997 Hf
atom 3.7000657900000000 10.1988924700000005 3.7421536799999999 Hf
atom 3.5421900499999999 10.3057096500000007 8.7616985300000003 Hf
atom 8.6040560900000003 4.9740219699999999 3.7628443499999999 Hf
atom 8.6143291899999994 4.9826263300000004 8.7497471900000008 Hf
atom 8.6454239800000003 10.2363630200000006 3.7354588400000002 Hf
atom 8.9134122799999993 10.4227012899999991 8.7859186000000005 La
atom 0.1895635900000000 1.9564356199999999 2.0240177799999999 O
atom 0.2822759300000000 1.8299044600000001 7.0344658500000001 O
atom 0.3668507100000000 7.0969784499999999 1.9405647300000000 O
atom 0.3476915700000000 7.0528789300000003 6.9210214499999996 O
atom 5.1758968799999998 1.8246020599999999 2.0659809299999998 O
atom 5.3081922900000000 1.8981571200000000 6.9471191299999999 O
atom 5.3782612299999997 7.1096571700000002 1.9618951600000001 O
atom 5.3353557000000000 7.0961193600000003 6.9633106800000002 O
atom 0.3522759100000000 0.6748835100000000 4.5003827200000002 O
atom 0.3387614900000000 5.8511170100000003 4.4507613099999999 O
atom 0.3603747500000000 5.7969890599999996 9.4388700399999994 O
atom 5.3397042900000002 0.6489234900000000 4.5107076900000003 O
atom 5.2441027900000003 0.7105534200000000 9.5104906600000003 O
atom 5.3503781899999998 5.8858709500000002 4.4313390999999998 O
atom 5.3036264500000003 5.9644071600000004 9.5194328600000002 O
atom 4.6379087500000002 4.5044269300000002 1.9038845700000000 O
atom 4.6476939599999998 4.5001943700000000 6.9562932200000001 O
atom 4.6423785600000000 9.6525540599999999 1.9532839099999999 O
atom 4.6117972600000003 9.7148407100000007 6.9572494699999998 O
atom 9.5908425099999999 4.5051747899999999 1.9551763099999999 O
atom 9.6502771700000007 4.4096993600000003 7.0095236099999996 O
atom 9.9150019599999997 9.7401422699999998 1.8238513500000000 O
atom 9.7090190500000002 9.5819168599999998 6.7604594899999997 O
atom 4.6623597200000004 3.2897020499999998 4.4418321000000001 O
atom 4.6525785400000004 3.3480779100000002 9.4635163400000000 O
atom 4.6599668400000001 8.4831763999999996 4.4572321400000003 O
atom 4.5551115099999997 8.5254363699999995 9.4384673499999998 O
atom 9.6088784799999996 3.2478850900000000 4.4899671899999998 O
atom 9.5965238500000005 3.0338022900000001 9.4798253500000005 O
atom 9.5913558400000003 8.4315956300000003 4.3469380800000001 O
atom 9.6625507899999992 8.3399938000000002 9.5038883100000007 O
atom 2.3902778100000002 0.8283308400000000 2.3839791300000002 O
atom 2.7515931999999999 1.2530179500000000 7.4156823599999999 O
atom 2.6960947100000001 6.3302303000000002 2.4630316200000002 O
atom 2.6967207900000001 6.3951593300000003 7.4659811100000004 O
atom 7.6032923300000004 1.1357250600000000 2.5113113999999999 O
atom 7.5787842899999998 1.2710653500000000 7.4788511099999999 O
atom 7.6815994300000003 6.3771408899999997 2.4923498899999998 O
atom 7.6752263500000000 6.3967183099999998 7.5248016199999999 O
atom 2.7269859900000002 1.3707044799999999 4.8800164800000001 O
atom 2.6631550399999999 1.4866122399999999 9.9053837399999995 O
atom 2.7129219700000000 6.5522338099999997 4.9869372399999996 O
atom 2.6466080600000002 6.6338898200000003 9.9780028699999992 O
atom 7.6968126799999999 1.3174530900000001 4.9999204199999996 O
atom 7.4939789200000000 1.4513111999999999 10.1124015899999993 O
atom 7.6828047100000001 6.5459003999999998 4.9930396000000004 O
atom 7.6851101999999996 6.5563244699999998 10.0099436199999996 O
atom 2.2896819499999999 3.9670378500000001 4.9360405500000004 O
atom 2.3237070100000001 4.0509139000000003 9.9558274900000008 O
atom 2.3124584200000000 9.1560237200000003 4.9827327500000003 O
atom 2.1948330600000001 9.3781080800000005 10.1993917500000002 O
atom 7.2669021100000002 3.9357854099999998 5.0132199499999999 O
atom 7.2849855000000003 4.0012521000000003 9.9933189099999993 O
atom 7.2902900800000001 9.1736889999999995 4.9678371300000004 O
atom 7.2166043599999998 9.1101273799999998 10.0511414000000006 O
atom 2.3258773399999999 3.6882450599999999 2.4298018099999998 O
atom 2.3300619600000001 3.8271620899999998 7.4414542299999997 O
atom 2.3399096300000002 8.8327294799999994 2.5066237700000000 O
atom 2.3020901500000002 9.0000136499999996 7.5584959200000004 O
atom 7.2272215800000001 3.7784330800000001 2.5088067600000001 O
atom 7.2634609299999999 3.8246296399999999 7.5023392299999996 O
atom 7.4141200500000002 8.9953903299999993 2.4750276800000002 O
atom 7.2827441400000001 8.9991375900000001 7.4586464699999997 O
