lattice_vector 9.9616847300000000 -0.0715925700000000 -0.1196990900000000 
lattice_vector 0.0007521100000000 10.1787184800000006 0.0156134600000000 
lattice_vector -0.1182111100000000 0.0203831700000000 10.4601166400000007 
atom 0.9912002900000000 0.6143769500000000 2.1513056599999998 Si
atom 1.2725404700000000 0.2152505400000000 6.8941049999999997 Hf
atom 1.3501905300000001 5.2698848099999998 1.7845042400000000 Hf
atom 1.2773376700000001 5.3209145800000002 7.0528695700000004 Hf
atom 1.1534737399999999 2.5312535500000002 4.6462176499999996 Si
atom 1.3197436800000000 2.3129568699999998 9.5774585200000004 Hf
atom 1.3248926500000000 7.3707269000000002 4.4115113199999998 Hf
atom 1.3376899200000001 7.4660708900000001 9.6359914799999995 Hf
atom 3.4988822800000001 2.6275666300000000 1.7322907800000000 Hf
atom 3.4865734100000001 2.7317509000000002 6.9479323600000003 Hf
atom 3.5459653100000001 7.8592963400000002 1.7375772199999999 Hf
atom 3.5050285300000001 7.8387852499999999 6.9785271900000003 Hf
atom 3.4876038500000002 4.7529124100000004 4.3582159599999999 Hf
atom 3.4946887000000002 4.8361893399999998 9.6362954599999995 Hf
atom 3.4477627000000002 9.9301461000000000 4.2712013500000001 Hf
atom 3.4842758100000002 9.9523592999999995 9.5954128700000005 Hf
atom 6.3804257700000004 0.1602735100000000 0.7363462500000000 Hf
atom 6.2386197200000000 0.1736579600000000 5.9566929999999996 Hf
atom 6.3495838200000003 5.2569665099999998 0.7778327200000000 Hf
atom 6.2656916000000002 5.2863612699999996 5.9874274900000000 Hf
atom 6.2951516500000002 2.2816075699999998 3.3409134200000001 Hf
atom 6.2547579400000002 2.3024837400000000 8.5907983899999998 Hf
atom 6.3036007100000004 7.3629176799999998 3.3567711700000000 Hf
atom 6.2695859000000000 7.3969942700000004 8.6228525200000004 Hf
atom 8.5892049200000002 2.6913949499999998 0.7550586900000000 Hf
atom 8.4642535900000002 2.7323032899999999 5.9989059899999999 Hf
atom 8.6612879800000009 7.8219829399999998 0.7695365800000000 Hf
atom 8.4846351799999997 7.7932765699999997 5.9913485900000003 Hf
atom 8.5393076099999998 4.8078970300000003 3.3729141100000000 Hf
atom 8.4902127000000007 4.8324196900000000 8.6313546799999994 Hf
atom 8.5500568999999995 9.9513785299999995 3.4562412500000002 Hf
atom 8.4864327100000008 9.9355650799999999 8.5954493900000006 Hf
atom 0.5024306800000000 1.6706101499999999 0.9813357400000000 O
atom 0.3020727300000000 1.8029372100000001 6.0469235699999997 O
atom 0.3782552700000000 6.8086502400000004 0.9479535500000000 O
atom 0.2449384200000000 6.8029135600000004 6.1720634900000002 O
atom 0.3971292900000000 1.1599614300000001 3.6157810600000002 O
atom 0.2486329300000000 0.8923814900000000 8.6676198400000004 O
atom 0.2952768200000000 5.9235597999999996 3.5162439000000001 O
atom 0.2469924500000000 5.9549228000000003 8.7799349200000005 O
atom 4.6582559799999999 4.1219450200000001 0.8029858400000000 O
atom 4.5475433000000001 4.1834628399999998 6.0230933100000001 O
atom 4.7298603799999999 9.2253592399999995 0.7706219100000000 O
atom 4.5365510499999999 9.2821721900000007 5.9756721099999996 O
atom 4.5950277200000000 3.3816118500000001 3.3735858599999999 O
atom 4.5561383800000002 3.3951553699999999 8.6085531100000008 O
atom 4.6861890600000002 8.5567694900000006 3.3568450799999998 O
atom 4.5781811599999997 8.4994617899999998 8.6161410099999998 O
atom 2.6020753600000002 0.8286891100000000 2.5016992000000000 O
atom 2.6616694500000002 1.1995292399999999 8.0662465300000008 O
atom 2.7490671299999998 6.1561938899999999 3.0258337300000000 O
atom 2.6766168100000001 6.3411746999999998 8.2928785800000000 O
atom 3.0177767700000002 1.4839440699999999 0.0810445900000000 O
atom 2.5225853499999999 1.4298745300000000 5.2794735900000003 O
atom 2.7548449900000000 6.3186792799999996 0.4386191300000000 O
atom 2.6703279800000002 6.3254704899999998 5.6727344899999999 O
atom 2.0492363899999999 3.4076203399999998 3.2636460700000001 O
atom 2.1319920500000000 3.7785829500000001 8.3072150899999997 O
atom 2.2184542899999999 8.6558212000000001 3.1401386200000001 O
atom 2.1073263999999998 8.8818653399999992 8.2402074499999998 O
atom 2.1876215600000002 3.8312194000000002 0.5238239200000000 O
atom 2.0060295899999998 3.7861289500000002 5.6767252199999998 O
atom 2.3475052800000000 8.8650137499999992 0.3667657000000000 O
atom 2.1337083099999998 8.9510922599999994 5.6701739199999999 O
atom 5.2886206600000003 1.6074851200000000 1.6684532100000000 O
atom 5.1962131800000000 1.6506285999999999 6.8755527599999997 O
atom 5.2865909799999997 6.7191747599999996 1.6857154000000001 O
atom 5.2216022500000001 6.7374560900000002 6.9175786199999996 O
atom 5.1977267800000000 0.8511612800000000 4.2634077599999998 O
atom 5.2831728499999997 0.7963532900000000 9.4801595499999998 O
atom 5.2231994500000001 5.9141999199999997 4.2970394399999998 O
atom 5.2136826200000002 5.9204394300000001 9.5361622799999992 O
atom 9.5951050000000002 4.1465963900000000 1.6860433699999999 O
atom 9.5259486800000008 4.1668947699999999 6.9389693200000000 O
atom 9.8655377899999994 9.4843390000000003 1.8205644800000000 O
atom 9.5087532899999996 9.3030627199999998 6.8634304699999999 O
atom 9.6513534199999995 3.3689346200000001 4.3326633200000000 O
atom 9.5507440599999995 3.3428622200000002 9.5602691899999996 O
atom 9.5904589300000005 8.4581852200000007 4.2951487500000001 O
atom 9.5648301300000007 8.4904744300000008 9.5500937100000005 O
atom 7.6943777999999998 1.2183044100000000 9.9189123099999996 O
atom 7.6671619499999997 1.2162754099999999 4.6900269600000000 O
atom 7.6692337899999998 6.3396937199999996 9.9781863299999998 O
atom 7.6734734199999997 6.2973744500000004 4.7033127900000000 O
atom 7.7550057099999998 1.2463474299999999 2.0882411200000002 O
atom 7.6403129700000001 1.2606864700000000 7.2901061699999996 O
atom 7.7411200300000003 6.3281496900000000 2.0946631400000002 O
atom 7.6535475699999997 6.3416701700000004 7.3367168800000000 O
atom 7.1128352300000000 3.7623182399999999 9.9390121699999998 O
atom 7.1671571600000004 3.7580029800000001 4.6936764999999996 O
atom 7.1421544199999998 8.8570937700000005 9.9437420599999999 O
atom 7.1497049600000002 8.8679617499999992 4.6933182799999997 O
atom 7.1869887099999996 3.7662988999999998 2.0737517200000002 O
atom 7.0991901799999999 3.8089866699999999 7.3105641800000001 O
atom 7.3603986099999998 8.8861872599999998 2.0971410700000002 O
atom 7.1056616500000001 8.8861401400000002 7.3124242199999996 O
