lattice_vector 10.1922946099999994 0.0855025800000000 0.5159748700000000 
lattice_vector 0.0105835400000000 10.1782112300000005 0.1018269900000000 
lattice_vector 0.7986835200000000 0.0712974800000000 10.4753711599999999 
atom 1.1249197399999999 0.2874517700000000 2.1581716900000001 Si
atom 1.9238091100000001 0.2801571800000000 6.8616286700000000 Hf
atom 1.5208114699999999 5.3152912900000002 1.6925553600000001 Hf
atom 1.9651866499999999 5.3829432400000004 6.9179523400000003 Hf
atom 6.2740131899999998 0.0277285200000000 1.5768784000000000 La
atom 7.0038632600000001 0.3215736400000000 7.0792422699999999 Hf
atom 6.7055106300000000 5.2602438800000000 1.8446991699999999 Hf
atom 7.0311849400000002 5.4079272500000002 7.1165860199999997 Hf
atom 1.6487084999999999 2.4665140499999998 4.3053343499999999 Hf
atom 2.3334404800000002 2.2658797000000002 9.5675746600000000 Hf
atom 1.6320771999999999 7.5362276799999997 4.2856843500000004 Hf
atom 2.2371162000000000 7.5250278300000000 9.4981327199999992 Hf
atom 6.6390323000000002 2.4416216099999999 4.4326113200000004 Hf
atom 7.3262901800000000 2.6034509400000001 9.5139597299999998 Hf
atom 6.7279436400000003 7.5328822899999999 4.5213749900000000 Hf
atom 7.3880890199999998 7.4828894899999998 9.7268655800000001 Hf
atom 3.7111303599999999 2.7321369400000002 1.5417407800000000 Hf
atom 4.1767905000000001 2.8389926700000001 6.5982057100000002 Hf
atom 3.8655390700000001 7.6934972400000001 1.2038175600000001 Hf
atom 4.1855187200000001 7.9575107300000001 6.5979391700000001 Hf
atom 9.0451327300000006 2.5241622499999998 1.7163911800000000 La
atom 9.2729905800000001 2.9053537899999999 6.7545078199999997 Hf
atom 9.0058162999999993 7.9138099400000002 1.6127344200000000 Hf
atom 9.2724874899999996 7.9765150299999998 6.8466561300000004 Hf
atom 3.9996476200000002 5.0541953499999996 3.9752100800000001 Hf
atom 4.5088119500000001 4.8612302600000001 9.2675748700000007 Hf
atom 3.7699138500000000 10.1081634200000003 3.9866076100000001 Hf
atom 4.5012867900000000 10.0385112099999994 9.2804947200000001 Hf
atom 9.0178996100000006 5.0505182199999998 4.1896744100000003 Hf
atom 9.6667667799999997 4.9293143900000000 9.4840283900000006 Hf
atom 8.8227106099999997 10.0766062299999994 4.2921478200000003 Hf
atom 9.5480819900000000 10.0973842499999993 9.4447189399999996 Hf
atom 0.8721874800000000 1.2008461200000000 0.7869671499999999 O
atom 0.7288810400000000 1.6510847099999999 5.9739411499999999 O
atom 0.5474253200000000 6.8424857899999996 0.8735995400000000 O
atom 0.8068875599999999 6.8160685399999998 6.1025360700000002 O
atom 5.7188327100000000 1.5516651600000000 6.0939364700000000 O
atom 5.5802700200000004 6.6651406599999996 0.9541305900000000 O
atom 5.8067082900000004 6.7379028999999999 6.2606406200000002 O
atom 0.2344087500000000 1.1407825199999999 3.3282404400000001 O
atom 1.0376965000000000 0.9816228000000000 8.6319949000000005 O
atom 0.5741279300000000 6.0602801399999997 3.4935545399999999 O
atom 1.0925375100000001 6.0226075400000001 8.7245041099999998 O
atom 5.0309970599999998 1.4997113000000000 3.1483894100000001 O
atom 6.1707430199999997 1.0779556400000001 8.8520294800000006 O
atom 5.6407747300000004 6.1741430700000004 3.5863978699999999 O
atom 6.1201851899999999 6.0958642400000000 8.9082372000000003 O
atom 4.9338779600000002 4.2070976900000003 2.2197874999999998 O
atom 5.5107340599999999 4.0449068300000004 7.5702693900000000 O
atom 4.5167537299999996 9.0704176000000007 2.4391654900000002 O
atom 5.4173015500000004 9.2443978399999995 7.5597416400000004 O
atom 10.0149131699999998 4.4217236499999997 2.4346407999999999 O
atom 10.4884884199999995 4.3039214899999996 7.6321976800000000 O
atom 9.9364643099999999 9.5384101399999999 2.4977446599999999 O
atom 10.4366161599999998 9.4154858699999995 7.6659789299999996 O
atom 5.1057046399999999 3.7108940900000000 4.9276408700000003 O
atom 5.6456355800000004 3.4617886800000002 10.2656235400000000 O
atom 5.1328570300000003 8.8230398000000001 4.8879532899999996 O
atom 5.8707205900000003 8.8522060000000007 10.2587368899999998 O
atom 10.1768922199999992 3.6380604900000000 5.0202246400000003 O
atom 10.8467701600000002 3.5104530399999998 10.2366301300000000 O
atom 10.0992681900000001 8.6842613300000000 5.0646342899999999 O
atom 10.7608965699999999 8.7126333099999993 10.2811084499999996 O
atom 2.5228961499999998 1.3355491799999999 2.6811429800000002 O
atom 3.4397334800000001 1.3382425499999999 7.9359264300000003 O
atom 2.9335185400000001 6.5737621600000002 2.7222557100000002 O
atom 3.4864461699999998 6.4480853700000003 7.9526525399999999 O
atom 7.6294103099999999 1.2300612700000000 3.0806754500000002 O
atom 8.5268057099999996 1.4392196300000000 8.0363306800000007 O
atom 8.0927549899999995 6.4438792200000004 2.8932400899999999 O
atom 8.5275132899999999 6.4902210299999998 8.1637681999999998 O
atom 3.1203355199999998 1.3621401799999999 5.3215039400000004 O
atom 4.1216727999999998 1.3879965299999999 10.5152991700000005 O
atom 3.1738762299999999 6.4423761600000002 5.3260009899999998 O
atom 3.6461197900000002 6.2598612400000002 10.5607868699999994 O
atom 8.1740958199999998 1.3965727600000000 5.5274282000000001 O
atom 8.5022703300000000 1.3437340099999999 10.5737304600000002 O
atom 8.2431777400000001 6.4770626399999998 5.5598491900000004 O
atom 8.8455424800000007 6.4114279300000003 10.7920899699999993 O
atom 2.3457815599999998 3.7638469699999999 0.4117298800000000 O
atom 2.6786837700000001 3.9214597200000001 5.5779809399999998 O
atom 2.5726056499999999 8.8065747699999992 0.1442525100000000 O
atom 2.6801682599999999 9.0353587500000003 5.5346641700000001 O
atom 7.4364969299999997 3.8985858599999998 0.4305938700000000 O
atom 7.7516783900000004 3.9657547700000002 5.7456589899999999 O
atom 7.6481410199999997 8.8577122500000005 0.4311401300000000 O
atom 7.7265517299999997 9.0544626800000003 5.8143717500000003 O
atom 2.5557784099999998 3.8742659399999999 2.9923441400000002 O
atom 3.0549007700000002 3.8228280300000002 8.2020637399999998 O
atom 2.0300005799999998 9.2211692400000000 3.0156435199999998 O
atom 2.9653746200000000 8.9480939999999993 8.1106842700000001 O
atom 7.5426267999999999 3.8829455799999999 3.2197698799999999 O
atom 8.1584051800000008 3.9465683899999999 8.3051063999999997 O
atom 7.6015867200000002 8.8290151500000000 3.1542345200000002 O
atom 8.0731568199999995 8.9886053900000000 8.3809585500000008 O
