lattice_vector 10.0247949100000007 -0.0755812100000000 0.0952267500000000 
lattice_vector -0.0110181400000000 10.4116637099999991 0.0050193900000000 
lattice_vector 0.0415741200000000 -0.0590445900000000 10.0211578800000005 
atom 1.0264390600000000 0.5599971400000000 1.1997019499999999 Si
atom 1.3504981500000000 0.1418134600000000 6.2729582199999996 Hf
atom 1.3535606099999999 5.3340667699999997 1.3524139600000000 Hf
atom 1.3774614000000001 5.3368399799999997 6.2706415900000003 Hf
atom 6.5715565199999997 0.0576169400000000 1.5590655000000000 Hf
atom 6.3437556400000004 0.0330010600000000 6.2250621300000004 Hf
atom 6.3981629000000000 5.3989116099999999 1.3742602500000001 Hf
atom 6.4023950799999998 5.3244276099999999 6.3254479799999999 Hf
atom 1.3515717199999999 2.4080695699999999 3.7888178799999999 Hf
atom 1.3578448800000000 2.4048196800000001 8.8038317399999997 Hf
atom 1.4139311000000001 7.5967252500000004 3.8059825300000001 Hf
atom 1.3334319800000001 7.5065669000000002 8.8622031999999997 Hf
atom 6.4183676900000002 2.3735566499999998 3.8401940200000002 Hf
atom 6.2711543599999997 2.4710627700000001 8.7651200599999992 La
atom 6.4285684600000002 7.5744683100000003 3.8628961099999999 Hf
atom 6.3698193099999996 7.5437487799999996 8.8554552300000005 Hf
atom 3.6813322199999998 2.5708842600000001 1.3793612900000001 La
atom 3.6734353799999999 2.7186451400000000 6.2934784300000004 Hf
atom 3.6962334000000001 7.9015562199999998 1.2610073900000001 Hf
atom 3.7303589200000000 7.9364223200000001 6.3174225200000000 Hf
atom 8.6200924299999997 2.7435528400000000 1.2909933099999999 Hf
atom 8.7299276900000002 2.6617882200000000 6.3416382100000002 Hf
atom 8.8101447900000007 7.9168235899999999 1.3021689800000000 Hf
atom 8.7414782700000000 7.8905476900000000 6.3887960799999997 Hf
atom 3.7097232500000001 5.0015777999999997 3.7988587500000000 Hf
atom 3.6094317400000002 4.9238762300000003 8.7987946400000006 Hf
atom 3.6411567200000001 10.1543463200000001 3.7299747800000000 Hf
atom 3.3703410499999999 10.0004819299999994 8.8313150999999994 Hf
atom 8.7153581100000004 4.9544272800000000 3.8481458599999998 Hf
atom 8.7372596300000005 4.9762202000000002 8.8280694099999995 Hf
atom 8.8042331699999998 10.1731004600000006 3.9074891200000001 Hf
atom 8.6324498999999992 10.1451368300000002 8.8600743600000005 Hf
atom 0.4005945800000000 2.0216941700000000 1.8113979800000000 O
atom 0.3595950700000000 1.8652585200000000 7.0261308900000001 O
atom 0.4016049300000000 7.1412615800000001 1.9868621200000001 O
atom 0.3712662900000000 7.0569323500000003 7.0044609299999996 O
atom 5.7536640900000000 1.9036858699999999 1.8696156900000001 O
atom 5.3925094299999996 1.7833819600000000 6.6285018800000000 O
atom 5.4576759900000003 7.2139860200000001 2.0205080400000002 O
atom 5.3829931599999998 7.0388469999999996 7.0356792600000002 O
atom 0.3684557500000000 0.7335396700000000 4.5729262999999998 O
atom 0.2262563500000000 0.6593031300000000 9.6734082899999994 O
atom 0.4184378800000000 5.8438087599999999 4.4480142899999997 O
atom 0.3322762800000000 5.8703601900000004 9.5713293200000003 O
atom 5.5026975499999997 0.5298962500000000 4.2280680700000000 O
atom 5.4271465699999997 5.8653724399999998 4.5120273900000001 O
atom 5.3758893900000002 5.7419369900000001 9.5201414000000000 O
atom 4.7167521199999998 4.5984019700000003 2.0248810100000001 O
atom 4.7178182700000004 4.4119206899999996 6.9984662499999999 O
atom 4.6549494700000000 9.8491214800000009 1.8306942100000001 O
atom 4.6478548200000001 9.6849874299999996 7.1212225900000004 O
atom 9.6475878999999996 4.4238183900000001 2.0493610400000000 O
atom 9.7274329300000009 4.4126126599999997 7.0334826599999998 O
atom 9.9781484599999999 9.7712577100000004 2.0108815600000001 O
atom 9.7008003499999997 9.6156278600000000 7.0828028400000003 O
atom 4.6520718299999997 3.2003311800000001 4.3755549699999996 O
atom 4.1527828299999996 2.9247860000000001 9.1305719199999995 O
atom 4.7664918700000003 8.5031525600000002 4.6044330400000000 O
atom 4.6901794499999996 8.5524863799999995 9.4810326600000003 O
atom 9.6915152500000001 3.1872932899999999 4.5488737300000004 O
atom 9.6095452600000009 3.1402976499999999 9.4596002899999991 O
atom 9.7644989199999994 8.4284016000000008 4.5921723700000001 O
atom 9.6394797800000003 8.3869111800000002 9.5034650599999999 O
atom 2.2613263600000000 0.8356057400000000 2.5301835000000001 O
atom 2.6911694200000000 1.1439742500000001 7.5509456300000002 O
atom 2.7447309999999998 6.3232983599999999 2.5299925999999999 O
atom 2.7224252199999999 6.3669994200000000 7.5595544300000004 O
atom 7.9692262500000002 1.1825784100000001 2.6438424800000000 O
atom 7.7222968900000000 1.0414028900000001 7.5123480200000001 O
atom 7.7819459300000000 6.3918274200000003 2.6020206300000002 O
atom 7.7342992700000002 6.3687242700000004 7.6073583400000002 O
atom 2.7811811899999999 1.3397043200000001 4.9665387699999997 O
atom 2.4257678500000002 1.0278760600000001 10.1045084000000003 O
atom 2.7753981300000001 6.5584371900000002 5.0506813399999997 O
atom 2.7554194900000000 6.4425961100000002 10.0598120200000007 O
atom 7.7613515599999996 1.2781272400000001 5.0737925900000000 O
atom 7.6480232299999997 1.1389624300000001 10.1471737599999994 O
atom 7.7799676099999999 6.5113585699999996 5.1021548000000001 O
atom 7.7426940599999998 6.5622120300000004 10.1080683300000000 O
atom 2.3596304600000000 3.9233431400000001 5.0613658199999998 O
atom 2.1515988699999999 3.9426315600000001 10.0351128000000003 O
atom 2.3471440499999998 9.1599442700000004 5.0886076500000001 O
atom 2.2345540599999998 8.9327248800000003 10.1093086200000002 O
atom 7.3465005600000000 3.9039393300000000 5.0661121800000002 O
atom 7.4407630500000002 4.0218603399999999 10.1494106800000008 O
atom 7.4138630100000000 9.0898497599999999 5.0746531900000003 O
atom 7.2806577900000002 9.1014187100000008 10.1153014500000005 O
atom 2.2168126099999999 3.8621095200000002 2.6321275700000002 O
atom 2.2574028600000000 3.7984663500000000 7.5119004399999998 O
atom 2.6206851499999999 8.7396804199999991 2.6820860700000000 O
atom 2.2524258499999998 8.9488669600000001 7.5666750800000004 O
atom 7.3405321099999998 3.8044017900000000 2.5967653400000001 O
atom 7.4371029899999996 3.8461019799999998 7.4920755999999997 O
atom 7.5474921400000001 8.9682480600000005 2.6132871099999999 O
atom 7.3119597100000000 8.9125445200000009 7.5855334299999999 O
