lattice_vector 10.0908669999999994 -0.0067750000000000 -0.0058300000000000 
lattice_vector 0.0133100000000000 10.2703600000000002 0.0176170000000000 
lattice_vector 0.0084680000000000 -0.0090500000000000 10.0786560000000005 
atom 1.2705160000000000 0.0009050000000000 1.2627969999999999 La
atom 1.2749470000000001 -0.0040090000000000 6.3022200000000002 La
atom 1.2767080000000000 5.1358530000000000 1.2713110000000001 Hf
atom 1.2810870000000001 5.1313940000000002 6.3101849999999997 Hf
atom 6.3161310000000004 -0.0023870000000000 1.2591770000000000 Hf
atom 6.3200500000000002 -0.0071590000000000 6.2984650000000002 Hf
atom 6.3217429999999997 5.1317649999999997 1.2676289999999999 Hf
atom 6.3261779999999996 5.1269840000000002 6.3066870000000002 Hf
atom 1.2774430000000001 2.6347870000000002 3.7877790000000000 Hf
atom 1.2817210000000001 2.6301049999999999 8.8272440000000003 Hf
atom 1.2846040000000001 7.6330809999999998 3.7961250000000000 Hf
atom 1.2882060000000000 7.6279529999999998 8.8357679999999998 Hf
atom 6.3233300000000003 2.5504690000000001 3.7841399999999998 Hf
atom 6.3273750000000000 2.5458360000000000 8.8233210000000000 Hf
atom 6.3297499999999998 7.7101210000000000 3.7936190000000001 Hf
atom 6.3341209999999997 7.7049849999999998 8.8331020000000002 Hf
atom 3.8193959999999998 2.5946280000000002 1.2510600000000001 Hf
atom 3.8236270000000001 2.5901160000000001 6.2906440000000003 Hf
atom 3.8266969999999998 7.6739819999999996 1.2906219999999999 Hf
atom 3.8310179999999998 7.6688559999999999 6.3299560000000001 Hf
atom 8.8218879999999995 2.5924299999999998 1.2789990000000000 Hf
atom 8.8262119999999999 2.5878079999999999 6.3183990000000003 Hf
atom 8.8280689999999993 7.6700980000000003 1.2570490000000001 Hf
atom 8.8323879999999999 7.6650190000000000 6.2965249999999999 Hf
atom 3.8340749999999999 -0.0031720000000000 3.7805499999999999 Hf
atom 3.8382980000000000 -0.0081520000000000 8.8198039999999995 Hf
atom 3.8134610000000002 5.1317950000000003 3.7886479999999998 Hf
atom 3.8174320000000002 5.1273600000000004 8.8276620000000001 Hf
atom 8.8017120000000002 -0.0074370000000000 3.7774999999999999 Hf
atom 8.8057940000000006 -0.0116500000000000 8.8164840000000009 Hf
atom 8.8350460000000002 5.1291110000000000 3.7861500000000001 Hf
atom 8.8390450000000005 5.1241190000000003 8.8257139999999996 Hf
atom -0.0084150000000000 1.5853889999999999 0.0182230000000000 O
atom -0.0041310000000000 1.5807540000000000 5.0577860000000001 O
atom 0.0696020000000000 6.6131640000000003 0.1081830000000000 O
atom 0.0749890000000000 6.6087840000000000 5.1479889999999999 O
atom 5.1572690000000003 1.5352539999999999 0.0903070000000000 O
atom 5.1612859999999996 1.5307329999999999 5.1296480000000004 O
atom 5.1052840000000002 6.6469259999999997 0.0222740000000000 O
atom 5.1100870000000000 6.6424170000000000 5.0613370000000000 O
atom -0.1318610000000000 1.2056910000000001 2.6577480000000002 O
atom -0.1274780000000000 1.2012700000000001 7.6967879999999997 O
atom 0.0102460000000000 6.1761939999999997 2.6026189999999998 O
atom 0.0144130000000000 6.1713009999999997 7.6420880000000002 O
atom 5.0440519999999998 1.0378579999999999 2.5633800000000000 O
atom 5.0481059999999998 1.0331300000000001 7.6027269999999998 O
atom 5.0285909999999996 6.1771459999999996 2.5252249999999998 O
atom 5.0331820000000000 6.1724899999999998 7.5646129999999996 O
atom 0.0682140000000000 3.6606529999999999 2.4371290000000001 O
atom 0.0727280000000000 3.6562410000000001 7.4763089999999996 O
atom 0.0028350000000000 8.6885420000000000 2.5268430000000000 O
atom 0.0072440000000000 8.6839899999999997 7.5661759999999996 O
atom 5.1033049999999998 3.6192030000000002 2.5166719999999998 O
atom 5.1075770000000000 3.6146590000000001 7.5560260000000001 O
atom 5.1687589999999997 8.7313279999999995 2.4482800000000000 O
atom 5.1732030000000000 8.7263129999999993 7.4874970000000003 O
atom 0.0037420000000000 4.0983000000000001 -0.0562420000000000 O
atom 0.0082870000000000 4.0938929999999996 4.9829590000000001 O
atom -0.1234130000000000 9.0685649999999995 -0.1119160000000000 O
atom -0.1185130000000000 9.0640699999999992 4.9274459999999998 O
atom 5.0223319999999996 4.0898070000000004 0.0138170000000000 O
atom 5.0270919999999997 4.0854799999999996 5.0531940000000004 O
atom 5.0522530000000003 9.2291310000000006 -0.0240760000000000 O
atom 5.0571299999999999 9.2247679999999992 5.0149130000000000 O
atom 2.5532110000000001 1.5803400000000001 2.5130110000000001 O
atom 2.5574990000000000 1.5755900000000000 7.5524089999999999 O
atom 2.4885020000000000 6.6091860000000002 2.4391609999999999 O
atom 2.4928689999999998 6.6041960000000000 7.4787559999999997 O
atom 7.4788490000000003 1.5315160000000001 2.4329630000000000 O
atom 7.4834319999999996 1.5266810000000000 7.4724769999999996 O
atom 7.5453780000000004 6.6430040000000004 2.5212469999999998 O
atom 7.5495159999999997 6.6382170000000000 7.5605079999999996 O
atom 2.6771159999999998 1.2060010000000001 -0.1271000000000000 O
atom 2.6812459999999998 1.2017929999999999 4.9122450000000004 O
atom 2.5470890000000002 6.1756110000000000 -0.0563340000000000 O
atom 2.5523509999999998 6.1718620000000000 4.9831390000000004 O
atom 7.5908420000000003 1.0383180000000001 -0.0417640000000000 O
atom 7.5949580000000001 1.0337160000000001 4.9974020000000001 O
atom 7.6197569999999999 6.1776600000000004 0.0158650000000000 O
atom 7.6249330000000004 6.1731080000000000 5.0553869999999996 O
atom 2.4817570000000000 3.6602790000000001 0.1027710000000000 O
atom 2.4861260000000001 3.6559450000000000 5.1420890000000004 O
atom 2.5608759999999999 8.6887229999999995 0.0293170000000000 O
atom 2.5657779999999999 8.6844529999999995 5.0685570000000002 O
atom 7.5375470000000000 3.6199599999999998 0.0161770000000000 O
atom 7.5419479999999997 3.6156750000000000 5.0556219999999996 O
atom 7.4868100000000002 8.7318829999999998 0.1017760000000000 O
atom 7.4916559999999999 8.7271579999999993 5.1408810000000003 O
atom 2.5474939999999999 4.0936120000000003 2.5979930000000002 O
atom 2.5520980000000000 4.0884320000000001 7.6373629999999997 O
atom 2.6893009999999999 9.0637100000000004 2.6694580000000001 O
atom 2.6939020000000000 9.0586409999999997 7.7086709999999998 O
atom 7.6194050000000004 4.0856370000000002 2.5213019999999999 O
atom 7.6237640000000004 4.0808039999999997 7.5604950000000004 O
atom 7.6036820000000001 9.2251139999999996 2.5761919999999998 O
atom 7.6080110000000003 9.2202439999999992 7.6156249999999996 O
