lattice_vector 5.0196529099999996 -0.0175539200000000 0.0017072600000000 
lattice_vector -0.0097121100000000 10.3875343800000000 0.0066498700000000 
lattice_vector 0.0018317800000000 0.0009737000000000 10.0410806600000004 
atom 1.2207585800000000 -0.0363425500000000 1.2982660800000001 La
atom 1.3478396900000000 0.1805532800000000 6.2909839400000003 Hf
atom 1.3503189700000000 5.3642667299999998 1.2858676000000000 Hf
atom 1.3610609100000000 5.3388559999999998 6.3003991099999999 Hf
atom 1.3446814600000001 2.4525811300000000 3.7845379100000001 Hf
atom 1.3518375499999999 2.4180379799999998 8.7967280799999994 Hf
atom 1.3388217700000000 7.5672055599999997 3.8443510800000000 Hf
atom 1.3839079999999999 7.5830429400000003 8.7685364799999999 Hf
atom 3.6326697800000001 2.7449590499999998 1.2926841400000000 Hf
atom 3.6904316399999999 2.7668284000000001 6.2959293900000004 Hf
atom 3.7646368799999999 7.7879908899999997 1.1524101300000000 Hf
atom 3.7027847399999998 7.9455763800000003 6.2624777800000002 Hf
atom 3.6672484000000001 5.0053064599999999 3.7831057700000001 Hf
atom 3.6800498400000001 4.9677693800000000 8.8170265499999996 Hf
atom 3.6746707299999999 10.2805518500000002 3.8620525799999998 Hf
atom 3.6511771300000002 10.2061243699999995 8.7657361900000001 Hf
atom 0.2864699900000000 2.0020171200000001 2.0337419900000002 O
atom 0.3952471800000000 1.9366916000000001 6.9004185400000004 O
atom 0.5014609200000000 7.2373084800000003 1.9520914700000001 O
atom 0.3643397100000000 7.0973103799999997 6.9563987599999999 O
atom 0.3937302600000000 0.6752319800000000 4.4377841599999996 O
atom 0.3415248600000000 0.7238000500000000 9.2762987199999998 O
atom 0.3792629700000000 5.8613580900000004 4.4509724300000002 O
atom 0.2896248800000000 5.9518509499999999 9.5633628099999992 O
atom 4.6320037300000001 4.5666262700000004 1.9526916400000001 O
atom 4.6832130000000003 4.4967049599999998 7.0104448499999998 O
atom 4.0776602100000003 9.5955751199999995 2.0030651200000000 O
atom 4.6238634799999998 9.6992758200000004 6.9248443000000002 O
atom 4.6427255100000000 3.2886915800000001 4.4887250099999996 O
atom 4.6700963700000004 3.2838293099999998 9.5055663399999997 O
atom 4.6793788400000000 8.4735772399999991 4.4795057199999997 O
atom 4.8080275500000003 8.5484986299999992 9.5294167999999999 O
atom 2.7280452600000000 1.3116790700000001 2.6244968900000001 O
atom 2.7192101700000002 1.2206657800000000 7.5276265799999997 O
atom 2.7697678699999999 6.4505206199999998 2.5162330000000002 O
atom 2.7272290899999998 6.3937473000000002 7.5242958800000004 O
atom 2.6976145499999999 1.3807042899999999 5.0740327199999999 O
atom 2.7534671500000001 1.3685977400000000 10.0149719099999999 O
atom 2.7350940300000000 6.5407073799999997 5.0323818400000002 O
atom 2.6856407899999999 6.4673898000000003 10.0086917000000000 O
atom 2.3046255200000001 3.9697912000000000 5.0347682899999997 O
atom 2.2769890400000001 3.9571082799999999 10.0558737600000008 O
atom 2.2864031599999999 9.1589470199999994 4.9242796300000000 O
atom 2.4305234800000002 8.9709591399999997 9.9605501299999997 O
atom 2.2835851500000000 3.8662312299999999 2.5287922500000000 O
atom 2.3202746500000000 3.8157736199999999 7.5355313099999996 O
atom 2.2920584200000000 9.0037685700000001 7.4647807700000000 O
