lattice_vector 10.0743304400000007 0.0692392900000000 -0.0012269700000000 
lattice_vector 0.0481160600000000 10.2593516499999993 0.0584367300000000 
lattice_vector -0.0166431800000000 0.0017762000000000 10.4423128999999992 
atom 1.0528719600000001 0.2648140500000000 2.2098272300000001 Si
atom 1.3323300800000000 0.1823631500000000 6.9280132099999996 Hf
atom 1.4483935100000001 5.3599572200000001 1.7992591800000000 Hf
atom 1.4568312999999999 5.2835470899999999 7.0499449600000004 Hf
atom 1.3128356800000001 2.4630953299999998 4.3605947499999997 Hf
atom 1.5106130499999999 2.2643292399999999 9.6322773599999998 Hf
atom 1.3632350300000000 7.4759476800000000 4.4006910200000000 Hf
atom 1.4986694300000001 7.4911274800000003 9.6425305300000002 Hf
atom 3.6267561399999999 2.7819103400000000 1.7526064100000001 Hf
atom 3.8079840599999999 2.6167247699999998 6.8457032199999999 La
atom 3.6347674900000002 8.0066455899999998 1.7460423700000001 Hf
atom 3.6178294599999998 7.9079799099999999 7.0004569300000004 Hf
atom 3.6588694799999999 5.0069883500000003 4.3793325599999999 Hf
atom 3.6969024899999998 4.8670270799999997 9.6234954100000003 Hf
atom 3.5227579200000001 10.1286325900000005 4.3432253300000001 Hf
atom 3.7120985000000002 10.0624085000000001 9.6230068400000004 Hf
atom 6.4636788599999999 0.2536712000000000 0.8120676000000000 Hf
atom 6.3042505699999998 0.0976276300000000 6.2195922000000001 La
atom 6.4605157599999998 5.4139789199999999 0.8784631200000000 Hf
atom 6.4574826200000004 5.4313364599999998 6.0825442599999997 Hf
atom 6.4076852000000004 2.4149942599999998 3.4584839500000002 Hf
atom 6.6431192499999998 2.5240402199999998 8.9207775500000004 Hf
atom 6.4201540599999998 7.5375848100000002 3.4476787700000000 Hf
atom 6.4927834100000004 7.5050270699999997 8.7317954300000000 Hf
atom 8.8522623199999995 2.7659078699999999 0.9667916600000001 Hf
atom 8.6305713100000006 2.8395774700000000 6.1023424999999998 Hf
atom 8.7881087299999994 8.0018027400000005 0.8960202500000000 Hf
atom 8.7369969199999993 7.8884470499999999 6.1195929700000002 Hf
atom 8.6604680100000007 5.0005378599999997 3.4714678800000001 Hf
atom 8.7928858200000004 4.9666600699999996 8.7460190900000008 Hf
atom 8.6080653700000003 10.0931903900000002 3.5694440099999998 Hf
atom 8.7777972099999992 10.0952653100000003 8.7589485699999994 Hf
atom 0.5899472500000000 1.4874507600000000 1.0588534300000001 O
atom 0.2552376400000000 1.7329229799999999 6.1115869199999997 O
atom 0.4149684500000000 6.8613600699999999 0.9302125500000000 O
atom 0.3702190100000000 6.7730413299999999 6.1292448700000000 O
atom 0.2416203800000000 0.8393543800000000 3.5638774500000001 O
atom 0.3333281100000000 0.8567183900000001 8.7002562799999996 O
atom 0.3399021000000000 5.9610024800000003 3.5084415799999999 O
atom 0.4060949000000000 5.9600201700000000 8.7691566499999993 O
atom 4.7523036200000002 4.2967458000000001 0.9100139200000000 O
atom 4.7024363400000002 4.5101288300000002 6.1070232500000001 O
atom 4.8022257499999998 9.4705978200000001 0.8993462900000000 O
atom 4.2726816200000002 9.6804440100000004 6.2647538799999998 O
atom 4.6848206399999999 3.4955047399999999 3.4969432000000000 O
atom 4.8784799200000002 3.4197021500000000 8.7700985100000004 O
atom 4.6506927999999998 8.6437116199999995 3.5304750000000000 O
atom 4.7644446499999997 8.5703445899999995 8.7046965699999994 O
atom 2.4988352100000002 1.2688630299999999 2.8562801699999998 O
atom 2.7117976600000002 1.1343311300000001 8.2340957400000008 O
atom 2.7766174000000001 6.5213390999999996 3.0750061299999998 O
atom 2.8525011299999998 6.3641886899999998 8.3031273700000003 O
atom 3.1175467399999999 1.4857081999999999 0.2398178400000000 O
atom 2.5039833100000002 1.2372510299999999 5.4788825299999999 O
atom 2.8584523399999999 6.4096034700000004 0.4783543400000000 O
atom 2.7867404699999998 6.4494724300000001 5.6968461699999997 O
atom 2.2820957300000000 3.8902640900000001 3.0794641999999999 O
atom 2.3039722999999999 3.7963369899999999 8.3498654699999992 O
atom 2.0997289700000001 9.1640145400000002 2.9212757200000001 O
atom 2.2491161100000001 8.8978323199999991 8.2461742000000005 O
atom 2.2759220500000001 3.8857437899999998 0.4855625700000000 O
atom 2.2051588000000000 3.9158423600000001 5.6146662699999998 O
atom 2.4368844400000000 8.9547548599999995 0.3522841300000000 O
atom 2.1448008399999998 8.9567524699999996 5.5918932699999999 O
atom 5.4094557999999999 1.7445918499999999 1.7317022700000000 O
atom 5.3921083699999999 6.9380382200000001 1.7139389400000000 O
atom 5.4876705000000001 7.0649641599999997 6.8754373700000002 O
atom 5.1047709399999999 1.1140391300000001 4.4314712600000004 O
atom 5.5207017199999999 0.8517573899999999 9.3409548499999993 O
atom 5.4047327400000000 6.0567973300000002 4.3018770599999998 O
atom 5.4471437199999997 5.9618124300000002 9.5583403600000008 O
atom 9.8063599900000007 4.3078418999999997 1.7962625299999999 O
atom 9.7542721799999992 4.3029448700000001 7.0289660800000000 O
atom 9.8568120199999996 9.5489490499999992 1.8607679100000001 O
atom 9.7372522600000000 9.4816876800000003 6.9664584999999999 O
atom 9.6476592799999992 3.5004632500000001 4.3775021100000000 O
atom 9.8156060200000006 3.3992568799999998 9.6913863599999992 O
atom 9.7104315099999994 8.5830883399999998 4.3837737199999998 O
atom 9.8152088899999992 8.6207132699999995 9.6475528700000002 O
atom 7.9262453500000003 1.3059758699999999 10.1083086899999994 O
atom 7.7699157200000002 1.3491639400000000 4.7541259299999998 O
atom 7.8872938100000001 6.4640431600000001 10.0620499900000002 O
atom 7.8374263800000001 6.4445270099999998 4.7973054099999999 O
atom 7.8254049800000001 1.3396866100000000 2.1967204400000000 O
atom 7.7504621000000000 1.4582581999999999 7.5155038100000002 O
atom 7.8309493100000003 6.5053451799999999 2.1895650799999999 O
atom 7.8566949599999996 6.3917453200000001 7.4354612900000001 O
atom 7.4556948700000003 3.9032027700000000 10.1445198399999992 O
atom 7.2376705000000001 3.9000197100000000 4.8225108299999997 O
atom 7.3628130499999997 9.0063360499999998 10.0751023499999999 O
atom 7.3041796000000003 8.9231129300000003 4.8016829000000003 O
atom 7.3415343100000001 3.9041053600000000 2.2094905699999998 O
atom 7.2741851100000003 3.9121712500000001 7.4623611600000004 O
atom 7.3624519499999996 9.0694167900000000 2.2070297900000000 O
atom 7.5256173000000004 8.8752594200000008 7.5653334499999998 O
