lattice_vector 10.2614086100000002 -0.0224283300000000 0.7505425999999999 
lattice_vector 0.0166656700000000 5.1878271199999997 -0.0423030200000000 
lattice_vector 0.7276345100000000 0.0419321400000000 10.4111432300000004 
atom 1.3715052800000000 0.0651539000000000 1.4417976600000000 La
atom 1.8944504400000000 0.2665022200000000 6.7942907400000001 Hf
atom 6.7617611000000002 0.1885363900000000 2.0013202899999998 Hf
atom 6.9851421000000000 0.2380296500000000 7.2498868500000002 Hf
atom 1.5770896599999999 2.4623733400000001 4.0431535800000002 La
atom 2.1322053799999998 2.4635583099999998 9.3536835800000002 Hf
atom 6.8162543099999997 2.3985971600000000 4.6323968200000003 Hf
atom 7.2809661700000001 2.4083330599999999 9.7990081199999999 Hf
atom 3.8964296699999998 2.7438748600000000 1.2753781099999999 Hf
atom 4.1112959599999996 2.8331348699999999 6.4839382700000003 Hf
atom 8.9094759000000003 2.7691661200000000 1.7360411600000001 Hf
atom 9.2294831100000003 2.8037203599999998 6.9899303499999998 Hf
atom 4.0187140699999997 5.0361488999999997 3.8673511199999999 Hf
atom 4.3824230000000002 5.0004135400000003 9.0729096200000008 Hf
atom 8.9701720799999993 4.9923867700000004 4.3885263700000001 Hf
atom 9.5351174600000004 4.9842582499999999 9.5177962500000000 Hf
atom 0.5718240900000000 2.2427662300000000 1.0637100600000000 O
atom 0.7307964500000000 1.8313545600000001 6.2434396699999999 O
atom 5.6630840200000003 1.7135771900000001 1.1956264999999999 O
atom 5.8729678999999999 1.7569586500000001 6.4496728499999998 O
atom 0.5837757200000000 0.3622347800000000 3.7021864000000000 O
atom 1.0600645399999999 0.7870613700000000 8.8238113899999995 O
atom 5.7759433600000003 0.8502881200000000 3.8230580900000000 O
atom 6.1154856000000004 0.8895220500000000 9.0488482900000005 O
atom 5.0774768899999998 4.2840374600000004 2.0514666099999999 O
atom 5.2612694299999996 4.3572840399999997 7.2858682200000002 O
atom 9.4866937500000006 4.5883481200000000 2.3707692800000002 O
atom 10.3750600700000000 4.4004842899999996 7.6252324399999996 O
atom 5.0801284799999999 3.4507270900000000 4.6915193300000002 O
atom 5.5998122099999996 3.5172256900000001 9.8720748999999994 O
atom 9.7081578600000000 3.1943340400000002 4.9785974900000003 O
atom 10.5800023299999992 3.4069116699999999 10.2477081499999993 O
atom 3.1873680300000000 1.2898334800000000 2.6052795400000002 O
atom 3.3486133499999999 1.3775065200000001 7.8625803500000000 O
atom 8.1087401900000007 1.4102881700000001 3.1591264400000001 O
atom 8.4958580799999996 1.3499413000000000 8.3361538799999995 O
atom 3.2246108599999999 1.2743095300000000 5.3233967499999997 O
atom 3.6226397399999999 1.3215452200000000 10.3695605400000002 O
atom 8.2211741299999996 1.2280267300000001 5.7840641899999996 O
atom 8.7640826100000009 1.2691973200000000 10.9125100400000008 O
atom 2.5472721100000002 3.8165178100000001 0.0282013900000000 O
atom 2.7568285600000002 4.0622488499999996 5.4226935000000003 O
atom 7.4986580099999998 3.9077880399999998 0.5915377800000000 O
atom 7.6788781200000003 3.9388667700000002 5.9140361700000001 O
atom 2.8012061400000001 3.8507832999999998 2.6811535100000001 O
atom 2.8529441000000002 3.8810874800000001 7.9706788000000000 O
atom 7.4762411400000000 3.8501944799999999 3.2756500200000001 O
atom 8.0363533599999997 3.8727841500000002 8.4459341699999992 O
