lattice_vector 10.0857208099999998 0.1757036900000000 0.0944409100000000 
lattice_vector -0.1221603900000000 10.1522579700000009 -0.0222324500000000 
lattice_vector 0.1977648500000000 0.1078077200000000 10.1372093599999999 
atom 1.2017650700000000 -0.0529405900000000 1.1408847600000001 Si
atom 1.3802314099999999 0.0595043900000000 6.2138144600000000 Hf
atom 1.3253921099999999 5.0149585200000004 1.3043495500000000 Hf
atom 1.3116903700000000 5.0716480500000003 6.4985424199999997 Hf
atom 6.2686362300000003 0.1091088900000000 1.3269921400000000 Hf
atom 6.5211629300000000 0.1726944900000000 6.4213267800000002 Hf
atom 6.3636921600000003 5.1890802999999996 1.3712488800000000 Hf
atom 6.4177622200000002 5.1566063399999997 6.5554187199999996 Hf
atom 1.4797640200000000 2.7186750200000001 3.9614325899999998 Hf
atom 1.4644892899999999 2.6837700000000000 8.9601270999999993 Hf
atom 1.2189666500000000 7.8194417200000004 3.6001656400000002 Hf
atom 1.3443442900000000 7.6829484900000002 8.8076879600000009 Hf
atom 6.4932970299999999 2.7114113700000000 3.9208899300000000 Hf
atom 6.5526169599999999 2.6710258100000002 9.0303799999999992 Hf
atom 6.1630944500000000 7.8171961500000000 3.8142629200000000 Hf
atom 6.4671867599999997 7.8713274899999996 8.9936759500000001 Hf
atom 3.8672718700000002 2.6125030699999998 1.4577340100000000 Hf
atom 3.9896994600000002 2.7328319099999998 6.4978183300000003 Hf
atom 3.6780944400000002 7.7153481599999996 1.2281481700000001 Hf
atom 3.9089008500000002 7.8977927000000001 6.4497049000000004 Hf
atom 8.9113241999999993 2.6487627800000002 1.3472093900000000 Hf
atom 8.9898966500000004 2.7151122499999998 6.4432994600000004 Hf
atom 8.7368421499999993 7.7599356300000002 1.3291552000000000 Hf
atom 8.8679835499999999 7.7922588099999999 6.3454063200000004 La
atom 3.9600497600000000 0.2562914400000000 3.9735172400000001 Hf
atom 3.9463384900000000 0.1589046700000000 8.9032355899999995 Hf
atom 3.9398148300000000 5.1712622599999998 3.7706526400000002 Hf
atom 4.0531761299999998 5.1624291099999997 9.0161051200000006 Hf
atom 8.9193064500000006 0.1851444300000000 3.8411526999999999 Hf
atom 9.0854744200000006 0.2722680700000000 8.9373242899999994 Hf
atom 8.9149593500000002 5.3033035399999999 3.9030772599999999 La
atom 8.9483456399999994 5.3076770299999998 9.0149479299999999 Hf
atom -0.2626474100000000 1.5773165499999999 -0.3517760800000000 O
atom 0.1026441500000000 1.4139455500000000 4.7386937500000004 O
atom -0.2175883700000000 6.6290699599999998 -0.2107346000000000 O
atom 4.8641489699999996 1.5139208000000000 -0.0223124300000000 O
atom 5.1284593000000003 1.6353767600000000 5.0533201700000001 O
atom 4.9095786199999996 6.5920445100000000 -0.1021119500000000 O
atom 4.4619778500000002 6.8204691100000003 4.8261616900000002 O
atom 0.1556055500000000 0.8288992700000000 2.0718901199999999 O
atom 0.2239216400000000 1.2336526200000000 7.3529107700000003 O
atom 0.1298456500000000 6.2944753000000002 2.2483396899999999 O
atom 0.0320846600000000 6.1778430699999998 7.5947787699999996 O
atom 5.2520226699999997 1.3016178599999999 2.5661120600000000 O
atom 5.2699963099999998 1.2999412500000000 7.5643479700000000 O
atom 5.0866235399999997 6.3530793000000001 2.4253549799999998 O
atom 4.9166812100000001 6.2996240300000004 7.4599438400000002 O
atom 0.1590649200000000 3.4755223100000001 2.5677487399999999 O
atom 0.1942702500000000 3.7317190899999999 7.7485774599999999 O
atom -0.4506506800000000 8.5545845699999994 2.7725778299999999 O
atom 0.1699373800000000 8.9379581100000003 7.7332313099999999 O
atom 5.0787843900000000 3.7727903800000000 2.7542047799999998 O
atom 5.2541911800000003 3.7938409100000001 7.8515568399999998 O
atom 4.6390923099999997 8.9016378399999994 2.6934012699999998 O
atom 5.1314737299999997 8.8806485800000008 7.7861180100000000 O
atom 0.0067952300000000 4.0466455600000000 0.1235746100000000 O
atom 0.1667953600000000 3.8336212500000002 5.2947323199999996 O
atom 0.1058740600000000 9.1581999399999994 0.1489004400000000 O
atom 0.0941366500000000 9.1087121999999994 5.0201817499999999 O
atom 5.0631137600000002 4.0568180600000003 0.2277591900000000 O
atom 5.1124045599999999 4.1977744599999998 5.2726331300000000 O
atom 5.0203938499999996 9.1085566599999996 0.1501035600000000 O
atom 5.0878082400000002 9.2536958899999995 5.2426529700000000 O
atom 2.7691805899999999 1.5442496500000000 2.8454694800000002 O
atom 2.8920068900000002 1.7218000000000000 7.9611831500000001 O
atom 2.6280260300000000 6.5933776200000001 2.6941599500000000 O
atom 2.3755900300000001 6.8136466599999999 7.2326386400000002 O
atom 7.8363555700000003 1.6135212100000000 2.8120388300000001 O
atom 7.8286810600000001 1.5991762100000000 7.8661338699999996 O
atom 7.5153437500000004 6.7109784299999999 2.6175185200000000 O
atom 7.4891640600000002 6.5347123600000003 7.8601476100000003 O
atom 2.2314501799999999 0.8706389500000000 0.2216679400000000 O
atom 2.6537911500000000 1.4440264500000000 5.3736144899999996 O
atom 2.3905333099999999 6.1022615299999998 -0.0365696400000000 O
atom 0.6831872500000000 6.4189683300000002 4.9691516800000004 O
atom 7.4837141500000000 1.2406726699999999 0.2342919800000000 O
atom 7.7324991699999996 1.3626543099999999 5.3256437400000003 O
atom 7.4884627999999998 6.3181349999999998 0.1724993400000000 O
atom 7.1028149200000001 6.4819291100000003 5.1829247499999997 O
atom 2.5909276800000001 3.5247926000000001 0.0621400900000000 O
atom 2.6470151000000000 4.0640584100000003 5.0717226200000001 O
atom 2.7117998499999998 8.5111901900000007 -0.4428462000000000 O
atom 2.5760432999999998 8.9279363600000003 4.7599956099999998 O
atom 7.6118483499999998 3.7407843399999998 0.0124048900000000 O
atom 7.6092318399999996 3.8170981199999998 5.2061489900000000 O
atom 7.6480576100000004 8.8576869400000007 -0.0817683200000000 O
atom 7.5093672400000004 9.0613152100000001 4.8955360299999997 O
atom 2.6220696499999998 4.0559267900000000 2.5340295099999999 O
atom 2.7487979800000000 4.2020268400000003 7.6574603400000001 O
atom 2.0294356599999999 9.0583620499999995 2.0046462300000001 O
atom 2.7385895800000002 9.4237191100000004 7.3053274600000000 O
atom 7.5597181400000002 4.0150736100000000 2.4911107299999999 O
atom 7.7942282000000001 4.0878892200000001 7.6420109399999996 O
atom 7.2665227699999999 9.1666328700000008 2.4689708700000002 O
atom 7.5983506900000002 9.2746741600000000 7.6404265300000000 O
