lattice_vector 10.2008700000000001 -0.0292220000000000 0.8644290000000000 
lattice_vector -0.0277890000000000 10.3341980000000007 0.0058990000000000 
lattice_vector 0.8516049999999999 -0.0212950000000000 10.4622069999999994 
atom 1.4866539999999999 0.1130310000000000 1.5864760000000000 La
atom 1.9656819999999999 0.1756000000000000 6.8863380000000003 Hf
atom 1.5383720000000001 5.3795330000000003 1.6504730000000001 Hf
atom 1.9619160000000000 5.3577450000000004 6.8858480000000002 Hf
atom 6.6504570000000003 0.1865800000000000 2.0840459999999998 Hf
atom 7.0783699999999996 0.1874020000000000 7.3106850000000003 Hf
atom 6.6262990000000004 5.3382509999999996 2.0901860000000001 Hf
atom 6.9989830000000000 5.2542540000000004 7.2523160000000004 La
atom 1.7826610000000001 2.3473359999999999 4.2645379999999999 Hf
atom 2.1356410000000001 2.3625069999999999 9.4848999999999997 Hf
atom 1.7557710000000000 7.4991490000000001 4.2816760000000000 Hf
atom 2.1640880000000000 7.5088150000000002 9.4870180000000008 Hf
atom 6.8524330000000004 2.3374459999999999 4.6852669999999996 Hf
atom 7.2958220000000003 2.3065120000000001 9.9417890000000000 Hf
atom 6.7962290000000003 7.5254500000000002 4.6888980000000000 Hf
atom 7.2947699999999998 7.4889479999999997 9.9306000000000001 Hf
atom 3.7725719999999998 2.7726769999999998 1.4006040000000000 Hf
atom 4.1457499999999996 2.7235060000000000 6.6240300000000003 Hf
atom 3.8133349999999999 7.9165039999999998 1.4063319999999999 Hf
atom 4.1468179999999997 7.9716459999999998 6.6207570000000002 Hf
atom 8.8350709999999992 2.8002490000000000 1.8186400000000000 Hf
atom 9.3531890000000004 2.7239390000000001 7.0668680000000004 Hf
atom 8.8065920000000002 7.8861480000000004 1.8277500000000000 Hf
atom 9.2848389999999998 7.9142890000000001 7.0671059999999999 Hf
atom 3.9698590000000000 4.9140329999999999 4.0193580000000004 Hf
atom 4.3351499999999996 4.9102360000000003 9.3022980000000004 Hf
atom 3.9642420000000000 10.1068090000000002 4.0129919999999997 Hf
atom 4.4105889999999999 10.0924929999999993 9.2294809999999998 Hf
atom 9.0995419999999996 4.9213350000000000 4.4272580000000001 Hf
atom 9.5045240000000000 4.9144410000000001 9.6732119999999995 Hf
atom 8.9955379999999998 10.0727209999999996 4.5062030000000002 Hf
atom 9.4820100000000007 10.0555570000000003 9.6857790000000001 Hf
atom 0.3914150000000000 1.9314760000000000 0.8330410000000000 O
atom 0.8988480000000000 1.7486230000000000 6.1441059999999998 O
atom 0.4143070000000000 6.9368960000000000 0.8834570000000000 O
atom 0.8454450000000000 6.8933140000000002 6.1043240000000001 O
atom 5.5343289999999996 1.7225390000000000 1.3021750000000001 O
atom 5.9541639999999996 1.7452090000000000 6.5442419999999997 O
atom 5.5594929999999998 6.9110699999999996 1.3475029999999999 O
atom 5.9035359999999999 7.0725559999999996 6.4989359999999996 O
atom 0.5267350000000000 0.8968230000000000 3.6329959999999999 O
atom 1.0660259999999999 0.7997290000000000 8.7398500000000006 O
atom 0.6443580000000000 6.0189089999999998 3.4654530000000001 O
atom 1.0601200000000000 5.9777459999999998 8.7185939999999995 O
atom 5.7483610000000001 0.8064670000000000 3.9168650000000000 O
atom 6.1841429999999997 0.8261090000000000 9.1261349999999997 O
atom 5.7264780000000002 5.9632269999999998 3.9432469999999999 O
atom 6.0389929999999996 6.0387009999999997 9.2986100000000000 O
atom 4.8797410000000001 4.2886470000000001 2.2011900000000000 O
atom 5.0144190000000002 4.2808070000000003 7.4738460000000000 O
atom 4.8549189999999998 9.5106099999999998 2.1482709999999998 O
atom 5.2640719999999996 9.5096129999999999 7.4027250000000002 O
atom 9.9524450000000009 4.3380720000000004 2.6008879999999999 O
atom 10.3947160000000007 4.3180249999999996 7.8087070000000001 O
atom 9.6753719999999994 9.4429580000000009 2.6780629999999999 O
atom 10.3917260000000002 9.4309650000000005 7.8673200000000003 O
atom 5.1146750000000001 3.4173979999999999 4.8280479999999999 O
atom 5.5597250000000003 3.4302739999999998 10.0361069999999994 O
atom 5.0365690000000001 8.5841560000000001 4.7664160000000004 O
atom 5.6162270000000003 8.6284609999999997 10.0485559999999996 O
atom 10.3052209999999995 3.4578240000000000 5.2465840000000004 O
atom 10.5767779999999991 3.3915210000000000 10.4266009999999998 O
atom 10.2204149999999991 8.5929920000000006 5.2404539999999997 O
atom 10.6264559999999992 8.5582019999999996 10.4941169999999993 O
atom 3.0968849999999999 1.3873899999999999 2.8345430000000000 O
atom 3.4205770000000002 1.2991269999999999 7.9694719999999997 O
atom 3.0309610000000000 6.4302919999999997 2.7509709999999998 O
atom 3.4113699999999998 6.4967980000000001 8.0003159999999998 O
atom 8.1002880000000008 1.3253699999999999 3.1986859999999999 O
atom 8.5714410000000001 1.2376730000000000 8.4116219999999995 O
atom 8.0809180000000005 6.4618599999999997 3.1733020000000001 O
atom 8.6088670000000000 6.5286850000000003 8.5005430000000004 O
atom 3.2187969999999999 1.2008460000000001 5.3802380000000003 O
atom 3.7353329999999998 1.2998149999999999 10.4897559999999999 O
atom 3.2123810000000002 6.3890300000000000 5.3763750000000003 O
atom 3.6036809999999999 6.3688110000000000 10.6315259999999991 O
atom 8.2921340000000008 1.1975140000000000 5.8295320000000004 O
atom 8.7527770000000000 1.1965580000000000 11.0363760000000006 O
atom 8.3956269999999993 6.4628119999999996 5.6936049999999998 O
atom 8.7306869999999996 6.3426070000000001 11.0463850000000008 O
atom 2.2963399999999998 3.9054890000000002 0.3071400000000000 O
atom 2.7268659999999998 3.8870100000000001 5.5205260000000003 O
atom 2.4425659999999998 8.9319050000000004 0.1619820000000000 O
atom 2.6788029999999998 9.0723950000000002 5.5297400000000003 O
atom 7.3674689999999998 3.9012190000000002 0.7269170000000000 O
atom 7.9830560000000004 3.7394460000000000 5.8214940000000004 O
atom 7.3871110000000000 9.0500039999999995 0.7248480000000000 O
atom 7.8087020000000003 9.0475600000000007 5.9734129999999999 O
atom 2.4951479999999999 3.8293529999999998 2.8970669999999998 O
atom 2.7843950000000000 3.8126210000000000 8.1656160000000000 O
atom 2.6200770000000002 8.8579500000000007 2.9629099999999999 O
atom 2.8979020000000002 8.9943320000000000 8.1259180000000004 O
atom 7.5864300000000000 3.8227760000000002 3.3241060000000000 O
atom 8.1602920000000001 3.6655769999999999 8.6231550000000006 O
atom 7.4447310000000000 8.9752189999999992 3.3692090000000001 O
atom 8.0070779999999999 8.9712160000000001 8.5631079999999997 O
