lattice_vector 10.0445775200000007 0.0242504100000000 -0.0617400600000000 
lattice_vector 0.0499208000000000 10.2373414500000006 -0.0199612100000000 
lattice_vector -0.0216648800000000 -0.0400294600000000 10.4416225199999992 
atom 1.1711296800000000 0.0554131300000000 1.9304116899999999 Si
atom 1.3699813400000000 0.2218849000000000 6.9375800300000003 Hf
atom 1.4151071600000000 5.3687477799999996 1.7953944799999999 Hf
atom 1.3312508000000001 5.2329326099999998 6.9315209299999996 Hf
atom 1.3792031000000000 2.3175302300000000 4.2894013299999996 Hf
atom 1.4465706199999999 2.2608081400000000 9.6368552800000007 Hf
atom 1.3934735000000000 7.4597386800000001 4.4017254299999999 Hf
atom 1.4008253399999999 7.5989755700000003 9.5228532599999998 La
atom 3.6003784699999999 2.7502316300000000 1.7577604600000001 Hf
atom 3.6374247600000000 2.7848307000000001 6.9685039199999999 Hf
atom 3.6303281699999999 7.9679931699999997 1.7538366200000000 Hf
atom 3.7409030400000001 7.9639443700000001 6.8861596100000000 Hf
atom 3.6355615900000000 4.9023936399999997 4.3884054499999996 Hf
atom 3.6827457600000000 4.8047676700000004 9.6948010999999994 Hf
atom 3.6082790000000000 10.0699041699999992 4.2675207600000000 Hf
atom 3.6936421899999998 10.1008987399999999 9.5861288099999999 Hf
atom 6.4246126500000003 0.2204493500000000 0.7732849400000000 Hf
atom 6.3904618400000004 0.2207228700000000 5.9775566400000004 Hf
atom 6.4578591899999997 5.3306734000000002 0.7957598800000000 Hf
atom 6.4415806900000003 5.3183746100000002 6.0154381900000002 Hf
atom 6.4049755599999996 2.3466478899999998 3.3626964899999998 Hf
atom 6.4356326299999997 2.3386545800000000 8.6115754100000004 Hf
atom 6.4057337399999996 7.4462016300000000 3.3982472700000002 Hf
atom 6.4327886999999997 7.4350128499999997 8.6443566599999997 Hf
atom 8.7587234499999997 2.7209601700000001 0.8145886300000000 Hf
atom 8.6233262499999999 2.7367855099999998 5.9541879700000004 Hf
atom 8.6488772300000001 7.8979983999999996 0.8103616200000000 Hf
atom 8.6475173099999996 7.8768771500000003 6.0077969500000004 Hf
atom 8.6708923700000007 4.8962383699999998 3.3846699000000000 Hf
atom 8.6885311499999993 4.8466429800000004 8.6266932900000004 Hf
atom 8.6722560899999994 10.0078062299999999 3.3774939700000002 Hf
atom 8.6562038500000007 10.0394691399999996 8.5716653699999998 Hf
atom 0.5888208900000000 1.4660872300000001 0.9557387899999999 O
atom 0.3040027000000000 1.6470319099999999 5.9883092500000004 O
atom 0.2847100000000000 6.7975353199999997 1.0082232799999999 O
atom 0.3504548300000000 6.8144288900000003 6.1217272600000001 O
atom 0.3878913200000000 0.7384018500000000 3.3876657300000002 O
atom 0.3310153600000000 0.8114594500000000 8.6783810399999997 O
atom 0.3678839700000000 5.8999458100000002 3.5689102699999999 O
atom 0.3964166000000000 5.7724012099999999 8.6679804199999992 O
atom 4.7433100300000000 4.2317876999999999 0.8747167700000000 O
atom 4.6944988700000003 4.2773893599999999 6.0746292700000000 O
atom 4.7235578800000004 9.3937820599999995 0.8111470300000000 O
atom 4.7128272700000000 9.4163701500000005 6.0014816399999997 O
atom 4.6940971100000004 3.4175317399999998 3.4776854199999998 O
atom 4.7259088599999997 3.3885542300000000 8.6751050500000009 O
atom 4.6570595800000003 8.5367757700000002 3.4502727599999998 O
atom 4.6711504000000001 8.4353719900000002 8.6978547699999993 O
atom 2.6695679100000000 1.1778646300000000 2.8518253100000002 O
atom 2.7094217000000000 1.3322564200000000 8.1761489699999998 O
atom 2.7836947500000000 6.4323639999999997 3.0996085099999999 O
atom 3.1311577800000001 1.6030499700000000 0.1716367900000000 O
atom 2.7686644000000000 1.3050764300000000 5.5674851800000003 O
atom 2.8894281700000000 6.4441604899999998 0.4953157800000000 O
atom 2.7913739700000000 6.3945691499999997 5.7583864399999998 O
atom 2.2630935900000000 3.8217124899999999 3.0774550999999999 O
atom 2.3322385600000000 3.9157847299999999 8.2850572699999994 O
atom 2.1290550100000001 9.0003811599999999 2.9801823999999999 O
atom 2.4708052000000000 9.1014787300000002 8.1157751099999995 O
atom 2.2247740700000000 3.9166736700000002 0.4852850400000000 O
atom 2.2379384199999999 3.8062387499999999 5.6406171100000000 O
atom 2.1882079800000001 9.4626267500000001 0.6206030200000000 O
atom 2.2817303799999999 8.9813149699999997 5.5734167399999999 O
atom 5.3777759500000002 1.7071107000000001 1.6896008600000001 O
atom 5.3542527900000003 1.7093680700000000 6.8900023199999998 O
atom 5.3704831300000002 6.8437162599999999 1.6959681499999999 O
atom 5.3983046899999998 6.8166518500000004 6.9049318199999998 O
atom 5.3316355399999997 0.8521281500000000 4.2652876700000002 O
atom 5.4232559000000000 0.7868637400000000 9.4546326599999997 O
atom 5.3609102699999998 5.9835367200000000 4.3170021500000004 O
atom 5.3730555100000004 5.9236168100000004 9.5340412499999996 O
atom 9.7630777000000002 4.2279259600000003 1.6976227399999999 O
atom 9.6816540399999997 4.1970563800000003 6.8474669600000002 O
atom 9.8081430699999999 9.4000263200000003 1.6765838799999999 O
atom 9.7602376399999997 9.3398817300000001 6.9050551300000000 O
atom 9.6755266300000002 3.3476724000000000 4.2241793100000002 O
atom 9.7418917300000007 3.3264582599999999 9.5635131500000004 O
atom 9.6969757899999998 8.5139303399999999 4.2828031800000002 O
atom 9.4723451399999998 8.5309727899999999 9.5383854100000001 O
atom 7.8204920500000004 1.2279959700000000 9.9415323799999999 O
atom 7.7751003900000004 1.2436879500000000 4.6768646299999999 O
atom 7.8180320500000002 6.3280890000000003 9.9579735700000001 O
atom 7.8064482499999999 6.3737360900000004 4.7219019900000001 O
atom 7.8334201700000001 1.2750255800000001 2.0869776899999999 O
atom 7.7833179299999999 1.2886764900000001 7.2819311500000001 O
atom 7.7848166000000001 6.3924745200000004 2.1304854600000001 O
atom 7.8340070400000004 6.3824868400000003 7.3439998099999997 O
atom 7.3228163500000001 3.7650107300000002 9.9660706999999995 O
atom 7.2710225700000004 3.8235888000000000 4.7066146499999997 O
atom 7.1610968399999999 8.8947801099999992 9.9560954899999992 O
atom 7.2734959100000003 8.9311479800000004 4.7052491099999996 O
atom 7.3229960500000004 3.8199691599999999 2.0899465199999998 O
atom 7.2763558100000001 3.8336892900000001 7.3305134299999999 O
atom 7.3260429900000004 8.9775242199999994 2.1177618800000002 O
atom 7.2761846500000003 8.9649791699999994 7.3129843799999996 O
