lattice_vector 5.0876603800000000 0.0273469900000000 0.4105431400000000 
lattice_vector 0.0009599900000000 10.3479981599999995 -0.0180873600000000 
lattice_vector 0.8769076000000000 -0.0358534300000000 10.4477423199999997 
atom 1.4442878400000001 0.0960843400000000 1.5435137600000000 La
atom 1.9965311600000000 0.2065108400000000 6.8934439899999997 Hf
atom 1.5375966599999999 5.3751551700000002 1.6095772500000001 Hf
atom 1.9861306900000000 5.3889412200000004 6.8675686999999996 Hf
atom 1.8334430600000000 2.4637222500000000 4.3122843000000000 Hf
atom 2.2143025700000001 2.3978615099999998 9.4572768699999994 Hf
atom 1.7003554299999999 7.4585055899999997 4.2762663700000001 Hf
atom 2.2529614100000002 7.5220655000000001 9.4424281600000004 Hf
atom 3.7455915900000001 2.8267912399999999 1.3580558899999999 Hf
atom 4.2400292300000002 2.7792292399999998 6.6082030200000004 Hf
atom 3.7884151199999998 7.9202477699999996 1.3795824900000000 Hf
atom 4.2065364599999997 7.9995541599999997 6.6009631899999999 Hf
atom 3.9958489799999999 4.9559709700000001 3.9559759600000000 Hf
atom 4.4511030299999996 4.9474763499999996 9.1897109199999996 Hf
atom 3.7399585900000001 10.0622609199999999 4.0289167099999998 Hf
atom 4.4961016499999999 10.1190017999999995 9.2054515800000001 Hf
atom 0.4331951500000000 1.9585242400000000 0.8353764299999999 O
atom 0.8895852000000000 1.7113633900000000 6.0524449200000001 O
atom 0.5067857900000000 6.9804962699999997 0.8840148400000000 O
atom 0.8344903400000000 6.8766229699999997 6.0948661499999996 O
atom 1.1422824300000001 0.8316849600000000 8.7078702999999997 O
atom 0.6350041300000000 5.9647825200000000 3.4694236100000002 O
atom 1.1016318300000001 6.0006133500000001 8.6768534099999997 O
atom 4.8358987600000001 4.4176096400000002 2.1094185500000000 O
atom 5.3485945199999998 4.3200514400000003 7.3356395499999998 O
atom 4.5103022599999996 9.6014386399999996 2.1947566100000002 O
atom 5.3487573199999998 9.4924783900000005 7.3993548599999999 O
atom 5.0766868699999996 3.3312077900000001 4.6842825599999998 O
atom 5.5338478499999999 3.4583191700000002 9.9425307400000005 O
atom 5.0604194700000003 8.6639589200000007 4.7793880399999997 O
atom 5.7038729200000002 8.6932096500000000 10.0682778000000006 O
atom 2.9750962400000001 1.4118647499999999 2.8896035200000001 O
atom 3.4874903100000001 1.3398618900000001 7.9448117399999996 O
atom 3.0115046400000001 6.4554228900000004 2.7271906399999999 O
atom 3.4686779900000002 6.5110460600000000 7.9338431900000002 O
atom 3.2552193599999999 1.2227493199999999 5.4046405399999999 O
atom 3.7652992900000002 1.3052026800000001 10.4832596299999992 O
atom 3.2191330599999999 6.3966320799999998 5.3434545199999999 O
atom 3.7050948199999998 6.3652328100000002 10.5552122599999993 O
atom 2.2924876599999999 3.9586902300000002 0.2506647600000000 O
atom 2.7593399000000001 3.8982078699999998 5.4929978999999998 O
atom 2.4791107700000001 8.9619206299999998 0.1316551800000000 O
atom 2.6585454400000001 9.0395394299999996 5.5417509300000001 O
atom 2.4888697099999999 3.8732790600000002 2.8831761600000001 O
atom 2.9742103300000000 3.8443787800000000 8.0866114200000005 O
atom 2.4239397000000000 8.8418322200000006 2.9861868299999998 O
atom 2.9865662300000002 9.0169925400000004 8.0883446200000009 O
