lattice_vector 10.1268033600000003 0.0207895900000000 0.8287933000000000 
lattice_vector 0.0293115800000000 10.2874956799999993 -0.0089263800000000 
lattice_vector 0.8879231300000000 -0.0577480400000000 10.4693072100000002 
atom 1.3623239100000000 0.1447442600000000 1.8322821000000000 Si
atom 1.8791072900000001 0.0566107200000000 6.7493601099999996 La
atom 1.5816372299999999 5.3974571600000001 1.6709438900000000 Hf
atom 1.9918743500000000 5.2985176599999999 6.8650712499999997 Hf
atom 6.5619289900000002 0.2563333200000000 2.0872991200000000 Hf
atom 7.0222698000000001 0.2010556900000000 7.2583647999999998 Hf
atom 6.5621750600000004 5.3638887000000004 2.0136449199999999 Hf
atom 7.0057440299999998 5.2864080900000001 7.3263767700000004 Hf
atom 1.7116567499999999 2.3296154300000000 4.1584770400000002 Hf
atom 2.3133863699999999 2.3013660300000001 9.4806163600000009 Hf
atom 1.7894437900000000 7.5037478300000000 4.3007761000000002 Hf
atom 2.2055998099999998 7.3771567100000004 9.4837024700000008 Hf
atom 6.8283140800000002 2.3451773700000000 4.6518776099999997 Hf
atom 7.2147089700000002 2.3726310800000001 9.9323076199999996 Hf
atom 6.8173741200000002 7.4928358900000003 4.6093263599999998 Hf
atom 7.2431118400000001 7.4708084499999998 9.9278062499999997 Hf
atom 3.6956234900000000 2.7564154500000000 1.3621547400000000 Hf
atom 4.1840861499999997 2.7470058100000001 6.5790842500000002 Hf
atom 3.6949912000000000 8.0301152899999995 1.3857354500000001 Hf
atom 4.2950169400000000 7.8691211599999997 6.6548185000000002 Hf
atom 8.9347183000000001 2.7468055200000001 1.8497765200000000 Hf
atom 9.2238345499999994 2.8350229800000002 6.9904560199999999 Hf
atom 8.8616302499999993 7.9249967899999998 1.7976371000000000 Hf
atom 9.1248691700000002 7.7186658200000000 6.9574787599999999 Hf
atom 3.9916311599999998 4.8946072699999998 3.9942348000000001 Hf
atom 4.4080221999999996 4.9041481200000003 9.2440543099999992 Hf
atom 3.9906633199999999 10.0351716500000006 3.9447429800000000 Hf
atom 4.4352442999999999 10.1113073999999994 9.2581193200000005 Hf
atom 9.0327665800000005 4.9160337399999996 4.3551243299999998 Hf
atom 9.5057969199999999 4.8551371799999998 9.6991084399999998 Hf
atom 9.0564891000000003 10.0597157999999993 4.4380151899999998 Hf
atom 9.5035696299999994 10.1722327900000007 9.7570820999999999 La
atom 0.5935538700000000 1.5103689600000001 0.9479407700000000 O
atom 0.7760825500000000 1.7849688300000000 5.9419817000000004 O
atom 0.4716307700000000 6.8587929599999997 0.8930701200000000 O
atom 0.9038971099999999 6.9730742100000001 6.2395713300000004 O
atom 5.4036347800000000 1.6988641799999999 1.2575156400000000 O
atom 5.9335839400000001 1.6864708300000000 6.4446075299999999 O
atom 5.4458493800000003 6.8643524100000004 1.2285460300000000 O
atom 5.9922110699999998 6.8089929199999997 6.4526625500000003 O
atom 0.6671502600000000 0.7557660400000000 3.3767559500000002 O
atom 1.3235201299999999 0.7840374700000000 8.8074445200000007 O
atom 0.6129056899999999 6.0511090699999999 3.5121396300000001 O
atom 1.1601980599999999 5.8440763000000002 8.7499769799999996 O
atom 5.6737419800000000 0.8844423800000000 3.8483636200000002 O
atom 6.2439160999999999 0.7671037100000000 9.1255640099999997 O
atom 5.7131474000000004 5.9844063199999997 3.8539160099999998 O
atom 6.1070071099999996 6.0240768999999998 9.0785023700000007 O
atom 4.8570058899999999 4.2778457699999999 2.1820245300000001 O
atom 5.3164075600000000 4.2123130099999999 7.4509552899999996 O
atom 4.8976604600000000 9.3953601199999994 2.2141047999999999 O
atom 5.3574753900000003 9.3933496900000009 7.4191618500000001 O
atom 9.9916426499999993 4.3126739399999998 2.5932967300000000 O
atom 10.3489570099999995 4.3105583300000001 7.8144469299999999 O
atom 10.0739249900000001 9.4256719600000007 2.6407976700000000 O
atom 5.1209635899999997 3.4439098499999998 4.7977807900000000 O
atom 5.5850096499999999 3.4984818700000000 10.0808216099999992 O
atom 5.2031744700000004 8.6045464299999992 4.7894817900000000 O
atom 5.4990915899999999 8.5646301400000002 10.0658101999999996 O
atom 10.1064587699999997 3.4257784899999999 5.1145627500000002 O
atom 10.6199428200000003 3.3100092000000001 10.5025287499999997 O
atom 10.3042440400000004 8.8273201399999994 5.5950920899999996 O
atom 10.6114167899999998 8.3475587800000000 10.4339382999999994 O
atom 2.7972563799999999 1.1687258700000001 2.4921874900000001 O
atom 3.5773551499999998 1.2978641200000001 7.8756206700000000 O
atom 3.0185180500000000 6.5085754400000004 2.7631078499999999 O
atom 3.4796976200000000 6.3688195600000004 7.9385653899999999 O
atom 8.1021313300000006 1.2899478400000000 3.1937422299999998 O
atom 8.4435327600000001 1.4170803400000000 8.2866786900000005 O
atom 8.0738292900000008 6.4575955799999996 3.1151880200000002 O
atom 8.5050765100000003 6.3705588700000000 8.4146544300000006 O
atom 3.2414552699999999 1.2789396900000001 5.1562817200000000 O
atom 3.9116650399999999 1.4600308500000001 10.3554040500000006 O
atom 3.2066673600000000 6.3271753100000003 5.3566417399999997 O
atom 3.6970627000000000 6.4210126900000004 10.6027784500000006 O
atom 8.2925252199999999 1.2243519400000000 5.7433633999999998 O
atom 8.6156304299999995 1.3526319300000000 11.1787946799999993 O
atom 8.3190066399999996 6.3601226200000003 5.7483482500000003 O
atom 8.7348816500000002 6.3555046500000003 10.9949186999999995 O
atom 2.2845131699999999 3.9964221499999999 0.2882285600000000 O
atom 2.7039926900000002 3.8559059400000000 5.4925691399999996 O
atom 2.2702756599999998 9.4487951300000006 0.5169168900000000 O
atom 2.9515270600000001 8.8669547200000007 5.4116813900000000 O
atom 7.3948325900000000 3.9282530000000002 0.7201655700000000 O
atom 7.7616434400000003 3.9084119300000002 5.9071189500000001 O
atom 7.2766697400000000 9.0062488900000002 0.8014499700000000 O
atom 7.8070314500000002 8.9918513699999991 5.8741797299999998 O
atom 2.5139482100000001 3.7916783000000001 2.9003595799999999 O
atom 2.9514099100000002 3.7767947400000002 8.1090518500000002 O
atom 2.3955891899999999 8.9928592599999995 2.9143182599999999 O
atom 3.0825823099999998 8.7973743399999993 8.2477000300000007 O
atom 7.6040207899999999 3.7834976899999999 3.2836346000000001 O
atom 7.9985156300000000 3.8273632499999999 8.5855746300000000 O
atom 7.6761127499999997 8.9540916700000004 3.3162759700000000 O
atom 8.1137476900000003 8.8470471400000008 8.3898534199999997 O
