lattice_vector 5.0505461599999997 0.0048186500000000 0.3227506000000000 
lattice_vector 0.0055471400000000 10.3059704300000003 -0.0367063500000000 
lattice_vector 0.7464774500000000 0.0414068200000000 10.3802114499999991 
atom 1.2957319800000000 -0.0006678100000000 1.4399733600000000 La
atom 1.8720808499999999 0.2883402800000000 6.7984748000000002 Hf
atom 1.4644609799999999 5.2661711799999997 1.5489653900000000 Hf
atom 1.8180314099999999 5.4983712899999997 6.6636497099999996 Hf
atom 1.6356641100000000 2.3589406199999998 4.1758455200000002 Hf
atom 2.0764984499999999 2.4812520999999998 9.3253319399999999 Hf
atom 1.5310312100000001 7.6081748500000002 3.9815731500000000 Hf
atom 2.1187243699999998 7.5829112700000003 9.3713657700000006 Hf
atom 3.6922930900000002 2.7662670199999999 1.2790292700000001 Hf
atom 4.0710114400000004 2.8654664200000002 6.4842979900000000 Hf
atom 3.8268128500000000 7.8133762000000004 1.3857860500000001 Hf
atom 4.0261887999999999 7.9869491999999997 6.5271028400000004 Hf
atom 3.8411797399999998 4.9528347400000001 3.8819697299999998 Hf
atom 4.2974963099999997 5.0226363400000000 9.0290404399999993 Hf
atom 3.8531582100000001 10.1441127099999999 3.9496329299999999 Hf
atom 4.3708660699999999 10.1578782499999996 9.0950818400000006 Hf
atom 0.4360394000000000 1.9538141200000001 0.7876313200000000 O
atom 0.7772811700000000 1.8304469000000001 6.0788175100000004 O
atom 0.4413137100000000 6.7546738000000000 0.6871029100000000 O
atom 0.7194911700000000 7.0437527800000002 5.8164410999999996 O
atom 0.5825517000000000 0.7632401500000000 3.6019573500000002 O
atom 1.0156333200000001 0.9230416299999999 8.6076545299999996 O
atom 0.5448533800000001 5.9784325699999998 3.3887184000000001 O
atom 0.8834953300000000 6.2459096199999999 8.4456255799999997 O
atom 4.7066953500000004 4.3621981400000003 2.0343557900000002 O
atom 5.1413383499999998 4.4587820999999996 7.1492887700000001 O
atom 5.0777797199999997 8.6263643699999992 2.9520125099999999 O
atom 5.2320994900000004 9.4257602899999995 7.3103672499999997 O
atom 4.9350450500000003 3.4067596199999999 4.6160550599999999 O
atom 5.3760786800000000 3.5372197800000000 9.7521489900000002 O
atom 5.7314536900000004 8.9965696400000006 10.2910929099999997 O
atom 3.0840562899999999 1.3022270600000001 2.7040233800000002 O
atom 3.3610674999999999 1.3994778600000000 7.8357112700000000 O
atom 2.8572996900000001 6.4313056399999997 2.6126396000000001 O
atom 3.2766439799999998 6.5571810199999998 7.7981476599999997 O
atom 3.0978114699999999 1.2978274599999999 5.3052668499999998 O
atom 3.5861478500000001 1.3318026400000000 10.3508890999999998 O
atom 3.0848964799999998 6.4912750499999996 5.1717337299999997 O
atom 3.5703381900000002 6.4236396899999999 10.4124516000000007 O
atom 2.2733612499999998 3.9269752200000001 0.1767549000000000 O
atom 2.5883554900000001 3.9769760500000002 5.3850449100000004 O
atom 2.5967023299999998 8.8827627600000003 0.1075781700000000 O
atom 2.6836148799999999 9.1095215500000002 5.3677754599999998 O
atom 2.3871921800000000 3.7751950200000000 2.8019772199999999 O
atom 2.8003524099999999 3.9372450699999999 7.9592412299999999 O
atom 2.6609937600000002 8.9321189899999993 2.7895671700000002 O
atom 2.8354916399999999 9.0699758700000004 8.0044205500000007 O
