lattice_vector 10.1055079899999996 -0.0057809300000000 0.6826358500000000 
lattice_vector 0.0371773900000000 10.2601803199999999 -0.0087171000000000 
lattice_vector 0.7800750900000000 0.0026606800000000 10.4647488400000004 
atom 1.3647362700000001 0.1115314000000000 1.7767896599999999 Si
atom 1.8653729800000001 0.2294573400000000 6.8734684799999997 Hf
atom 1.4831437199999999 5.2591900000000003 1.6596715399999999 Hf
atom 1.8983782100000000 5.3134111099999997 6.8656490300000002 Hf
atom 6.3609606799999998 0.0056755300000000 1.8991766699999999 La
atom 6.9426249000000002 0.2149390900000000 7.1814567699999996 Hf
atom 6.6008121500000003 5.2517861100000003 1.9223139499999999 Hf
atom 6.9254331400000000 5.4152997599999999 7.1532596200000000 Hf
atom 1.5862492800000001 2.3922446700000002 4.2476241999999997 Hf
atom 2.1706657699999998 2.3041734100000002 9.4850306799999995 Hf
atom 1.6592306999999999 7.4243565299999998 4.2825213099999999 Hf
atom 2.1102593800000000 7.4511824300000002 9.4897659599999997 Hf
atom 6.7183637100000002 2.3109745400000001 4.5562955599999997 Hf
atom 7.1814887299999999 2.3860299800000000 9.8034122600000000 Hf
atom 6.7437920199999999 7.4917758699999997 4.4251210499999996 Hf
atom 7.2539005899999998 7.4851908500000004 9.7841428100000005 Hf
atom 3.7293176300000002 2.7540616000000000 1.3102307300000000 Hf
atom 4.1349217200000004 2.8053020599999998 6.5859719200000004 Hf
atom 3.7777621600000000 7.9046918499999999 1.5176535099999999 La
atom 4.0899640100000001 7.8482793099999997 6.7316851599999996 Hf
atom 8.8668245900000002 2.6230854600000000 1.7071482200000001 Hf
atom 9.1138486800000003 2.7833075200000001 6.9363558100000002 Hf
atom 8.9159527000000001 7.8781834899999996 1.6646247300000001 Hf
atom 9.1528171999999994 7.9110862199999996 6.8926274200000002 Hf
atom 3.9411854800000001 4.8968936799999998 3.9766267499999999 Hf
atom 4.3406245999999999 4.9298467300000004 9.2137842499999998 Hf
atom 3.7473056499999999 10.1562851599999995 4.0233643399999997 Hf
atom 4.3867665899999997 10.1327306499999992 9.2397268700000001 Hf
atom 8.9027415199999993 4.9022614600000001 4.2999522600000004 Hf
atom 9.4370103899999993 4.8495976499999998 9.5652424600000003 Hf
atom 9.0378337399999999 10.0517254699999992 4.2868974199999998 Hf
atom 9.4496695299999995 10.0365731399999998 9.5098907399999995 Hf
atom 0.6348286600000000 1.4824258500000000 0.8895471200000000 O
atom 0.7150218500000000 1.6490520600000000 6.0300517899999999 O
atom 0.4914182000000000 6.8021742900000000 0.8574203900000000 O
atom 0.7833644900000000 6.7984067200000000 6.0814170799999996 O
atom 5.4990038400000003 1.8732066599999999 1.1313595599999999 O
atom 5.8451816599999997 1.7182140800000001 6.4072091200000001 O
atom 5.7522363800000003 6.8810257400000001 1.1542780600000000 O
atom 5.8198948599999998 6.9475444900000003 6.2522533300000003 O
atom 0.6792752399999999 0.8361585700000000 3.3342576899999998 O
atom 1.0180074400000001 0.8726621700000000 8.6484675899999992 O
atom 0.4990678900000000 5.9944070900000002 3.4637566700000000 O
atom 1.0335875100000000 5.9752543899999999 8.6917909400000006 O
atom 5.4130369500000004 0.9763436300000000 3.8257189100000000 O
atom 6.0883878700000000 0.9222996300000000 8.9688614900000001 O
atom 5.6878862999999997 5.9209933699999997 3.7803933999999999 O
atom 5.9822583299999996 6.1674237900000000 8.9166221100000005 O
atom 4.7793281399999996 4.3487980600000000 2.1115111299999998 O
atom 5.2171984499999997 4.3306425800000001 7.3470064700000002 O
atom 5.2475380200000004 9.3947668800000006 7.3246659599999999 O
atom 9.9069873800000003 4.1521824299999999 2.5401422700000000 O
atom 10.3166596300000002 4.1973174899999997 7.7467987400000000 O
atom 10.0684806800000004 9.4080252699999996 2.4888240700000002 O
atom 10.3557182300000008 9.3229878500000005 7.7287797500000002 O
atom 5.0212226700000002 3.4308409300000000 4.7806729199999998 O
atom 5.5409511900000004 3.5969261600000002 10.0009116500000008 O
atom 5.0763595500000003 8.6333947900000005 3.7290043800000001 O
atom 5.6561345000000003 8.8349623099999999 10.1230055599999993 O
atom 10.0280851599999998 3.4310580800000001 5.1324543900000004 O
atom 10.5646213600000003 3.3841245400000002 10.4169662499999998 O
atom 10.1112217900000001 8.5839740800000008 5.1577819700000003 O
atom 10.6203887800000008 8.5938743399999993 10.3576848399999992 O
atom 2.9340559300000000 1.0166278700000000 2.4121063800000000 O
atom 3.3558971099999999 1.3007890400000000 7.8522989200000000 O
atom 2.8174481400000002 6.3043441500000004 2.8533539600000002 O
atom 3.3428674599999999 6.4395373700000000 7.9597373400000002 O
atom 8.0256143600000005 1.2747995700000001 3.0886253899999998 O
atom 8.4389673799999994 1.3232703699999999 8.2524670699999998 O
atom 8.0253202800000007 6.3873112599999997 2.9995218399999999 O
atom 8.4302256100000008 6.4411698800000003 8.2456488199999995 O
atom 3.0586083099999999 1.3103235799999999 5.3077769300000002 O
atom 3.8518497900000002 1.5263927700000000 10.2852368300000006 O
atom 3.1980327700000002 6.3892401699999999 5.3738353999999999 O
atom 3.5565535700000002 6.3594903199999999 10.5437291000000002 O
atom 8.2042420099999998 1.2374141800000000 5.6537473399999998 O
atom 8.6922405600000001 1.2474241900000000 10.8227904800000001 O
atom 8.1805448700000003 6.3893665799999999 5.6255111199999996 O
atom 8.7657393300000006 6.3218607699999998 10.8384486199999994 O
atom 2.2831952200000001 3.9134290100000002 0.2783536300000000 O
atom 2.6345677599999999 3.8965350299999999 5.5019128600000000 O
atom 2.2368962500000000 9.4772724900000007 0.4621201100000000 O
atom 2.8431623199999998 9.0116111199999995 5.5744373200000004 O
atom 7.4369294999999997 3.8342301600000002 0.6213840300000000 O
atom 7.6674303799999999 3.9035912000000001 5.8393326400000003 O
atom 7.5529068700000002 8.8972746199999992 0.4693919100000000 O
atom 7.6792791200000003 9.0227198099999999 5.7680288600000003 O
atom 2.4947739300000000 3.6642715500000000 2.8989542300000002 O
atom 2.9002337300000001 3.7964434100000002 8.1314902900000003 O
atom 2.2830161100000002 9.0211896700000000 3.0300111400000000 O
atom 2.9412286299999999 8.9174365099999999 8.2357539800000001 O
atom 7.5143224499999999 3.7362682000000000 3.2074695800000002 O
atom 7.9081524099999996 3.8526673800000002 8.4440880400000005 O
atom 7.7857665699999998 8.8217775599999992 3.2055419999999999 O
atom 7.9621874500000001 8.9514323800000000 8.3899972300000005 O
