lattice_vector 5.0757522499999999 -0.0026222100000000 -0.0058770600000000 
lattice_vector 0.0059147900000000 10.3513370400000007 0.0059869100000000 
lattice_vector 0.0112227500000000 -0.0054868900000000 10.1497504599999999 
atom 1.2946962000000000 0.0025938400000000 1.2666935600000000 La
atom 1.3001225000000001 -0.0003370300000000 6.3415375899999997 La
atom 1.2970171100000001 5.1777898100000002 1.2694343400000001 Hf
atom 1.3024603400000001 5.1753353000000004 6.3445717200000002 Hf
atom 1.2992070600000001 2.6496878300000000 3.8055322800000000 Hf
atom 1.3047770400000001 2.6467898700000001 8.8802544300000008 Hf
atom 1.3016464100000000 7.7040037000000003 3.8087279199999999 Hf
atom 1.3073009799999999 7.7014237100000003 8.8840722700000008 Hf
atom 3.8339866599999999 2.6499101700000001 1.2652070200000001 Hf
atom 3.8393703000000001 2.6468013600000000 6.3397671100000004 Hf
atom 3.8366766200000000 7.7037701800000002 1.2685913900000001 Hf
atom 3.8420179600000002 7.7010149400000003 6.3431531899999998 Hf
atom 3.8353565000000001 0.0003729900000000 3.8008938799999998 Hf
atom 3.8408826399999998 -0.0023923400000000 8.8758122799999999 Hf
atom 3.8377825099999998 5.1762114400000003 3.8042513200000001 Hf
atom 3.8429583300000001 5.1733271399999996 8.8788824900000005 Hf
atom 0.0642875700000000 1.6165365899999999 0.0391425900000000 O
atom 0.0695852300000000 1.6135908600000000 5.1138533900000001 O
atom 0.1247438100000000 6.6594497099999996 0.1000477200000000 O
atom 0.1307077200000000 6.6567449400000003 5.1750951100000000 O
atom -0.1104860400000000 1.2133305100000000 2.6758961700000001 O
atom -0.1044067800000000 1.2106452999999999 7.7510665999999997 O
atom -0.0222434600000000 6.2296096500000004 2.5925370800000000 O
atom -0.0168363900000000 6.2266888500000004 7.6674697500000004 O
atom 0.1273873200000000 3.6974749500000001 2.4408641499999999 O
atom 0.1325776600000000 3.6943915800000000 7.5154731000000004 O
atom 0.0710521700000000 8.7411441700000001 2.5025556799999999 O
atom 0.0769049500000000 8.7378560400000005 7.5771913399999997 O
atom -0.0270211600000000 4.1278740200000001 -0.0511572500000000 O
atom -0.0209336000000000 4.1245165899999998 5.0236246099999997 O
atom -0.1091068300000000 9.1444561100000001 -0.1339525500000000 O
atom -0.1039160500000000 9.1414537100000004 4.9410899700000002 O
atom 2.5273588800000000 1.6133364200000000 2.4961972600000002 O
atom 2.5331945999999999 1.6102452300000001 7.5711560499999999 O
atom 2.4714037900000001 6.6567106300000001 2.4412231599999998 O
atom 2.4767215500000002 6.6539508300000003 7.5160592900000003 O
atom 2.7013227000000000 1.2135341900000001 -0.1409165700000000 O
atom 2.7063982800000002 1.2105888300000001 4.9336526100000002 O
atom 2.6175363400000000 6.2300552800000002 -0.0522512900000000 O
atom 2.6233423600000001 6.2271573699999996 5.0226852199999996 O
atom 2.4665425700000001 3.6980527300000001 0.0961027200000000 O
atom 2.4723534599999999 3.6953646500000001 5.1707951500000000 O
atom 2.5282797100000001 8.7412392800000003 0.0408617600000000 O
atom 2.5334907800000002 8.7382688200000000 5.1156481899999999 O
atom 2.6207107999999999 4.1246359899999998 2.5886934099999999 O
atom 2.6257591699999998 4.1215913500000001 7.6637023199999996 O
atom 2.7088382900000001 9.1413016900000006 2.6775518500000000 O
atom 2.7146031900000001 9.1386214599999995 7.7525035899999999 O
