lattice_vector 9.9037636899999999 -0.0671474200000000 0.1703442800000000 
lattice_vector -0.0152107000000000 10.3750862799999997 -0.1294229400000000 
lattice_vector 0.0358188300000000 -0.1181606600000000 9.9469992400000002 
atom 1.1604166100000000 0.3430730700000000 1.0988873299999999 Si
atom 1.3208395900000001 0.0768605800000000 6.2175777099999996 Hf
atom 1.3441339600000000 5.3174534299999996 1.2254276399999999 Hf
atom 1.3583415900000000 5.2931833399999997 6.1628424199999996 Hf
atom 6.1124416799999999 0.3095883300000000 1.1836883100000000 Si
atom 6.2727862900000000 0.0433032400000000 6.3027774200000000 Hf
atom 6.2959361700000001 5.2838476200000004 1.3105395600000000 Hf
atom 6.3103464499999999 5.2595620099999998 6.2480038899999997 Hf
atom 1.3553401599999999 2.2722026700000000 3.6808315500000002 Hf
atom 1.3194704900000001 2.3841905600000000 8.6505251399999992 Hf
atom 1.4178064200000000 7.5417705499999999 3.7057717700000001 Hf
atom 1.3022956299999999 7.5782283000000001 8.6905898700000002 Hf
atom 6.3070804699999998 2.2386185900000002 3.7658166500000001 Hf
atom 6.2712862600000001 2.3506796900000002 8.7355749100000004 Hf
atom 6.3697119600000001 7.5081721799999999 3.7908561299999999 Hf
atom 6.2541087299999996 7.5446272600000004 8.7756621999999993 Hf
atom 3.6584083100000000 2.6691979199999998 1.1832390600000000 Hf
atom 3.6478612300000002 2.6598172500000001 6.2049263300000002 Hf
atom 3.7714179600000000 7.8560785800000001 1.1955353300000000 Hf
atom 3.6720207000000000 7.9043816600000003 6.2179636499999997 Hf
atom 8.6104971999999993 2.6357214600000001 1.2682841100000000 Hf
atom 8.5997645699999996 2.6261827700000002 6.2899880899999996 Hf
atom 8.7233666500000009 7.8223741200000001 1.2805461400000000 Hf
atom 8.6238872600000001 7.8708905600000003 6.3031847799999996 Hf
atom 3.6745286799999999 4.8972038299999996 3.7313033299999998 Hf
atom 3.6230533600000001 4.9733101900000003 8.6769989800000005 Hf
atom 3.6778467099999999 10.1121033699999998 3.5681897299999998 Hf
atom 3.5244927599999998 10.1432587200000004 8.7181774300000008 Hf
atom 8.6263376800000007 4.8635415899999996 3.8164426499999999 Hf
atom 8.5749511799999993 4.9398057399999997 8.7620760099999995 Hf
atom 8.6296802699999997 10.0784601699999996 3.6534105700000001 Hf
atom 8.4764539600000006 10.1098430599999993 8.8033854799999993 Hf
atom 0.3129486700000000 1.7709692699999999 1.8854492000000000 O
atom 0.3550224300000000 1.8417253200000001 6.8990779900000003 O
atom 0.4038749600000000 7.0508155400000003 1.9346122299999999 O
atom 0.3577785200000000 7.0209738599999998 6.8833553800000002 O
atom 5.2648092699999998 1.7375639500000000 1.9702616300000000 O
atom 5.3068460799999997 1.8082125300000000 6.9841093100000000 O
atom 5.3557967700000004 7.0174224599999997 2.0196272500000001 O
atom 5.3096319699999999 6.9875050300000003 6.9684866000000003 O
atom 0.3678110900000000 0.6219015300000000 4.4700387199999998 O
atom 0.2441444700000000 0.6554042500000000 9.5891265299999997 O
atom 0.4035921200000000 5.7910826100000001 4.3613544299999996 O
atom 0.2967173100000000 5.8511392799999999 9.4256124400000001 O
atom 5.3196843100000004 0.5882619100000001 4.5552337500000002 O
atom 5.1958048500000000 0.6219813700000000 9.6741694799999998 O
atom 5.3555363399999996 5.7575471000000000 4.4467223200000001 O
atom 5.2485533699999998 5.8175459299999996 9.5107944300000007 O
atom 4.6539229600000001 4.3552584799999998 1.9534792500000000 O
atom 4.6090998200000000 4.4079049299999999 6.9130888800000001 O
atom 4.9287092399999999 9.6673918899999993 1.8332019700000000 O
atom 4.6080219400000004 9.6206712099999994 6.9637519899999996 O
atom 9.6059072800000003 4.3216432800000000 2.0385347999999999 O
atom 9.5610211899999999 4.3743106300000001 6.9981381599999999 O
atom 9.8805709600000000 9.6339178899999993 1.9184383000000000 O
atom 9.5598806700000001 9.5870783700000004 7.0489888799999996 O
atom 4.6468241499999996 3.1573211200000002 4.4323250999999999 O
atom 4.5708778800000003 3.1830147400000000 9.3734575600000003 O
atom 4.7156184000000003 8.4269284399999993 4.4859737800000001 O
atom 4.4882245500000000 8.3928448000000007 9.3107752399999999 O
atom 9.5986802299999994 3.1237702999999999 4.5172748599999997 O
atom 9.5226782100000005 3.1495351899999999 9.4583159299999995 O
atom 9.6674968200000002 8.3934909599999994 4.5712287099999998 O
atom 9.4401064100000003 8.3594108699999996 9.3959316200000007 O
atom 2.4326743700000000 0.8339557600000000 2.3542297200000002 O
atom 2.6766246900000001 1.1313608399999999 7.4702750599999996 O
atom 2.7219623700000000 6.1876414100000003 2.4433135699999999 O
atom 2.6640529700000002 6.3454594699999998 7.4485425500000000 O
atom 7.3844606199999996 0.8002466900000000 2.4393226800000001 O
atom 7.6286251800000002 1.0978490100000000 7.5553504800000004 O
atom 7.6737633499999998 6.1539627200000000 2.5284169699999999 O
atom 7.6159525099999996 6.3119416900000003 7.5336572799999999 O
atom 2.7391788500000001 1.2900463900000001 4.9012508300000004 O
atom 2.4936394399999999 1.3065651700000001 9.9793012900000004 O
atom 2.7427796400000002 6.4863281300000004 4.9547947199999998 O
atom 2.6401896499999999 6.5239229500000002 9.9230563800000002 O
atom 7.6910624600000004 1.2564916300000000 4.9862513799999997 O
atom 7.4455228699999996 1.2732616900000000 10.0643343299999994 O
atom 7.6947231100000000 6.4526489299999996 5.0399232100000004 O
atom 7.5919892300000003 6.4904303800000003 10.0082586899999999 O
atom 2.3007739599999999 3.8703421599999999 4.9330871800000002 O
atom 2.2887952999999999 3.8986794599999999 9.8813575799999995 O
atom 2.3578506400000001 9.1011903200000006 4.9368824099999999 O
atom 2.0999490500000002 9.2711243400000001 10.0578606300000004 O
atom 7.2525310100000002 3.8365720500000000 5.0182294199999999 O
atom 7.2407317600000001 3.8651399299999998 9.9664146999999996 O
atom 7.3096164999999997 9.0674213300000002 5.0221226500000000 O
atom 7.0518233700000001 9.2376194199999997 10.1429944299999999 O
atom 2.3328584600000002 3.6087564500000000 2.4281335400000001 O
atom 2.2788567099999999 3.7397276599999998 7.4131173800000001 O
atom 2.6359352899999999 8.6705055400000006 2.5509322299999999 O
atom 2.2593900900000001 8.9286679800000002 7.4576393300000001 O
atom 7.2847549200000001 3.5749419300000000 2.5131512499999999 O
atom 7.2308954700000001 3.7060774300000001 7.4982219700000003 O
atom 7.5880339599999997 8.6368038200000008 2.6360576099999999 O
atom 7.2113429900000003 8.8951901400000004 7.5429031899999996 O
