lattice_vector 10.0292444700000001 0.0787703100000000 0.7795308500000000 
lattice_vector 0.0705375900000000 10.1384416599999998 0.0134180000000000 
lattice_vector 0.8637690300000000 -0.0396032200000000 10.4516867500000004 
atom 1.3380166800000000 0.1242437700000000 1.8117297500000000 Si
atom 1.9120863699999999 0.1987754600000000 6.8266536699999998 Hf
atom 1.5618530100000001 5.3064218399999996 1.6594834599999999 Hf
atom 1.9814399499999999 5.2414619699999996 6.8491316199999996 Hf
atom 6.4950515099999997 0.2578881700000000 1.9902492000000001 Hf
atom 6.7839089499999998 0.1437237500000000 7.4273374900000002 Si
atom 6.5644773699999996 5.3005125299999998 2.0128379100000000 Hf
atom 7.0080975499999996 5.3260709799999999 7.2749960800000002 Hf
atom 1.7328711299999999 2.3048824600000000 4.1863483800000001 Hf
atom 2.2234517000000000 2.2440605100000002 9.4535791699999994 Hf
atom 1.7409662100000001 7.3846828999999996 4.2912378000000002 Hf
atom 2.1711712300000001 7.3670638100000003 9.4653435899999998 Hf
atom 6.8062871200000004 2.3032682599999998 4.6171818299999998 Hf
atom 7.1794608599999998 2.3248949699999999 9.8019996599999999 Hf
atom 6.7536160199999999 7.4258726299999998 4.6288173400000003 Hf
atom 7.1873070500000003 7.4042019600000000 9.9066245800000008 Hf
atom 3.7031570100000000 2.7361578600000001 1.3461096600000000 Hf
atom 4.2591068099999996 2.6878068300000000 6.6192027299999996 Hf
atom 3.6796878600000000 7.9009378699999999 1.4147658400000001 Hf
atom 4.2111881599999998 7.8514720599999999 6.6414509300000004 Hf
atom 8.8420770999999991 2.7467620300000002 1.7830003200000000 Hf
atom 9.1492966599999992 2.7556636700000001 6.9616533799999996 Hf
atom 8.7940687600000000 7.9108334999999999 1.8054727200000000 Hf
atom 9.1260272600000008 7.9207487299999997 7.0302169699999997 Hf
atom 3.9904161800000000 4.8339163599999999 4.0229117499999996 Hf
atom 4.3885392000000003 4.8604187000000003 9.2272558700000005 Hf
atom 3.9566947600000000 9.9393925700000008 3.9534983900000000 Hf
atom 4.4126709999999996 9.9656164599999997 9.2601148999999996 Hf
atom 8.9716023600000003 4.9196293899999999 4.3910714999999998 Hf
atom 9.4368569000000004 4.8537195100000003 9.6384060999999992 Hf
atom 8.9949659099999995 10.0245715900000008 4.4240137700000002 Hf
atom 9.4027876900000003 9.9587623700000005 9.5690631300000000 Hf
atom 0.6088183000000000 1.4410946700000000 0.8600377900000000 O
atom 0.8268556100000000 1.5886590000000000 5.9480118099999997 O
atom 0.4397831500000000 6.7343070400000000 0.8210451000000000 O
atom 0.8350724899999999 6.6993778199999996 6.0691497099999996 O
atom 5.4095676299999997 1.6475758000000000 1.1114532399999999 O
atom 6.0553893099999998 1.4609944300000000 6.4756162100000001 O
atom 5.4180076300000000 6.7581881900000003 1.2326221300000000 O
atom 5.8858378699999996 6.7535297200000004 6.4363673800000001 O
atom 0.6677674000000000 0.7910111200000000 3.3204463500000001 O
atom 0.9874682800000000 0.8954618600000001 8.5857253999999994 O
atom 0.6314604000000000 5.9632704700000003 3.4258785800000000 O
atom 1.1083264500000001 5.8965207499999996 8.6837513099999999 O
atom 5.5702055799999997 0.9549519400000001 3.7491247900000002 O
atom 6.1145536299999996 0.8108538900000000 8.9363268300000005 O
atom 5.6910526600000004 5.9556031000000003 3.8471114800000001 O
atom 6.0780012899999996 5.9827985699999999 9.0412759600000001 O
atom 4.8940244699999997 4.1606082899999999 2.2454003500000002 O
atom 5.3518434399999997 4.1466760300000001 7.4663304300000002 O
atom 4.9036160400000002 9.2373043300000006 2.2412502000000001 O
atom 5.4156175400000004 9.2924760899999992 7.4444570299999997 O
atom 9.9346089499999994 4.2061314599999999 2.6296705600000001 O
atom 10.3403966700000005 4.1804689000000002 7.8607384099999997 O
atom 9.9984708700000002 9.3520502800000003 2.6084563599999999 O
atom 10.3501492600000002 9.2569561500000006 7.8569787000000000 O
atom 5.1448800700000001 3.4211027999999999 4.8992042900000001 O
atom 5.5829674899999997 3.5029421100000002 10.0813676099999991 O
atom 5.0740316400000003 8.5183220899999998 4.8288420399999996 O
atom 5.4434243499999999 8.4732791400000007 10.0842196800000004 O
atom 10.1658253900000002 3.5620187200000002 5.2449602100000003 O
atom 10.5908075200000003 3.4402677399999999 10.5143965000000001 O
atom 10.0263547899999992 8.5324626800000001 5.2478544899999999 O
atom 10.5202422200000001 8.5375834800000003 10.4442781799999995 O
atom 2.8117976800000002 1.1632659900000000 2.4714930700000002 O
atom 3.3892154500000000 1.2343940600000001 7.8461081000000004 O
atom 3.0174208999999999 6.3954660099999998 2.7612816200000001 O
atom 3.4433673200000001 6.3579465800000001 7.9430609499999996 O
atom 7.9721378400000003 1.2932468900000000 3.0096900000000000 O
atom 8.2581159900000003 1.1826567900000000 8.0870860199999992 O
atom 8.0261695300000007 6.4169021800000001 3.1066669000000000 O
atom 8.4638068900000007 6.4149275499999998 8.3765226399999992 O
atom 3.2211067000000000 1.2563366400000000 5.2435277800000000 O
atom 3.8807634400000000 1.4642046799999999 10.2916085400000004 O
atom 3.2356440000000002 6.3015449500000003 5.3563599599999998 O
atom 3.6485538800000001 6.3697969499999996 10.5725858499999994 O
atom 8.4635897599999996 1.5236267800000001 5.4552591499999998 O
atom 8.6673528199999996 1.2757900200000001 10.8592713199999995 O
atom 8.2314222600000004 6.4294306900000002 5.7361279800000000 O
atom 8.6822883100000006 6.3215134199999996 10.9719245999999995 O
atom 2.2889231600000000 3.9151805999999998 0.2887697400000000 O
atom 2.7673497500000002 3.7979069999999999 5.5287650800000003 O
atom 2.2486904499999998 9.2873750499999996 0.5079341400000000 O
atom 2.7273081200000000 8.9041024199999992 5.5314458200000001 O
atom 7.3503360899999999 3.8572236800000002 0.6926309100000000 O
atom 7.7354849400000001 3.9351636900000000 5.9043389499999996 O
atom 7.3100737300000000 8.9631770999999993 0.6950800499999999 O
atom 7.6953306499999998 9.3076214999999998 6.1240381099999999 O
atom 2.5389810300000000 3.7424870700000001 2.9149314899999998 O
atom 2.9879583300000001 3.7104928199999998 8.1247451399999999 O
atom 2.3937089000000000 8.8827347600000000 2.9159524700000001 O
atom 2.9951926599999998 8.8243270200000001 8.1886037599999995 O
atom 7.5708296800000001 3.7694775300000001 3.2885574499999999 O
atom 7.9854812600000002 3.7621031500000002 8.5302641399999999 O
atom 7.5775666900000003 8.8832034600000007 3.3524566000000000 O
atom 7.8398494100000002 8.9023085700000006 8.5313124899999995 O
