lattice_vector 9.9706830100000001 0.0354871100000000 -0.0937577500000000 
lattice_vector 0.1095676200000000 10.1378572400000007 -0.0202439300000000 
lattice_vector -0.0490099800000000 0.0124807100000000 10.4084264300000005 
atom 1.1894809500000001 0.1114272300000000 1.9526775500000000 Si
atom 1.3423238300000000 0.1955775400000000 6.9385360299999999 Hf
atom 1.2438398700000000 5.1804166800000004 1.9427078099999999 Si
atom 1.3971578700000000 5.2645470000000003 6.9287272000000000 Hf
atom 1.3610337299999999 2.3129457800000002 4.2897455700000000 Hf
atom 1.3798920200000000 2.2874592900000001 9.5536386800000006 Hf
atom 1.4162338299999999 7.3820168300000004 4.2796580000000004 Hf
atom 1.4354646400000000 7.3575072900000000 9.5436981000000003 Hf
atom 3.5423804200000002 2.8424291199999998 1.7175046599999999 Hf
atom 3.5899838800000001 2.7874681300000002 6.9567804100000004 Hf
atom 3.5976363999999998 7.9109483000000003 1.7072506000000001 Hf
atom 3.6450822700000001 7.8564452800000000 6.9464570800000001 Hf
atom 3.5782543200000001 4.8927151899999997 4.2983977299999996 Hf
atom 3.6003428700000000 4.9430872099999998 9.6015398500000000 Hf
atom 3.6331057699999998 9.9617058800000002 4.2880327300000003 Hf
atom 3.6556006200000000 10.0117513099999993 9.5913557600000008 Hf
atom 6.3888346399999998 0.2455628900000000 0.7573563500000000 Hf
atom 6.3042741700000002 0.2287080200000000 5.9773459999999998 Hf
atom 6.4432568899999998 5.3142461000000001 0.7471613900000000 Hf
atom 6.3588618300000004 5.2972784300000004 5.9672161700000004 Hf
atom 6.3380358699999997 2.3322261599999998 3.3474909799999999 Hf
atom 6.3609824599999998 2.3704059499999999 8.5896679500000008 Hf
atom 6.3929808299999999 7.4012054300000001 3.3376522199999998 Hf
atom 6.4159533099999999 7.4390620500000004 8.5797518600000000 Hf
atom 8.7320053000000009 2.7196037400000002 0.8072857500000000 Hf
atom 8.5616165700000000 2.7477064300000000 5.9619049300000002 Hf
atom 8.7870737699999992 7.7883058800000002 0.7971938300000000 Hf
atom 8.6165320699999999 7.8166807900000004 5.9517063500000003 Hf
atom 8.5889064299999998 4.8688139100000001 3.3660311500000000 Hf
atom 8.6164207699999995 4.8694762100000002 8.5760303499999999 Hf
atom 8.6438146200000006 9.9374486300000004 3.3557497700000001 Hf
atom 8.6706746300000006 9.9379028599999994 8.5658006699999998 Hf
atom 0.5720568600000000 1.4879409500000000 0.9682264300000000 O
atom 0.2904302800000000 1.6042304199999999 5.9868516200000004 O
atom 0.6270828700000000 6.5570044400000000 0.9588429300000000 O
atom 0.3453911600000000 6.6732730000000000 5.9766293399999997 O
atom 0.3561879500000000 0.7642746900000000 3.3966432200000001 O
atom 0.3018480200000000 0.8756418800000000 8.6483579299999995 O
atom 0.4109687600000000 5.8329921000000002 3.3867383900000001 O
atom 0.3567607400000000 5.9451733700000000 8.6387837800000007 O
atom 4.7195876999999999 4.2574497600000001 0.8303681900000000 O
atom 4.6179614999999998 4.2818408300000002 6.0248472399999997 O
atom 4.7740375999999998 9.3267187499999995 0.8207267600000000 O
atom 4.6727317800000003 9.3509662500000008 6.0146246000000003 O
atom 4.5821177400000002 3.3514412700000000 3.4648397000000002 O
atom 4.6646307900000004 3.4575950199999999 8.6181939799999991 O
atom 4.6368027900000000 8.4201270800000003 3.4549733400000000 O
atom 4.7194657500000003 8.5265562199999998 8.6079834799999997 O
atom 2.6119734900000000 1.1836057099999999 2.7945952799999998 O
atom 2.7186542100000000 1.2333881400000000 8.1337071800000000 O
atom 2.6668676499999999 6.2526521700000002 2.7852748100000002 O
atom 2.7734690099999999 6.3025228599999998 8.1236144800000005 O
atom 3.0828659400000000 1.7087026500000000 0.1409497400000000 O
atom 2.7359201099999999 1.3181700900000000 5.5449386199999999 O
atom 3.1382586799999999 6.7774328900000000 0.1306082700000000 O
atom 2.7907132899999998 6.3869572200000002 5.5353293700000004 O
atom 2.1070216400000001 3.8610322300000002 3.0179765000000001 O
atom 2.2268208899999999 3.7915777799999999 8.3163403599999999 O
atom 2.1619082900000000 8.9303450600000005 3.0069194700000001 O
atom 2.2815826000000001 8.8603914600000007 8.3055971599999996 O
atom 2.1685781400000002 4.3077429699999996 0.6452443800000000 O
atom 2.2057185900000000 3.8159679000000000 5.6221877400000002 O
atom 2.2222214299999998 9.3755473800000004 0.6340071800000000 O
atom 2.2603957499999998 8.8847566499999999 5.6115844299999997 O
atom 5.3339894399999999 1.7478415899999999 1.6507746599999999 O
atom 5.3120949099999999 1.7512958900000000 6.8526793699999997 O
atom 5.3887173300000004 6.8168431900000002 1.6409355999999999 O
atom 5.3670715600000003 6.8203033599999996 6.8425589200000001 O
atom 5.2817726800000004 0.8351335500000000 4.2275934199999998 O
atom 5.3491951200000001 0.8437158900000000 9.4385074499999995 O
atom 5.3365182600000001 5.9041613100000001 4.2176222599999997 O
atom 5.4042263100000003 5.9125997200000002 9.4285584999999994 O
atom 9.7855598599999993 4.2374959399999996 1.6830299099999999 O
atom 9.6699522099999999 4.1678790699999997 6.8952764999999996 O
atom 9.8402206099999994 9.3065845199999995 1.6728312500000000 O
atom 9.7247394499999995 9.2365806900000003 6.8850958999999996 O
atom 9.6044833799999996 3.3733130999999998 4.2413856200000000 O
atom 9.6795659900000004 3.4214384400000002 9.5536723499999994 O
atom 9.6595528000000002 8.4423258600000004 4.2311387900000001 O
atom 9.7342566999999995 8.4904540500000003 9.5436166399999998 O
atom 7.7807675200000004 1.2819298900000000 9.9099723100000006 O
atom 7.7066775500000002 1.2551698600000001 4.6732138100000000 O
atom 7.8355939100000001 6.3508626899999996 9.8999948599999996 O
atom 7.7614533000000003 6.3240433700000001 4.6632959200000004 O
atom 7.7706400799999997 1.2871817999999999 2.0777568799999999 O
atom 7.7275625300000002 1.2970843700000001 7.2879313799999998 O
atom 7.8253402000000003 6.3561819799999997 2.0676882200000000 O
atom 7.7823781500000004 6.3661705900000003 7.2777547800000004 O
atom 7.2678486400000004 3.7948278400000000 9.9148464700000005 O
atom 7.1910652400000004 3.7942119700000001 4.6855548200000001 O
atom 7.3223304699999998 8.8637620899999998 9.9047234700000004 O
atom 7.2457699000000000 8.8631561899999998 4.6756281000000000 O
atom 7.3146967500000004 3.8112176799999999 2.0772052099999998 O
atom 7.2212025799999999 3.8497527699999998 7.2931227200000004 O
atom 7.3693602699999996 8.8802751299999994 2.0669068099999999 O
atom 7.2758790600000003 8.9187080900000009 7.2829558199999997 O
