lattice_vector 10.0459113999999996 -0.0353975200000000 -0.0334252400000000 
lattice_vector 0.0012877100000000 10.2712996899999993 -0.0034597200000000 
lattice_vector -0.0174137100000000 -0.0178149200000000 10.4430171299999994 
atom 1.1750577499999999 -0.0059519300000000 1.6207851900000001 La
atom 1.3885657700000000 0.2016938700000000 7.0013903700000002 Hf
atom 1.3945137400000001 5.3346447399999999 1.7853958299999999 Hf
atom 1.3835685000000000 5.3508996900000003 6.9939353400000002 Hf
atom 1.3672848399999999 2.2933403499999998 4.3685997600000004 Hf
atom 1.3779995000000000 2.3709013900000002 9.5865121400000000 Hf
atom 1.3860430200000000 7.4584295000000003 4.3820940799999999 Hf
atom 1.4087395300000001 7.4812489299999996 9.6258582199999996 Hf
atom 3.5782757799999998 2.7094062600000002 1.7645796300000001 Hf
atom 3.6013278099999999 2.7608317599999999 6.9803514399999997 Hf
atom 3.6954324999999999 7.8722516799999998 1.7721914700000001 Hf
atom 3.6009355599999999 7.8987732900000003 6.9816986600000002 Hf
atom 3.6031978900000001 4.8758609200000000 4.3698213099999998 Hf
atom 3.6104147700000002 4.8826310299999998 9.6094832100000005 Hf
atom 3.6072134100000000 10.0328165100000000 4.3538183500000001 Hf
atom 3.6665933700000002 10.0448626000000001 9.5795126300000000 Hf
atom 6.4453525599999999 0.2043684100000000 0.8047957800000000 Hf
atom 6.3672586999999998 0.1835980500000000 6.0578595399999999 Hf
atom 6.3918361900000003 5.2823096700000001 0.8046055400000000 Hf
atom 6.3930678800000003 5.3151631899999998 6.0088752599999999 Hf
atom 6.3769817499999997 2.3339787599999999 3.4144032900000001 Hf
atom 6.4031427799999996 2.3332370199999999 8.6245836600000008 Hf
atom 6.4256406300000002 7.4390386599999996 3.4248455700000000 Hf
atom 6.3808699700000000 7.4524932399999999 8.6127748600000000 Hf
atom 8.6427980000000009 2.7913668999999999 0.7734245800000000 Hf
atom 8.6504935199999995 2.7533007399999998 6.0195648700000000 Hf
atom 8.5850937900000002 7.8069283599999997 0.7902797100000000 Hf
atom 8.6439490699999997 7.8707884699999999 6.0176289199999999 Hf
atom 8.6507629599999998 4.8742686400000004 3.4109491900000002 Hf
atom 8.6348270300000003 4.8886725999999996 8.6019719600000002 Hf
atom 8.5461911399999995 10.0655116000000007 3.5283757499999999 Hf
atom 8.6457714499999998 10.0321099300000007 8.6421394599999992 Hf
atom 0.3316811500000000 1.9037943500000001 0.8568060700000000 O
atom 0.3260620700000000 1.7172377400000001 6.1398897400000001 O
atom 0.3855569100000000 7.0018811400000001 1.0022758700000001 O
atom 0.3303834600000000 6.8590974700000000 6.1097033100000004 O
atom 0.2219301300000000 0.8172614100000000 3.6017065599999998 O
atom 0.3373130000000000 0.8499253800000000 8.7264907600000008 O
atom 0.3536157800000000 5.9400723800000002 3.5268298699999998 O
atom 0.2964186500000000 6.0359258400000000 8.7232965100000008 O
atom 4.6725756799999996 4.2366471600000004 0.8673843000000000 O
atom 4.6699050499999997 4.2466850100000002 6.0749728799999998 O
atom 4.7720730199999997 9.3881695799999996 0.8591726900000000 O
atom 4.6508525399999998 9.3897526500000001 6.0811739700000000 O
atom 4.6609180099999996 3.3949669500000001 3.4682724999999999 O
atom 4.6653997900000004 3.3913165599999999 8.6882087099999996 O
atom 4.7535397200000000 8.5665565499999996 3.4500856799999999 O
atom 4.6917846200000000 8.5431670200000003 8.6554406000000004 O
atom 2.7680566500000001 1.2553297000000001 3.0892837200000001 O
atom 2.7664669499999999 1.2508495200000000 8.2475921400000001 O
atom 2.7976279200000000 6.3498090800000000 3.0547893099999999 O
atom 2.7615206799999998 6.3930594000000003 8.2877460099999993 O
atom 2.8276495200000000 1.3205774900000000 0.3503565600000000 O
atom 2.7556401500000001 1.2678054599999999 5.6652222999999999 O
atom 2.7455059300000002 6.3648250199999996 0.4530663300000000 O
atom 2.7579321499999998 6.4060646300000004 5.6680290800000002 O
atom 2.2092985600000001 3.8043495300000001 3.0494400100000001 O
atom 2.2295424200000000 3.8395678300000000 8.2727968399999998 O
atom 2.3229689900000001 8.8407583400000007 3.0965178999999998 O
atom 2.2300249600000002 8.9565485400000000 8.2697300299999998 O
atom 2.2373573699999998 3.8601832400000000 0.4503627700000000 O
atom 2.2187357300000001 3.8449977799999999 5.6667935600000003 O
atom 2.4963477400000000 8.8416770000000007 0.3433453200000000 O
atom 2.2180445999999998 8.9851499399999994 5.6685217100000003 O
atom 5.3597602300000000 1.6870506199999999 1.6983569700000001 O
atom 5.3385296699999998 1.6919582600000000 6.9292187500000004 O
atom 5.3969339800000000 6.8072674199999996 1.7067917699999999 O
atom 5.3342736899999998 6.8107043500000000 6.9190721300000000 O
atom 5.3517477900000001 0.8171370000000000 4.3188441900000001 O
atom 5.4048459299999996 0.8135081700000000 9.5281617000000001 O
atom 5.3483190599999997 5.9618728399999998 4.3100444400000004 O
atom 5.3408869799999996 5.9611092899999996 9.5499657500000001 O
atom 9.6562959399999997 4.3432888299999997 1.6416674600000001 O
atom 9.6863712199999998 4.2795178399999996 6.8906228799999996 O
atom 9.7036046900000006 9.3321633800000008 6.9726117800000003 O
atom 9.6780000299999998 3.3537588199999999 4.2855720100000001 O
atom 9.6684314400000009 3.4017774099999998 9.4651096700000004 O
atom 9.6712021299999993 8.5005296099999992 4.2417574699999996 O
atom 9.8077429699999996 8.7266543700000003 9.8033957899999997 O
atom 7.8059581199999997 1.2484222599999999 9.9587896400000009 O
atom 7.7373029100000004 1.2555015199999999 4.7827384200000003 O
atom 7.7900245999999997 6.3738830300000000 9.9541117700000008 O
atom 7.7984466299999999 6.3643036200000003 4.7313039200000002 O
atom 7.8005608600000000 1.2580927799999999 2.1465230499999999 O
atom 7.7887831500000004 1.2626872700000000 7.3636745200000000 O
atom 7.7886816699999999 6.3684752199999997 2.1284210300000002 O
atom 7.7744838800000000 6.4100928899999996 7.3314630500000000 O
atom 7.2416874800000004 3.8232805299999999 9.9298196900000004 O
atom 7.2547900500000004 3.8135164000000001 4.7265364900000000 O
atom 7.2852853700000004 8.9201909199999996 9.9423218999999996 O
atom 7.2293112600000002 8.9276379400000003 4.7762361300000000 O
atom 7.2547438099999999 3.8199433800000002 2.1202465099999999 O
atom 7.2571063200000001 3.8320644000000001 7.3268998400000003 O
atom 7.3941781600000001 8.9466711399999994 2.1210959900000002 O
atom 7.2646506999999998 8.9688360500000002 7.3543214900000002 O
