lattice_vector 10.0081138700000007 0.0203369400000000 0.0178499400000000 
lattice_vector 0.0066202500000000 10.4186370900000007 -0.0934954900000000 
lattice_vector 0.0447049600000000 -0.0546596200000000 10.0394314199999997 
atom 1.1588022000000000 0.2731910900000000 1.1471359500000000 Si
atom 1.3902421599999999 0.1422108300000000 6.3027325599999999 Hf
atom 1.2845014299999999 5.3063891600000002 1.1781205299999999 Hf
atom 1.3917193999999999 5.3510077300000001 6.2355570100000000 Hf
atom 6.3473711399999999 0.2210557900000000 1.2396352700000000 Hf
atom 6.3242823499999998 0.1792298100000000 6.2751376600000004 Hf
atom 6.3115256000000004 5.2264616699999999 1.1999371000000001 La
atom 6.3738352100000002 5.3462935199999997 6.2077087300000002 Hf
atom 1.3346138700000001 2.3089013000000000 3.7019773699999998 Hf
atom 1.4018653200000000 2.4275989999999998 8.7557279200000000 Hf
atom 1.3603409399999999 7.5683985700000003 3.7185360300000001 Hf
atom 1.3508372500000001 7.6447806199999997 8.7562374399999996 Hf
atom 6.3757368799999998 2.3808581100000001 3.7843276700000001 Hf
atom 6.4037707099999999 2.4119905199999998 8.7476553199999998 Hf
atom 6.5476091399999996 7.7232953499999999 3.8891661800000001 Hf
atom 6.4065840800000000 7.6737885199999996 8.6516086500000000 Hf
atom 3.6596501899999998 2.7772025800000000 1.1780024400000000 Hf
atom 3.6919791300000000 2.7477382100000001 6.2198010899999998 Hf
atom 3.8299464599999999 7.8076119500000001 1.2306881599999999 La
atom 3.7068623000000001 7.9983489099999998 6.2406053400000001 Hf
atom 8.7300065900000003 2.7225076499999998 1.2068180399999999 Hf
atom 8.7160392000000009 2.7498570400000002 6.2405922000000000 Hf
atom 8.7304702299999999 7.9889067899999997 1.1676535299999999 Hf
atom 8.7710922199999999 7.9901040600000002 6.2507409500000000 Hf
atom 3.6406275199999998 4.9799719400000004 3.7731190600000000 Hf
atom 3.6732972799999999 5.0479109600000003 8.7212702899999996 Hf
atom 3.6397101599999999 10.1695934000000001 3.6498723599999998 Hf
atom 3.6410616000000000 10.2721293800000009 8.7747418800000005 Hf
atom 8.7011347600000004 5.0208411699999997 3.7318657399999999 Hf
atom 8.7285652700000007 5.0288609099999997 8.7070900099999999 Hf
atom 8.7629441000000003 10.2580260100000000 3.6502481100000002 Hf
atom 8.7280711100000001 10.2542286899999997 8.7167376999999995 Hf
atom 0.3560300800000000 1.7652968499999999 1.8759076500000000 O
atom 0.3531630000000000 1.8553547200000000 7.0285578600000003 O
atom 0.3232735400000000 7.0769379199999998 1.9143723699999999 O
atom 0.3978823900000000 7.0813868500000003 6.9688143499999997 O
atom 5.3218617500000001 1.9791647100000000 1.9990723699999999 O
atom 5.3855407099999999 1.9319053100000001 6.9719095099999997 O
atom 5.4563708399999999 7.1404619199999999 6.7882903600000004 O
atom 0.3627745800000000 0.6380613600000000 4.5412148999999999 O
atom 0.4046129500000000 0.6597288600000000 9.6580414000000001 O
atom 0.3360601000000000 5.8390574900000001 4.5038558599999998 O
atom 0.3130922100000000 5.9042676500000004 9.4574593100000008 O
atom 5.3731640199999999 0.6829083500000001 4.4963608400000004 O
atom 5.3417339500000001 0.7902165000000000 9.5456922199999994 O
atom 5.4250692200000001 5.9275368000000004 4.1846256600000000 O
atom 5.2283121799999996 6.1332921300000001 9.3842076900000002 O
atom 4.3416604999999997 4.6255129600000000 1.9023268700000000 O
atom 4.6628498499999997 4.5306222199999997 6.9061446999999996 O
atom 4.8479998799999997 9.7331071999999992 2.0139590500000000 O
atom 4.6660956699999998 9.7524692000000002 6.8872874800000004 O
atom 9.6409978600000006 4.4927997800000004 1.9455767900000001 O
atom 9.7141559300000004 4.4772282099999998 6.9533981599999999 O
atom 9.9275846500000000 9.7686982400000009 1.8264789500000000 O
atom 9.7489318399999991 9.7082259000000004 6.9558826800000002 O
atom 4.7084727600000003 3.3071859500000000 4.4661467799999999 O
atom 4.8161928100000004 3.4392615400000000 9.5451641200000008 O
atom 4.7342091499999999 8.4767130599999998 4.4004345000000002 O
atom 4.7279153799999998 8.6426597600000008 9.2742476600000003 O
atom 9.6880429499999998 3.2483191100000002 4.4334082099999996 O
atom 9.7953658800000003 3.3192533700000002 9.5106289799999999 O
atom 9.6694765700000005 8.4951205200000004 4.4159252200000001 O
atom 9.6681173999999999 8.5185204900000002 9.3956752199999993 O
atom 2.4265929200000000 0.8365595400000000 2.3425948700000001 O
atom 2.7520624599999999 1.2100381099999999 7.4712643300000003 O
atom 2.4899247899999999 6.1787454899999998 2.5552700800000001 O
atom 2.7525888100000002 6.4468351300000002 7.4603585399999996 O
atom 7.7201462799999998 1.1500737400000001 2.4708880899999999 O
atom 7.7345172399999997 1.2040447700000001 7.5049732799999997 O
atom 7.7079810000000002 6.5437375299999996 2.5440574800000002 O
atom 7.7264741399999997 6.3925130399999999 7.4649849200000000 O
atom 2.7471891500000001 1.3580056199999999 4.9185979599999996 O
atom 2.7347303400000000 1.4389976900000001 9.9677695600000007 O
atom 2.7500573300000002 6.5597395799999996 4.9867911999999999 O
atom 2.5930748000000001 6.4991145000000001 9.9233251899999999 O
atom 7.7561286400000000 1.3643934900000001 4.9894398700000000 O
atom 7.7552740900000003 1.3518523700000000 9.9961118599999992 O
atom 7.7588370600000003 6.5832942100000000 5.0406736299999997 O
atom 7.7534828300000003 6.6496038200000003 9.9272950000000009 O
atom 2.2945257600000000 3.9214715299999998 4.9873375600000003 O
atom 2.3705968500000001 3.9579621600000001 9.9658740600000009 O
atom 2.3506397400000001 9.1621970699999995 5.0504584799999996 O
atom 2.2107152299999999 9.3983777899999996 10.1888794800000007 O
atom 7.3481087699999996 3.9902819699999998 4.9663939700000004 O
atom 7.4978100400000001 3.8461843500000001 9.8883718100000007 O
atom 7.4087318099999999 9.2345676700000006 4.9729678699999997 O
atom 7.3461119799999999 9.2161351600000003 9.9469180900000005 O
atom 2.2601495400000000 3.6018313200000001 2.4516572999999999 O
atom 2.3509780100000000 3.8027443299999999 7.4829616300000001 O
atom 2.4976049499999999 8.7735594700000004 2.6671351900000002 O
atom 2.3422208200000001 9.0368020300000005 7.5666900500000001 O
atom 7.4469926299999996 3.6560225499999999 2.5353155799999998 O
atom 7.3225185100000001 3.8160636399999999 7.4334120099999996 O
atom 7.4132852600000003 9.0075189699999996 2.4320827999999999 O
atom 7.3869812599999998 9.0458657700000007 7.4334243400000002 O
