lattice_vector 9.9721053699999995 -0.0316970900000000 0.0168402300000000 
lattice_vector 0.0028695600000000 10.4062819599999994 -0.0103116200000000 
lattice_vector -0.0186503200000000 -0.0164657900000000 10.0052018700000005 
atom 1.0980466300000000 0.2851408300000000 1.1782228400000001 Si
atom 1.3412882699999999 0.1484882000000000 6.2352825200000002 Hf
atom 1.3286842100000000 5.3751856599999996 1.2495485900000001 Hf
atom 1.3535212000000001 5.3310386000000003 6.2327436499999997 Hf
atom 6.3211940899999997 0.1521537600000000 1.2781579300000001 Hf
atom 6.3038534899999998 0.1226161800000000 6.2527535099999998 Hf
atom 6.3148747500000004 5.3845459499999997 1.3073954999999999 Hf
atom 6.3301831699999997 5.3593024099999997 6.2434282699999999 Hf
atom 1.2963563300000001 2.3720272400000000 3.6714594400000000 Hf
atom 1.2470495100000001 2.5553599000000000 8.7592281500000002 La
atom 1.3516779600000000 7.5912126000000004 3.7824709400000001 Hf
atom 1.2395938000000000 7.6066988599999998 8.7084644099999995 Hf
atom 6.3252554800000000 2.3727569700000002 3.8000410100000002 Hf
atom 6.2901491199999997 2.4180446099999999 8.7483627100000003 Hf
atom 6.3280620599999997 7.6340148100000000 3.7640934700000002 Hf
atom 6.2874975700000002 7.6300280599999999 8.7724056099999999 Hf
atom 3.7131596700000000 2.7670897000000001 1.2127471999999999 Hf
atom 3.6707898999999999 2.7406999800000000 6.2115336299999999 Hf
atom 3.6476988900000000 7.9692928700000003 1.2751577100000000 Hf
atom 3.6488326899999999 7.9731044300000002 6.2863707299999998 Hf
atom 8.5617196900000003 2.7534827399999999 1.2887311299999999 Hf
atom 8.6171869900000004 2.7372879999999999 6.2510533500000003 Hf
atom 8.7034380500000008 7.9411993399999998 1.2553627500000000 Hf
atom 8.6328286599999995 7.9503282100000003 6.2650061600000004 Hf
atom 3.6554849200000001 4.9864283800000004 3.7453194000000001 Hf
atom 3.6841518999999998 5.0836506500000000 8.7040734700000009 Hf
atom 3.6219942100000000 10.1806710700000007 3.6904332300000000 Hf
atom 3.6158936100000001 10.2038789800000007 8.7854815300000002 Hf
atom 8.6400784200000000 4.9948021999999996 3.7609041699999999 Hf
atom 8.5381421700000004 5.0084660200000002 8.7922967799999991 Hf
atom 8.6897889100000008 10.2007272199999992 3.7484455300000001 Hf
atom 8.6142744800000006 10.1997892599999993 8.7782749500000001 Hf
atom 0.3194250500000000 1.8253467000000001 1.8170150599999999 O
atom 0.3146865000000000 1.8274066400000000 6.7301944100000002 O
atom 0.3562586200000000 7.0946475199999997 1.9771692100000000 O
atom 0.3323180800000000 7.0606825799999999 6.9268454500000001 O
atom 5.2859846299999997 1.8553897200000000 2.0474377600000002 O
atom 5.3609277600000000 1.8776533300000000 6.9309487900000004 O
atom 5.3267295299999997 7.1055236600000002 1.9970248900000001 O
atom 5.3118903199999998 7.0646913500000004 6.9965837200000003 O
atom 0.4063399700000000 0.6256349700000000 4.3863641900000001 O
atom 0.3022623000000000 0.5705345700000000 9.6766539900000001 O
atom 0.3558711700000000 5.8404978900000000 4.4513858600000002 O
atom 0.3086052600000000 5.8419037600000001 9.4490966499999995 O
atom 5.3340499200000000 0.6531789099999999 4.4729341399999996 O
atom 5.1965916099999996 0.7520139700000000 9.5793561900000004 O
atom 5.3551636900000004 5.8794598499999999 4.4338258699999997 O
atom 5.3001565099999999 5.9255366299999999 9.5161039499999998 O
atom 4.6468274699999998 4.4596148700000002 1.9418403200000001 O
atom 4.7020311000000001 4.4684770800000004 6.9508904600000001 O
atom 4.7198784600000003 9.6545966900000000 2.0058013500000000 O
atom 4.6602364999999999 9.6652198100000000 7.0218296899999997 O
atom 9.6379135300000005 4.4334128499999998 1.9835422500000000 O
atom 9.6760167700000004 4.4017000900000003 7.0471755299999996 O
atom 9.8864009500000005 9.6999170499999998 1.9381084200000001 O
atom 9.6580820999999997 9.6478315299999995 7.0192234500000001 O
atom 4.6679012000000002 3.2877947600000001 4.4634063499999996 O
atom 4.5481170799999999 3.2357094700000002 9.3797538700000000 O
atom 4.6810936900000000 8.5099772900000001 4.5304603800000001 O
atom 4.5795060200000002 8.5052291100000001 9.4727620100000003 O
atom 9.5964076600000006 3.2088021300000000 4.4051622600000000 O
atom 9.3082258000000007 3.2830096499999999 9.5225070699999996 O
atom 9.6426345199999997 8.4554247000000000 4.4802820700000003 O
atom 9.5567378699999992 8.4212557900000000 9.4459424300000006 O
atom 2.4624132799999998 0.9668120000000000 2.1763940300000000 O
atom 2.7520204399999999 1.1546033200000001 7.4448267599999998 O
atom 2.6902962800000001 6.2975170699999996 2.4741214500000002 O
atom 2.6695237199999999 6.4331776400000003 7.4877432500000003 O
atom 7.6722619200000004 1.1711602400000001 2.5120004300000001 O
atom 7.6746791400000003 1.1807419400000001 7.5164126600000003 O
atom 7.7042040099999998 6.3965503999999997 2.5067184000000000 O
atom 7.6556014100000001 6.4126360599999996 7.5049519599999996 O
atom 2.7263863900000000 1.3725536599999999 4.8550309499999997 O
atom 2.7257062099999998 6.5505429399999997 4.9963871099999997 O
atom 2.5886625900000002 6.7295370200000004 9.9839404900000002 O
atom 7.7070883500000003 1.3197990700000000 5.0016610899999998 O
atom 7.5958852700000001 1.3425542699999999 10.0122529300000007 O
atom 7.6851235300000003 6.5708718299999997 4.9987502499999996 O
atom 7.6496227799999996 6.5728654500000001 10.0262532800000006 O
atom 2.2716040400000002 3.9377243000000002 4.9275746199999997 O
atom 2.4299445799999999 4.1543195500000003 10.0466140900000003 O
atom 2.3159513600000001 9.1576817500000001 5.0519707000000000 O
atom 2.2260556199999999 9.5606115900000006 10.2706588700000001 O
atom 7.3007155800000003 3.9533461700000001 5.0162208499999998 O
atom 7.0884061599999999 3.9681283600000001 10.0293847399999994 O
atom 7.3180808900000001 9.1651126499999993 4.9918905699999998 O
atom 7.2442821999999998 9.1731777999999995 9.9970375199999992 O
atom 2.3304867499999999 3.6897674000000000 2.4532840899999999 O
atom 2.4166057200000002 3.9127260399999999 7.3704472299999999 O
atom 2.4825943900000000 8.7922940999999994 2.6563768799999998 O
atom 2.2807400300000000 8.9986013299999996 7.5853585900000002 O
atom 7.2472298000000004 3.7988051299999999 2.5319976000000000 O
atom 7.2705667500000004 3.8080628999999999 7.5087907600000001 O
atom 7.4074237299999997 8.9927052799999991 2.4822450599999999 O
atom 7.2798209099999998 8.9940236599999999 7.5027871299999997 O
