lattice_vector 5.0945581000000004 0.0230090400000000 0.0121095400000000 
lattice_vector -0.0485128300000000 10.4574496400000001 -0.0595926300000000 
lattice_vector -0.0250680300000000 0.0121897100000000 10.3423776699999994 
atom 1.2804813500000001 0.0010232000000000 1.0869759100000000 La
atom 1.2575708000000001 -0.0066034500000000 6.2713950199999999 Hf
atom 1.2508630700000001 5.2145795499999998 1.5947432500000001 Hf
atom 1.2343396300000000 5.2267111399999999 6.9214322900000003 Hf
atom 1.4820797400000001 2.4559828100000001 3.8056144999999999 Hf
atom 1.5669501400000001 2.4906177199999999 8.9295536700000007 Hf
atom 0.9819669400000000 8.0020411800000009 3.7551821200000002 Hf
atom 0.8832330100000000 7.9869212699999999 8.8967705800000001 Hf
atom 4.0327470900000000 2.7815821900000000 1.3776719300000000 Hf
atom 4.1189517499999999 2.7639858600000000 6.6002990199999996 Hf
atom 3.5358798299999998 7.6896400500000004 1.3735955900000001 Hf
atom 3.4379694500000002 7.7190499499999996 6.5717270699999997 Hf
atom 3.8187611900000000 0.0214058000000000 3.5912287400000000 Hf
atom 3.8033014000000001 0.0260132500000000 8.6085296400000004 Hf
atom 3.7942134099999998 5.2353416199999998 4.0992923499999998 La
atom 3.7716020600000002 5.2590618300000003 9.2586437000000004 Hf
atom 0.2152013400000000 1.9210859700000000 0.0147834000000000 O
atom 0.1435020200000000 1.6710209700000000 5.2586140300000004 O
atom -0.2359463300000000 6.9254379799999999 -0.1267064900000000 O
atom -0.2658760300000000 7.1469049399999998 5.1309220299999998 O
atom 0.0327706000000000 1.2327288300000001 2.6474282400000000 O
atom 0.1396204300000000 1.1610995600000000 7.7306226899999997 O
atom -0.0818097400000000 6.4621867300000000 2.4950502999999999 O
atom -0.2137162100000000 6.3822087600000001 7.7625520799999999 O
atom 0.1357972700000000 3.7086769899999998 2.7624304099999999 O
atom 0.0843392100000000 3.7692320700000002 8.1374233000000000 O
atom -0.2094208800000000 8.9496618899999998 2.3555174800000001 O
atom -0.1826956000000000 8.9912887599999998 7.3371650900000001 O
atom -0.1066150900000000 4.4400558400000003 0.3519613900000000 O
atom 0.1485290500000000 4.2165461500000001 5.6063295399999999 O
atom -0.1998618800000000 9.4730136599999994 -0.4954575000000000 O
atom -0.0034774100000000 9.6540073399999997 4.7812061300000002 O
atom 2.6972821300000001 1.5161737200000001 2.4173716800000000 O
atom 2.6445365600000001 1.4715598100000000 7.3862392799999999 O
atom 2.3457658000000001 6.7306325100000004 2.7654246900000001 O
atom 2.3720168500000001 6.7053978399999998 8.1259646500000002 O
atom 2.7284248299999998 1.0160283600000000 -0.4231262100000000 O
atom 2.4486816600000001 0.7847700300000000 4.8270088199999996 O
atom 2.5691040699999999 6.0319394300000004 0.3401220200000000 O
atom 2.3463928799999998 6.2116233500000000 5.6153680200000000 O
atom 2.6913211800000001 3.5604732200000000 -0.0775547400000000 O
atom 2.7440736800000001 3.3053985300000002 5.1650255200000004 O
atom 2.2875185600000001 8.5349218600000007 -0.0098333500000000 O
atom 2.2910455999999999 8.7577982300000006 5.2473961800000000 O
atom 2.5644366299999999 3.9913568800000001 2.5325309499999999 O
atom 2.6731517899999999 4.0804869999999998 7.7914032500000001 O
atom 2.4538250100000001 9.2189916200000006 2.6258767900000000 O
atom 2.3215556400000001 9.3146241599999993 7.7013809300000000 O
