lattice_vector 10.1720919999999992 0.0578180000000000 0.7349380000000000 
lattice_vector 0.0181110000000000 10.2152010000000004 -0.0479040000000000 
lattice_vector 0.8679570000000000 -0.0410600000000000 10.5405529999999992 
atom 1.3021119999999999 0.2128580000000000 1.7539730000000000 Si
atom 2.0072350000000001 0.2239510000000000 6.8458100000000002 Hf
atom 1.4801930000000001 5.3481740000000002 1.6349240000000000 Hf
atom 2.0588519999999999 5.1958120000000001 6.6989380000000001 Hf
atom 6.6013710000000003 0.2555550000000000 2.0568520000000001 Hf
atom 7.1151679999999997 0.2226600000000000 7.2387940000000004 Hf
atom 6.5573680000000003 5.3408740000000003 1.9834250000000000 Hf
atom 7.1073839999999997 5.3579970000000001 7.2120930000000003 Hf
atom 1.7389889999999999 2.2958270000000001 4.1486630000000000 Hf
atom 2.2493180000000002 2.3361380000000000 9.4773770000000006 Hf
atom 1.7801790000000000 7.4135770000000001 4.2536399999999999 Hf
atom 2.1199599999999998 7.7919799999999997 9.5622900000000008 La
atom 6.8741640000000004 2.3419340000000002 4.6226599999999998 Hf
atom 7.2761969999999998 2.3186480000000000 9.9684600000000003 Hf
atom 6.8382339999999999 7.4529420000000002 4.6284979999999996 Hf
atom 7.2665829999999998 7.5574740000000000 9.9418849999999992 Hf
atom 3.7131780000000001 2.7209449999999999 1.3045880000000001 Hf
atom 4.2768470000000001 2.7877860000000001 6.5616490000000001 Hf
atom 3.7003800000000000 7.9574220000000002 1.4141379999999999 Hf
atom 4.2247040000000000 7.9097640000000000 6.5873999999999997 Hf
atom 8.9516449999999992 2.7369260000000000 1.7565409999999999 Hf
atom 9.3640120000000007 2.8251010000000001 7.0093329999999998 Hf
atom 8.7814750000000004 7.8845400000000003 1.7491080000000001 Hf
atom 9.3532810000000008 7.8804980000000002 7.0085740000000003 Hf
atom 4.0132570000000003 4.8703770000000004 3.9196650000000002 Hf
atom 4.4578639999999998 5.0546300000000004 9.3250799999999998 La
atom 3.9820050000000000 9.9773910000000008 3.9176090000000001 Hf
atom 4.5385090000000003 10.1203839999999996 9.1856880000000007 Hf
atom 9.0697890000000001 4.9034680000000002 4.3462909999999999 Hf
atom 9.3376859999999997 4.8278910000000002 9.6888880000000004 Hf
atom 9.0990920000000006 9.9874519999999993 4.3494520000000003 Hf
atom 9.5202259999999992 10.0951660000000007 9.5498680000000000 Hf
atom 0.5558900000000000 1.4692390000000000 0.8265380000000000 O
atom 0.8529690000000000 1.6465490000000000 6.0061920000000004 O
atom 0.1133910000000000 6.5200600000000000 0.7070750000000000 O
atom 0.8726190000000000 6.7076140000000004 6.0827179999999998 O
atom 5.4827060000000003 1.6348050000000001 1.1897500000000001 O
atom 5.9752539999999996 1.6664980000000000 6.4212040000000004 O
atom 5.3995899999999999 6.7911020000000004 1.1385950000000000 O
atom 5.9260650000000004 6.7769199999999996 6.4027040000000000 O
atom 0.6219940000000000 0.7924540000000000 3.3077529999999999 O
atom 1.1085959999999999 0.8215920000000000 8.7108960000000000 O
atom 0.5767750000000000 6.0074189999999996 3.4155099999999998 O
atom 5.6947239999999999 0.9029690000000000 3.8338369999999999 O
atom 6.2725410000000004 0.8428730000000000 9.0638070000000006 O
atom 5.7063129999999997 6.0038049999999998 3.7807210000000002 O
atom 6.4115729999999997 6.0916189999999997 8.9537530000000007 O
atom 4.8843389999999998 4.2198609999999999 2.1387909999999999 O
atom 5.4440320000000000 4.2154220000000002 7.2999029999999996 O
atom 4.9279970000000004 9.3410379999999993 2.2001480000000000 O
atom 5.4659339999999998 9.3205629999999999 7.3935930000000001 O
atom 10.0393550000000005 4.1276010000000003 2.6563080000000001 O
atom 10.4660030000000006 4.3248660000000001 7.9739279999999999 O
atom 10.1130580000000005 9.3469359999999995 2.4738419999999999 O
atom 10.5203140000000008 9.3223579999999995 7.8274809999999997 O
atom 5.1664479999999999 3.4216160000000002 4.7499079999999996 O
atom 5.6727239999999997 3.3900299999999999 10.1815499999999997 O
atom 5.1252370000000003 8.5609520000000003 4.7889840000000001 O
atom 5.3864799999999997 8.5023959999999992 10.0660089999999993 O
atom 10.2803149999999999 3.5324480000000000 5.2476430000000001 O
atom 10.6762160000000002 3.5075400000000001 10.5209779999999995 O
atom 10.2421109999999995 8.5805050000000005 5.1972980000000000 O
atom 10.2134529999999994 8.4451090000000004 10.3984260000000006 O
atom 2.7700969999999998 1.1539400000000000 2.4537580000000001 O
atom 3.4652729999999998 1.3493370000000000 7.8451360000000001 O
atom 2.9914060000000000 6.3912360000000001 2.7570510000000001 O
atom 3.1594669999999998 6.4811899999999998 7.8221140000000000 O
atom 8.1268349999999998 1.3135209999999999 3.1071309999999999 O
atom 8.6001390000000004 1.3555560000000000 8.3274419999999996 O
atom 8.0496449999999999 6.4221240000000002 3.0966559999999999 O
atom 8.7758760000000002 6.4223939999999997 8.3874440000000003 O
atom 3.2167119999999998 1.2612000000000001 5.2076110000000000 O
atom 3.8831560000000001 1.4914540000000001 10.3036910000000006 O
atom 3.2765819999999999 6.3218209999999999 5.2882800000000003 O
atom 3.4854280000000002 6.5138270000000000 10.8684840000000005 O
atom 8.3896719999999991 1.2568790000000001 5.7174550000000002 O
atom 8.7892539999999997 1.2209019999999999 11.0247489999999999 O
atom 8.3277120000000000 6.3710750000000003 5.7203489999999997 O
atom 8.6332380000000004 6.3147300000000000 11.0049329999999994 O
atom 2.1901380000000001 3.8629419999999999 0.3396640000000000 O
atom 2.7844310000000001 3.8280360000000000 5.4137540000000000 O
atom 2.2583039999999999 9.4649970000000003 0.5287900000000000 O
atom 2.7499920000000002 8.9640430000000002 5.4968750000000002 O
atom 7.4202459999999997 3.8506550000000002 0.6836620000000000 O
atom 7.8949860000000003 3.8628000000000000 5.9035640000000003 O
atom 7.2123160000000004 9.0044769999999996 0.7333290000000000 O
atom 7.8654929999999998 8.9715009999999999 5.8877910000000000 O
atom 2.5446490000000002 3.7230620000000001 2.8846520000000000 O
atom 2.8666779999999998 3.7614850000000000 8.0342540000000007 O
atom 2.4957850000000001 8.8547119999999993 2.9435929999999999 O
atom 3.1483449999999999 9.0888939999999998 8.0194779999999994 O
atom 7.6204099999999997 3.7911839999999999 3.2620110000000002 O
atom 8.0385969999999993 3.7940450000000001 8.5728000000000009 O
atom 7.6640870000000003 8.9140720000000009 3.2973669999999999 O
atom 8.0741589999999999 8.9329040000000006 8.5187550000000005 O
