lattice_vector 9.9579295499999994 -0.0203080800000000 0.0581320100000000 
lattice_vector 0.0118712600000000 10.4013764299999991 -0.0702197200000000 
lattice_vector -0.0030500800000000 -0.0613142100000000 10.0143507599999992 
atom 1.1803784100000001 0.3535260300000000 1.1183281400000000 Si
atom 1.3141734599999999 0.1609525100000000 6.3206103100000002 Hf
atom 1.3198760500000000 5.3396555200000000 1.1945497700000001 Hf
atom 1.3627190600000001 5.3216318300000003 6.2336391000000004 Hf
atom 6.3225022299999996 0.1849988900000000 1.3208648000000001 Hf
atom 6.2496372200000003 0.0836752600000000 6.2632623499999998 Hf
atom 6.3579176100000003 5.3795104900000004 1.2760209400000000 Hf
atom 6.2008059299999996 5.2503428500000000 6.1882280800000000 La
atom 1.3548408400000000 2.3090620600000000 3.6707084200000000 Hf
atom 1.3020027599999999 2.4161790399999998 8.8112450100000004 Hf
atom 1.3607672399999999 7.5416411900000000 3.7432387399999998 Hf
atom 1.2948592699999999 7.6058581399999996 8.7436968200000003 Hf
atom 6.3459250999999997 2.3760226100000001 3.8142904299999998 Hf
atom 6.3187224700000000 2.3545671499999998 8.7502850500000005 Hf
atom 6.3615956599999999 7.6532884699999997 3.6904806600000000 Hf
atom 6.3663126400000003 7.6361577299999999 8.8686888100000001 Hf
atom 3.7400753700000000 2.7501634199999998 1.1530502400000000 Hf
atom 3.5781270500000000 2.7259952300000001 6.2860306799999996 Hf
atom 3.6750432900000001 7.9334918600000002 1.2270195900000000 Hf
atom 3.5509504999999999 8.0229993700000009 6.2655865400000001 Hf
atom 8.6155481900000002 2.7653301400000001 1.2581060300000000 Hf
atom 8.6737238100000003 2.6729904300000000 6.2436840199999999 Hf
atom 8.7472873199999999 7.9820088599999997 1.2437287900000000 Hf
atom 8.6216109000000003 7.9219628999999996 6.2523185799999998 Hf
atom 3.6486746399999999 4.9453471599999999 3.6925443400000000 Hf
atom 3.6139649999999999 5.0276984799999997 8.7816240099999998 Hf
atom 3.6284852200000000 10.1479934499999995 3.6838450200000001 Hf
atom 3.5706753400000002 10.2093189899999999 8.8501005599999996 Hf
atom 8.6653120799999996 4.9855152100000000 3.7587579099999999 Hf
atom 8.5998570500000007 4.9934712599999997 8.7294641800000008 Hf
atom 8.7137674500000006 10.2070176299999993 3.7272566800000000 Hf
atom 8.6206882500000006 10.1931602500000000 8.7272243199999995 Hf
atom 0.3810650200000000 1.8464149900000000 1.7840398600000000 O
atom 0.3114938100000000 1.8388525099999999 7.0604792400000003 O
atom 0.3966542600000000 7.0906196899999996 1.9136000300000000 O
atom 0.3855283500000000 7.0895132500000004 6.9032111699999996 O
atom 5.2785523000000003 1.8735341800000000 2.0655173300000000 O
atom 5.3116043499999996 1.8721879900000000 6.9620960099999998 O
atom 5.4369129400000000 7.1796453700000002 1.7968066899999999 O
atom 0.3409763700000000 0.6840212600000000 4.5621108799999996 O
atom 0.3348498300000000 0.6054331200000000 9.5806758599999995 O
atom 0.3996642500000000 5.8100456200000004 4.4194956699999999 O
atom 0.3412584400000000 5.8470915400000001 9.4122797299999998 O
atom 5.3280197800000000 0.6647900300000000 4.4710143799999997 O
atom 5.2390218400000004 0.7047477200000000 9.6045317200000007 O
atom 5.3400735600000004 5.9347165200000003 4.0913483800000003 O
atom 5.3528641600000002 5.8708002500000003 9.3611953499999991 O
atom 4.6387033799999999 4.4966792699999996 1.8473404499999999 O
atom 4.3491964599999999 4.4584620900000003 7.0137972000000000 O
atom 4.7263438500000001 9.6657530800000000 1.9680988699999999 O
atom 4.6131379700000004 9.6296491999999994 7.0298856000000001 O
atom 9.6502320400000006 4.4351446599999997 1.9932318499999999 O
atom 9.5694061700000006 4.4949376299999999 6.9044979199999998 O
atom 9.9078961000000003 9.7579613199999997 1.8653755700000001 O
atom 9.6071856499999999 9.6507158700000009 6.9640751500000002 O
atom 4.7411367000000002 3.3516145399999999 4.5874067600000004 O
atom 4.6143480500000003 3.2552118200000000 9.4089252200000004 O
atom 4.7285835100000000 8.5010402700000007 4.5974058700000002 O
atom 4.5520679399999997 8.4714590199999993 9.4106472100000005 O
atom 9.6756415199999992 3.1919949299999999 4.4255923800000003 O
atom 9.5893631300000006 3.2653819400000001 9.4996174599999996 O
atom 9.6616035399999998 8.4691699200000006 4.4264328199999996 O
atom 9.5533315699999992 8.4241744799999996 9.4129848500000008 O
atom 2.3543511100000001 0.7782584200000000 2.4359751599999999 O
atom 2.6899232899999999 1.2025055899999999 7.5554674300000002 O
atom 2.6804448999999999 6.2315703999999998 2.4291516999999998 O
atom 2.7189997600000000 6.4552011499999997 7.4921045499999996 O
atom 7.7077728099999998 1.2073667900000000 2.5171263200000000 O
atom 7.6143387799999998 1.0949596600000000 7.5139131099999998 O
atom 7.7465638300000004 6.3961584599999997 2.4740021500000000 O
atom 7.6674506500000001 6.4963323500000003 7.5684986299999997 O
atom 2.7189036799999999 1.3291409100000000 4.9548067199999997 O
atom 2.5500177000000002 1.3441540700000001 10.1029545899999995 O
atom 2.7606586599999998 6.5209906100000001 4.9803721999999997 O
atom 2.6418455399999998 6.5865300800000002 9.9792505499999997 O
atom 7.6834938399999997 1.2929032499999999 5.0242945900000002 O
atom 7.6430084999999996 1.3348261400000001 10.0171396000000001 O
atom 7.7337846499999996 6.6104302600000002 4.9155846399999996 O
atom 7.7013923100000001 6.5410963799999999 10.0442890400000007 O
atom 2.2923580000000001 3.8991818700000000 4.9722080300000000 O
atom 2.2986178200000000 3.9437023800000000 9.9976169600000002 O
atom 2.2909330699999999 9.1373179899999997 5.0617084099999996 O
atom 2.1793756100000001 9.3212116900000002 10.2378366599999993 O
atom 7.4138305500000001 3.8332226800000000 4.9300648699999998 O
atom 7.2524682399999998 3.9432449100000002 9.9995557799999997 O
atom 7.3426269599999996 9.1694904499999996 4.9614858799999997 O
atom 7.2685568199999997 9.1665199600000005 9.9918070900000000 O
atom 2.4011211299999999 3.6163078000000000 2.4626190100000001 O
atom 2.1318638800000000 3.7890251699999999 7.5183971300000003 O
atom 2.5898146799999999 8.6799492499999999 2.6887864200000000 O
atom 2.2333875200000000 9.0509017899999993 7.5846219799999997 O
atom 7.2559226099999998 3.7989841900000001 2.4805825100000001 O
atom 7.3848126900000004 3.6402758799999999 7.5539304899999999 O
atom 7.4277378000000001 9.0272914899999996 2.4457503300000001 O
atom 7.2195206000000001 8.9581751900000004 7.4764046100000003 O
