lattice_vector 10.1759405500000000 -0.0296276500000000 -0.0802522000000000 
lattice_vector -0.0156121600000000 5.2149909100000000 -0.0195663700000000 
lattice_vector -0.0656670700000000 -0.0309648500000000 10.1819693499999993 
atom 1.2261879400000000 0.0319839600000000 1.2176436900000001 La
atom 1.3303055100000001 0.1263357300000000 6.3421786300000003 Hf
atom 6.4509787100000002 0.1272195300000000 1.2110140000000000 Hf
atom 6.2814815800000003 0.0016598700000000 6.2683940500000004 La
atom 1.3883043900000001 2.4059489500000000 3.8143055399999999 Hf
atom 1.3095087400000001 2.4118871700000000 8.8654624599999998 Hf
atom 6.4302195700000002 2.4126045299999999 3.7343086799999998 Hf
atom 6.4436599299999999 2.3756227399999998 8.8651137400000000 Hf
atom 3.7447664600000001 2.7110088399999999 1.2231383100000000 Hf
atom 3.6019178100000002 2.7382513300000002 6.3541971000000004 Hf
atom 8.7224356899999993 2.7388789000000000 1.2234061800000000 Hf
atom 8.8003197100000001 2.6806702800000002 6.2738278000000003 Hf
atom 3.6657297000000000 5.0096772400000003 3.7283210100000002 Hf
atom 3.6478769799999999 5.0206147600000000 8.9163824399999996 Hf
atom 8.7688778900000006 5.0215398999999996 3.7855059000000000 Hf
atom 8.7209360599999997 4.9792316200000002 8.7791159299999997 Hf
atom 0.2723435600000000 2.0839137900000000 2.0752370199999999 O
atom 0.3684568000000000 1.9082413600000001 6.9747547499999998 O
atom 5.4888867899999996 1.9089295200000000 1.8437651300000000 O
atom 5.3278485199999999 2.0535353100000000 7.1256364100000003 O
atom 0.3531199400000000 0.6653748500000000 4.4924355299999998 O
atom 0.2294438800000000 0.7790257900000001 9.3718980599999995 O
atom 5.3503091600000001 0.7797035400000000 4.2408172899999999 O
atom 5.4080653700000001 0.6352037900000000 9.5431702400000002 O
atom 4.7083395899999996 4.5075123499999998 1.9024249000000000 O
atom 4.3452131999999999 4.5055268000000002 7.1007011599999998 O
atom 9.4656380799999997 4.5064405900000004 1.9696207800000001 O
atom 9.7638649500000003 4.4771076799999996 6.9537328199999999 O
atom 4.8113600999999999 3.3906010200000001 4.6244396200000004 O
atom 4.7797584799999999 3.3001997500000000 9.6121971500000001 O
atom 9.9004852700000008 3.3006725200000000 4.4813991000000000 O
atom 9.8665780600000001 3.3602977400000000 9.6755391199999998 O
atom 2.8271351400000002 1.2400957100000001 2.5471730699999999 O
atom 2.6660602999999998 1.2011676200000001 7.6114318200000000 O
atom 7.7866943600000003 1.2018819000000001 2.4805753699999999 O
atom 7.8825175800000000 1.2096539399999999 7.5980643800000003 O
atom 2.7200809000000001 1.3302926200000000 5.0695990699999998 O
atom 2.7256135499999998 1.3536985500000001 10.0840808400000004 O
atom 7.8464143000000002 1.3544706000000000 4.9531250699999996 O
atom 7.7749677600000000 1.3001748000000000 10.1207381999999999 O
atom 2.3238713400000002 3.9610593700000001 5.0422895600000004 O
atom 2.4206960300000002 3.8279911400000000 10.0529494300000000 O
atom 7.5415073100000001 3.8288599900000002 4.9217508600000004 O
atom 7.3791644700000001 3.9308602800000001 10.0931768799999997 O
atom 2.4648835700000000 3.6919500099999998 2.5633733400000001 O
atom 2.1496676500000000 3.8011471399999999 7.5597906300000002 O
atom 7.2700797300000000 3.8019718600000001 2.4285377000000001 O
atom 7.5202653300000000 3.6615243799999999 7.6140333299999998 O
