lattice_vector 10.1405193899999997 -0.0072979900000000 0.7462594900000000 
lattice_vector 0.1089586300000000 10.2602145000000000 0.0061759900000000 
lattice_vector 0.8454308900000000 0.0135763000000000 10.4678691300000004 
atom 1.3322129100000000 0.1125348600000000 1.8628719100000000 Si
atom 1.9106797499999999 0.1929886000000000 6.8267246400000001 Hf
atom 1.5481406499999999 5.3618167300000001 1.6711727000000001 Hf
atom 2.1035048900000000 5.3436096700000002 6.7982149100000004 Hf
atom 6.5598158299999998 0.2613739100000000 2.0282160700000000 Hf
atom 7.0425813899999996 0.2204963300000000 7.2593128199999999 Hf
atom 6.5908582500000001 5.3380619300000003 2.0234356199999999 Hf
atom 6.9624096099999999 5.1686170599999999 7.0942592199999996 Hf
atom 1.7348078600000001 2.3102783100000002 4.1603787900000002 Hf
atom 2.1950708500000000 2.2337606800000001 9.5304766700000005 Hf
atom 1.8155635800000001 7.4880875400000004 4.2520719400000004 Hf
atom 2.2343030900000000 7.5679885000000002 9.4866929500000001 Hf
atom 6.8424847499999997 2.3181717700000002 4.6226950899999997 Hf
atom 7.2420931599999996 2.4099386900000002 9.8626703300000003 Hf
atom 6.8656412099999997 7.4763448400000003 4.6288301699999996 Hf
atom 7.2329416300000000 7.7136442599999997 10.0755689499999992 Hf
atom 3.7310827199999999 2.7464903899999999 1.3410172400000000 Hf
atom 4.1850049100000000 2.7436494300000001 6.5687387900000003 Hf
atom 3.6908355500000001 7.9860482299999997 1.3865961800000000 Hf
atom 4.2794718200000004 7.9308616299999999 6.6031071499999996 Hf
atom 8.9085820499999997 2.6836870700000000 1.7934481200000001 Hf
atom 9.3068140800000005 2.7763993199999999 6.9545132299999999 Hf
atom 8.9141845199999992 7.9260090700000001 1.8086509399999999 Hf
atom 9.2769015400000008 7.7161296300000002 7.1506213399999998 La
atom 4.0264025200000004 4.8924811799999999 3.9701845300000000 Hf
atom 4.1892405699999999 4.8623981499999998 9.2625635200000005 Hf
atom 4.0296941899999998 10.0382086000000008 3.9366322999999999 Hf
atom 4.4823218699999998 10.1598287099999993 9.1970543700000000 Hf
atom 9.0720359699999999 4.8678967000000002 4.3279714299999998 Hf
atom 9.5232282099999992 5.0002106900000003 9.6714492500000002 La
atom 9.1167910400000007 9.9795739999999995 4.4147129700000001 Hf
atom 9.5734774700000003 10.1179320300000004 9.6151364899999994 Hf
atom 0.6387488400000000 1.4620635099999999 0.9604735800000000 O
atom 0.9152979100000000 1.7604598199999999 6.0468329499999998 O
atom 0.4789337700000000 6.8645764800000002 0.8655992800000000 O
atom 1.2071802000000000 6.9549196000000002 6.1308614800000001 O
atom 5.4576445600000003 1.6932663400000001 1.1719865400000000 O
atom 5.9248445299999997 1.7042355800000000 6.4311809599999998 O
atom 5.3429280500000003 6.7229049200000004 1.1086102300000000 O
atom 5.9492813199999999 6.8082091900000004 6.4308636400000001 O
atom 0.6720136900000000 0.7241660400000000 3.4202955199999998 O
atom 1.1239486200000000 0.7761557300000000 8.7315695699999996 O
atom 0.7021531700000000 5.9170484800000001 3.5252805999999999 O
atom 1.3861815700000000 6.0191513499999996 8.6492801499999992 O
atom 5.6227916999999996 0.9168725000000000 3.7815279099999999 O
atom 6.1339162800000002 0.9245727600000000 9.0448699700000006 O
atom 5.7317790600000000 6.0174649999999996 3.7847790200000002 O
atom 7.6305036499999996 6.3700996900000000 8.6028272099999992 O
atom 4.8996200099999996 4.2081762800000000 2.2037570400000002 O
atom 5.2330652700000000 4.3001454299999997 7.4981172300000001 O
atom 4.9682353900000003 9.3370600800000005 2.1593709799999998 O
atom 5.3937176999999998 9.4257666600000007 7.4019537199999998 O
atom 9.9707104799999993 4.2690375999999999 2.4912100100000001 O
atom 10.4101534999999998 4.3981217199999998 7.5262972899999996 O
atom 10.1180509500000007 9.4247621000000006 2.5420697600000000 O
atom 10.3977832699999997 9.5797102600000006 7.7699512200000003 O
atom 5.1899923599999997 3.5064211699999999 4.8604784600000004 O
atom 5.5975440200000000 3.6847378100000001 10.0567068000000006 O
atom 5.1442198699999997 8.5694695400000001 4.7552331199999998 O
atom 5.3922807700000002 8.5225171100000008 9.9940159899999994 O
atom 10.1290455700000006 3.2873108100000001 5.0308496199999997 O
atom 10.6267731600000008 3.2045833400000001 10.5073718599999992 O
atom 10.2145974000000006 8.4666512899999997 5.0703108700000001 O
atom 10.5547483799999995 8.4660249099999998 10.3401379200000001 O
atom 2.8160327999999999 1.1727892499999999 2.4962918200000002 O
atom 3.4036674900000001 1.2876333200000001 7.8458483499999998 O
atom 3.0230966399999999 6.4884890100000003 2.7284872899999999 O
atom 3.6767236599999999 6.4550743400000004 7.9735375199999998 O
atom 8.0661039199999998 1.2670219400000000 3.1293410900000000 O
atom 8.5427339500000006 1.3607496600000000 8.3608895299999997 O
atom 8.1393806299999998 6.4378079499999998 3.1301920100000000 O
atom 3.2508935200000000 1.2768871700000000 5.2183626800000003 O
atom 3.9063135400000002 1.5074597000000001 10.3249051200000004 O
atom 3.3861555499999998 6.3473922199999997 5.3156631599999997 O
atom 3.6385038399999998 6.4321118500000001 10.5875590600000002 O
atom 8.3188828400000006 1.2199683699999999 5.7372344200000001 O
atom 8.6993515400000003 1.2674520800000000 10.9854975499999998 O
atom 8.2134342799999995 6.2089477100000003 5.6743057400000003 O
atom 8.6173609199999994 6.5550499300000000 11.1329525000000000 O
atom 2.2460007700000002 3.9150366900000000 0.2966932200000000 O
atom 2.7670563900000000 3.8577602600000001 5.4666761800000003 O
atom 2.2857918499999998 9.3684034100000009 0.4631828300000000 O
atom 2.8088165400000000 9.0445043100000007 5.4796418200000003 O
atom 7.3479839499999997 3.8014616900000000 0.7798906000000000 O
atom 7.8332841699999998 3.7998825300000001 5.8332703900000000 O
atom 7.4357471000000004 9.0846852299999998 0.7254880600000000 O
atom 7.7617360000000000 9.0418081600000004 5.8544787300000003 O
atom 2.5410122700000000 3.7630890500000000 2.8849027899999999 O
atom 2.9050985900000001 3.7437868100000000 8.1452153200000001 O
atom 2.4511182499999999 9.0049676200000004 2.8708362900000002 O
atom 3.0099874999999998 8.9467880700000002 8.1490343500000009 O
atom 7.6123804399999999 3.7658062999999999 3.2777009300000000 O
atom 7.9230504399999999 3.7443236700000000 8.3757652500000006 O
atom 7.6854202599999999 8.9312055600000004 3.2775223400000000 O
atom 7.9870244399999999 9.0697290899999992 8.6731025099999997 O
