lattice_vector 10.0424107599999992 0.0094016100000000 -0.0886833900000000 
lattice_vector 0.0037446900000000 10.4559521199999992 0.0070220700000000 
lattice_vector -0.0159919400000000 -0.0268448200000000 10.0933138200000005 
atom 0.7955198100000000 0.5926679000000000 1.4892719200000000 Si
atom 1.2893538400000000 0.1598172900000000 6.2697861200000000 Hf
atom 1.2543841800000000 5.3825836499999999 1.2066180099999999 Hf
atom 1.3059518400000001 5.3185390100000003 6.2560690200000000 Hf
atom 6.2545975000000000 0.1101295600000000 1.1816757200000001 La
atom 6.3610949400000001 0.1776846100000000 6.2501084400000000 Hf
atom 6.3487361499999997 5.4256111999999996 1.2201768399999999 Hf
atom 6.3352849100000004 5.3843119000000002 6.1972225099999996 Hf
atom 1.2987386100000000 2.4611202400000001 3.7782179800000000 Hf
atom 1.3467103300000001 2.4837073900000002 8.8446039400000007 Hf
atom 1.2712652700000000 7.6144725299999996 3.8009241299999998 Hf
atom 1.2465180499999999 7.5758770899999996 8.6847668299999992 Hf
atom 6.3127700100000004 2.4030092100000000 3.7696959200000002 Hf
atom 6.3887792900000004 2.4694322400000002 8.6840613599999994 Hf
atom 6.3459890200000002 7.6952659299999997 3.7372264199999998 Hf
atom 6.1453079199999996 7.8771858899999998 8.7602228100000001 La
atom 3.6822668300000001 2.8557269800000000 1.1393031499999999 Hf
atom 3.6652919300000000 2.7788868000000000 6.2149273000000003 Hf
atom 3.6379428500000000 7.8797486699999997 1.3996540900000001 Hf
atom 3.6049997600000001 7.9840958500000001 6.2602180100000000 Hf
atom 8.5495147300000003 2.8841084800000001 1.1770953200000001 Hf
atom 8.6962410600000002 2.7675534499999999 6.2409793400000000 Hf
atom 8.7671593399999992 7.9937024900000004 1.1211199100000000 Hf
atom 8.6636145700000000 8.0154096300000006 6.2135784100000002 Hf
atom 3.6844766500000001 5.0182689299999996 3.7248403799999998 Hf
atom 3.6786574800000000 5.0369605899999996 8.7522545399999991 Hf
atom 3.5738447600000001 10.1962856800000008 3.7367454699999998 Hf
atom 3.7191752899999999 10.4595188599999993 8.6598046400000008 Hf
atom 8.6377783200000007 5.0614577499999998 3.7097437800000002 Hf
atom 8.6342911999999998 5.0764051500000003 8.7378529700000005 Hf
atom 8.6585811600000007 10.3103045899999994 3.7403278800000002 Hf
atom 8.8257782000000002 10.3641052299999998 8.7470367800000002 Hf
atom 0.1667878500000000 2.0061157000000001 2.0488205800000001 O
atom 0.2214398100000000 1.7789435700000000 7.2609919300000003 O
atom 0.3116972200000000 7.0971897600000000 2.0233272200000001 O
atom 0.3035063000000000 7.0516996699999996 6.9611767200000001 O
atom 5.0950064700000004 1.9369761500000000 2.1306228900000002 O
atom 5.3527762200000000 1.9133514400000000 6.8791077899999999 O
atom 5.4025951399999999 7.1593195800000000 1.9399869800000000 O
atom 5.2474345800000002 7.0099225100000000 6.7950575700000000 O
atom 0.2601742400000000 0.7580677500000000 4.6032654800000001 O
atom 0.4946939000000000 0.6922333700000000 9.9429172099999992 O
atom 0.2811186300000000 5.8833294599999997 4.5164148500000003 O
atom 0.2650989400000000 5.9244095400000001 9.5270639500000005 O
atom 5.3142129499999999 0.6649168500000000 4.4652390300000002 O
atom 5.4988959900000003 0.6788405900000000 9.1313048000000006 O
atom 5.3799537099999997 5.9014278100000004 4.3605605900000004 O
atom 5.1675215000000003 5.9540185599999997 9.6505541600000004 O
atom 4.6329907900000000 4.5654260999999998 1.9122604900000000 O
atom 4.6760558000000003 4.4725209200000000 7.0078781699999997 O
atom 4.5917036700000002 9.5582432700000002 2.1918533800000000 O
atom 4.7525582699999998 9.6169300799999995 7.0518278800000003 O
atom 9.6440425800000007 4.5395983199999996 1.9365370799999999 O
atom 9.7143532300000004 4.4612581200000001 6.9780686599999999 O
atom 9.8577296000000008 9.8933258399999993 1.9826531000000001 O
atom 9.8277090099999995 9.6594908400000001 7.0431336000000000 O
atom 4.6730675599999998 3.3495081400000002 4.4947502100000003 O
atom 4.7215957299999998 3.3251629100000000 9.4981775800000001 O
atom 4.6227559899999999 8.5082123200000002 4.5370148600000002 O
atom 9.7057601400000006 3.3190847200000002 4.4827801300000001 O
atom 9.7413318100000001 3.3646200199999998 9.5413975600000001 O
atom 9.6984583700000009 8.5873448999999997 4.4784068499999998 O
atom 9.9464116300000001 8.6378951799999992 9.5661942399999997 O
atom 2.2228924900000000 0.8796192600000000 2.3250312300000000 O
atom 2.6512324800000000 1.2385414100000001 7.3763555399999996 O
atom 2.6250549599999999 6.2757498299999996 2.4800805499999998 O
atom 2.6653335700000000 6.3779319299999999 7.5050817500000004 O
atom 7.7543106200000000 1.3408023499999999 2.5131301700000002 O
atom 7.7343008800000002 1.2461984300000000 7.4569121400000000 O
atom 7.6906678399999997 6.4160885499999996 2.4735076600000001 O
atom 7.7114722100000002 6.4240037499999998 7.4323047500000001 O
atom 2.6911268000000002 1.4127698500000001 4.8778214699999998 O
atom 2.8690271900000002 1.4786972500000000 9.8837375200000004 O
atom 2.6713799800000002 6.5856784199999998 4.9962588700000001 O
atom 2.5224308500000001 6.7573785099999997 10.0792625699999991 O
atom 7.6910030400000000 1.3653859100000001 4.9941913600000003 O
atom 7.8151985100000001 1.5071376999999999 9.9086016000000008 O
atom 7.6929241299999997 6.6363649499999999 4.9591300000000000 O
atom 7.7665226699999996 6.5719304999999997 10.0705354200000006 O
atom 2.2930185999999999 3.9916122999999999 4.9767911600000003 O
atom 2.3165543300000002 4.0829925899999999 10.0156822699999992 O
atom 2.2607345500000000 9.2191274799999992 5.0976588200000004 O
atom 4.1232731999999999 8.8833720100000004 9.8149639400000002 O
atom 7.3333932600000002 3.9792014800000000 4.9568969799999998 O
atom 7.2867829400000002 4.0463710700000002 9.9786269399999998 O
atom 7.2984217400000002 9.2371616200000002 4.9554605000000000 O
atom 7.6661149599999998 9.2874879499999992 9.9741981800000001 O
atom 2.3000900000000000 3.6952920400000000 2.4475087499999999 O
atom 2.2938953500000001 3.7727678299999998 7.5051072400000001 O
atom 2.3417038500000000 8.8022938800000006 2.5942906899999998 O
atom 2.3392005800000000 9.0737527500000006 7.7042693900000003 O
atom 7.2148575199999998 3.8520846299999998 2.4376222799999998 O
atom 7.3418365400000001 3.8343410200000001 7.4481197300000002 O
atom 7.5545881799999997 8.9463362699999998 2.5008203899999999 O
atom 7.4864775799999999 9.2023338100000007 7.4156628800000002 O
