lattice_vector 10.0601884100000003 0.1161876500000000 -0.0762893200000000 
lattice_vector -0.0038696600000000 10.1983408200000003 0.0085903200000000 
lattice_vector -0.0572751900000000 0.0578572000000000 10.5365613600000003 
atom 1.1566016299999999 0.0597321900000000 1.9582760800000001 Si
atom 1.3062427500000000 0.2993046600000000 6.9722203000000000 Hf
atom 1.3685035900000000 5.4281057500000003 1.7549192300000001 Hf
atom 1.2888774400000000 5.3530354000000004 7.1343501399999996 Hf
atom 1.3152562100000000 2.5470681800000001 4.1488574099999997 La
atom 1.3005778800000001 2.3619965500000002 9.6413322600000004 Hf
atom 1.2764502400000000 7.5141254300000000 4.4325489100000004 Hf
atom 1.3070767500000000 7.5525660200000004 9.6865571900000003 Hf
atom 3.5649533700000000 2.6264219500000001 1.5033596199999999 Hf
atom 3.5767137899999999 2.8220675300000000 7.0290038700000004 Hf
atom 3.5631850799999998 8.0027445200000003 1.7686095900000001 Hf
atom 3.5624801900000000 7.9683185300000003 7.0750891200000003 Hf
atom 3.6178073999999998 5.1508205599999997 4.5771084699999998 Hf
atom 3.5882191699999999 4.9747301500000001 9.7038353599999994 Hf
atom 3.4955467699999998 10.0373881800000007 4.3975140899999996 Hf
atom 3.5581718599999999 10.0811013099999993 9.6632667600000008 Hf
atom 6.4313992200000003 0.3129648900000000 0.7453654900000000 Hf
atom 6.3293835700000001 0.3035507300000000 6.0433076799999998 Hf
atom 6.4214185300000004 5.4160830000000004 0.7798395299999999 Hf
atom 6.4450869800000001 5.4198596999999999 6.0792812600000001 Hf
atom 6.1339953400000002 2.6816935800000001 3.5563233900000002 La
atom 6.3811256099999998 2.4575207699999999 8.6955433400000004 Hf
atom 6.3767999499999997 7.5564141999999999 3.3888189999999998 Hf
atom 6.3634320600000001 7.5431110300000004 8.6769906700000003 Hf
atom 8.7683369199999994 2.7849601599999998 0.8924923700000000 Hf
atom 8.6510190399999995 2.9170135799999999 6.1153751099999996 Hf
atom 8.6390824800000008 8.0037839000000002 0.7787017700000000 Hf
atom 8.5916480300000000 8.0073421200000006 6.0547141000000000 Hf
atom 8.6845819599999992 5.0716574100000003 3.4614378399999999 Hf
atom 8.6169030600000003 5.0039972700000002 8.7743243199999998 Hf
atom 8.5517051599999991 10.1462542800000008 3.4232606600000000 Hf
atom 8.5956728600000005 10.1367168000000003 8.6613439600000000 Hf
atom 0.5347517400000000 1.4094334600000000 0.9165038000000000 O
atom 0.1902087900000000 1.6155985100000001 6.0419559100000004 O
atom 0.2546535000000000 6.6818087000000004 0.7924878800000000 O
atom 0.2183798500000000 6.7207775700000001 6.0936673299999997 O
atom 0.3094721500000000 0.6813275300000000 3.3562405399999999 O
atom 0.2186252700000000 0.9914772100000000 8.6839833800000008 O
atom 0.2729962800000000 6.1153617400000000 3.3871647999999999 O
atom 0.2329944100000000 6.0984912099999997 8.7817249700000009 O
atom 4.7553951799999998 4.2302730700000000 0.8324528100000000 O
atom 4.8469415500000004 4.0857926000000004 5.8300948600000000 O
atom 4.6887918500000003 9.3576996700000006 0.7787490200000000 O
atom 4.6140768899999998 9.3547635200000006 6.0843316200000004 O
atom 4.6833454300000001 3.6080119700000002 8.6404505599999997 O
atom 4.5712703200000000 8.5455943899999998 3.4753075099999999 O
atom 4.6581788199999998 8.6268874600000007 8.7030335599999997 O
atom 2.6284101299999998 1.0228491200000001 2.5820131800000001 O
atom 2.6837912600000000 1.3026276600000000 8.1743457700000004 O
atom 2.6974250600000000 6.3750993200000003 3.0739772400000001 O
atom 2.6906109200000001 6.4157137600000000 8.3564105699999995 O
atom 2.9728230800000000 1.5307953599999999 0.0084666300000000 O
atom 2.7788907500000000 1.3467666300000001 5.6353185600000000 O
atom 2.7598747700000001 6.5368208299999999 0.4326036100000000 O
atom 2.6990808500000001 6.5493314099999997 5.7277288000000004 O
atom 3.3432832600000002 3.6503513299999999 3.2631930100000002 O
atom 2.2236708599999999 3.8583583300000002 8.4380373100000003 O
atom 2.0349822099999999 8.9340799499999992 3.0360664499999999 O
atom 2.1860617100000002 8.9751113199999999 8.3948625600000000 O
atom 2.2306555200000000 3.9536152300000000 0.5187865900000000 O
atom 2.3209655499999999 4.0452459000000003 5.8507432699999997 O
atom 2.1257876900000001 9.2051490699999992 0.5681927700000000 O
atom 2.1455655999999999 9.0079172100000005 5.7219658100000004 O
atom 5.2912959800000001 1.7288973299999999 1.6016773700000000 O
atom 5.3060167900000001 1.7606862000000001 6.9942371000000003 O
atom 5.3062735500000002 6.8578692800000001 1.7219294500000000 O
atom 5.2562093900000004 6.7957429999999999 6.9959338799999999 O
atom 5.2057822700000003 0.8510245700000000 4.3682005999999998 O
atom 5.3433836000000001 0.9508277200000000 9.5579362799999998 O
atom 5.3954712200000001 5.9732306399999997 4.2896840599999999 O
atom 5.2885418599999996 6.0989780500000004 9.6393144799999995 O
atom 10.0360111100000005 4.0390319100000003 2.0852611400000001 O
atom 9.7708293499999996 4.1908446000000001 7.2843286300000001 O
atom 9.7777432300000005 9.3845600200000003 1.7029264200000001 O
atom 9.6846595499999992 9.4091072400000009 7.0270170700000003 O
atom 9.7460080799999993 3.9963804299999999 4.7465869700000001 O
atom 9.7532153000000008 3.6859686400000000 9.8905351100000001 O
atom 9.6251718999999998 8.6790218400000008 4.3863062299999998 O
atom 9.6605500699999993 8.7269991299999994 9.6513224900000001 O
atom 7.8044986400000003 1.4088157600000000 10.0438366600000002 O
atom 7.7681272400000001 1.3721940300000000 4.8099951900000004 O
atom 7.7339132900000003 6.5133122700000001 10.0346784899999992 O
atom 7.7368930000000002 6.5381836499999997 4.7542809000000004 O
atom 7.7990454099999997 1.3689755200000000 2.0760769500000000 O
atom 7.7185695100000000 1.4131491100000000 7.4120169699999998 O
atom 7.7847872899999997 6.5482839100000003 2.1185895000000001 O
atom 7.7667298499999999 6.5017532999999998 7.4064655799999999 O
atom 7.2661898100000002 3.9123661099999998 10.0620613700000003 O
atom 7.3953413799999996 4.0535338200000002 4.8520784700000004 O
atom 7.2088145199999998 9.0420851300000002 10.0086692500000005 O
atom 7.1786728599999998 9.0243517900000008 4.7415084900000002 O
atom 7.4825209900000003 4.0386344200000002 2.0743351099999998 O
atom 7.2586466500000002 3.9854849400000001 7.4432301100000000 O
atom 7.2583357700000004 9.0534981099999996 2.1123139100000001 O
atom 7.2074145700000001 9.0486370199999993 7.3791552400000002 O
