lattice_vector 10.1014177099999998 0.0365412500000000 0.8366423700000000 
lattice_vector 0.0304346400000000 10.2518277900000001 -0.0087092000000000 
lattice_vector 0.8526360500000000 0.0110044000000000 10.4528767699999996 
atom 1.3484892900000001 0.1354907600000000 1.8428733900000001 Si
atom 1.9377108999999999 0.2419115000000000 6.8444480299999997 Hf
atom 1.5394672300000001 5.3832310300000001 1.6345458600000000 Hf
atom 2.0229662899999998 5.2928258399999999 6.8514074799999998 Hf
atom 6.5534551900000002 0.2499974700000000 2.0454823300000000 Hf
atom 7.0145919499999998 0.2335352100000000 7.2970595400000002 Hf
atom 6.5805551199999996 5.3700368500000000 2.0373732499999999 Hf
atom 6.9523413900000000 5.3380921399999997 7.2971041000000003 Hf
atom 1.7174547000000000 2.3179936200000002 4.1778969600000000 Hf
atom 2.2177976500000001 2.3211235800000001 9.4844769699999993 Hf
atom 1.9562003200000000 7.3975816600000002 4.2251679900000001 Hf
atom 2.1291141400000000 7.4837524899999996 9.4349826599999993 Hf
atom 6.8097323300000001 2.3664205400000000 4.6845900499999997 Hf
atom 7.2142746400000002 2.3960514800000001 9.9110275500000000 Hf
atom 6.7958556899999998 7.4866142499999997 4.6416401100000000 Hf
atom 7.1650140000000002 7.5138230899999998 9.9315244800000002 Hf
atom 3.7041914100000000 2.7618872200000002 1.3491247500000001 Hf
atom 4.1697248699999996 2.7754571900000000 6.5962243400000000 Hf
atom 3.6866395500000002 8.0131549700000004 1.3801679099999999 Hf
atom 4.2043559500000001 7.9408536999999999 6.6451369800000002 Hf
atom 8.8970301200000002 2.7613623600000001 1.8309221099999999 Hf
atom 9.2322771899999996 2.8194285699999999 7.0506838600000004 Hf
atom 8.8163948100000002 7.9504307200000000 1.8078305600000000 Hf
atom 9.2768647499999997 7.8152450900000003 7.1039997899999996 La
atom 4.0183967500000000 4.8670382099999996 3.9710160299999999 Hf
atom 4.3677577799999998 4.9527578700000001 9.2489308300000008 Hf
atom 3.9661674400000000 10.0455683400000009 3.9622423200000001 Hf
atom 4.3930148500000001 10.1486257599999998 9.2457705699999995 Hf
atom 9.0089222299999996 4.9221009400000000 4.3996610599999997 Hf
atom 9.4314911499999994 4.9263414900000004 9.6886831099999995 Hf
atom 8.9477570199999992 10.1110101199999995 4.3809772999999996 Hf
atom 9.4522285900000007 10.1228866899999996 9.6545493600000007 Hf
atom 0.5875787099999999 1.4900950700000000 0.9566356300000000 O
atom 0.8798620300000000 1.7511390700000000 6.0254954200000004 O
atom 0.4167380100000000 6.8241264099999999 0.8037335100000000 O
atom 1.1289451500000001 6.8152919900000004 5.9735652999999997 O
atom 5.4531366400000003 1.7150640600000000 1.2463018800000001 O
atom 5.9020788700000004 1.7144840299999999 6.4721797900000002 O
atom 5.4365183600000000 6.8696517300000002 1.2658682100000000 O
atom 5.9365612800000003 6.9035846799999998 6.4937904800000004 O
atom 0.6661979900000000 0.6896297200000000 3.4423751800000000 O
atom 1.0745149300000001 0.8955628900000000 8.7008496199999996 O
atom 0.6272197000000000 6.0654161999999996 3.4463109099999998 O
atom 1.0281277300000000 6.0365626900000002 8.6281413400000009 O
atom 5.6652194500000004 0.8931411000000000 3.8521738100000000 O
atom 6.1187591699999997 0.9218840600000000 9.0774267000000002 O
atom 5.7242871800000001 5.9715344500000000 3.8518689600000000 O
atom 5.9943569700000001 6.0958270399999996 9.0635918800000006 O
atom 4.8878811300000002 4.2479892000000001 2.1807937100000001 O
atom 5.2477525299999996 4.2769958900000002 7.4257644599999999 O
atom 4.8778750000000004 9.4047907800000008 2.1966378299999998 O
atom 5.2996097700000000 9.4405302700000000 7.4137123500000000 O
atom 9.9705820200000002 4.2740370099999998 2.6218246399999998 O
atom 10.3346048499999998 4.3317687999999999 7.8447415800000000 O
atom 10.0426729199999993 9.4094717400000008 2.6719387600000002 O
atom 10.3408154900000007 9.6168042600000003 7.8478652499999999 O
atom 5.1081661000000000 3.4317127200000002 4.8190147600000000 O
atom 5.5632599500000000 3.5558862900000001 10.0680230000000002 O
atom 5.0570169299999996 8.5562963300000003 4.7756322500000001 O
atom 5.4031117599999998 8.6056274699999999 10.0523912600000003 O
atom 10.1144178900000004 3.4296812900000000 5.1885684899999998 O
atom 10.6055566500000005 3.4481833700000002 10.5312463399999992 O
atom 10.5380770100000003 8.6081233099999999 10.4439642700000004 O
atom 2.7799507299999999 1.1679885000000001 2.5079103599999999 O
atom 3.4049843499999999 1.3216068999999999 7.8734103500000003 O
atom 3.0525950300000000 6.4345612299999999 2.7077396999999999 O
atom 3.4069332399999999 6.4578957099999998 7.9464275999999998 O
atom 8.0612582499999998 1.3130828900000000 3.1698006099999998 O
atom 8.4802368999999995 1.3766855200000001 8.3895497500000005 O
atom 8.0724135599999993 6.4685877899999999 3.1307394799999999 O
atom 8.3273236700000002 6.3383796600000002 8.5369600899999991 O
atom 3.2176348300000002 1.2783963000000000 5.2367194300000000 O
atom 3.8538674300000002 1.5251770099999999 10.3385618400000006 O
atom 3.3978158999999999 6.3408978800000000 5.3137233200000002 O
atom 3.6078014999999999 6.4951505999999997 10.5664560400000003 O
atom 8.2989446400000002 1.2878387600000001 5.7774884399999999 O
atom 8.7034834599999993 1.3012703200000000 11.0287135299999992 O
atom 8.1488668900000008 6.2708643999999998 5.7007283600000003 O
atom 8.6931664299999998 6.4252344800000003 11.0225204300000001 O
atom 2.2788956499999999 3.9704154100000002 0.2971478200000000 O
atom 2.7105867899999998 3.8687283799999999 5.4798600100000003 O
atom 2.2334068100000000 9.4230282200000008 0.5225009500000000 O
atom 2.7278109399999999 9.0167703400000008 5.5123115499999997 O
atom 7.3925632900000000 3.8934914599999999 0.7415075100000000 O
atom 7.7535884199999998 3.8644043799999999 5.9569763599999996 O
atom 7.3365076100000000 9.0481561999999993 0.7322328500000000 O
atom 7.7605890500000001 9.0999513099999998 5.8076651799999999 O
atom 2.5219211300000000 3.7637266100000000 2.8939889999999999 O
atom 2.9257885500000000 3.7941215599999998 8.1387344600000002 O
atom 2.4236745300000000 8.9463293400000001 2.9135717600000000 O
atom 2.9376259299999998 8.9583337600000004 8.1837610800000000 O
atom 7.5935689899999996 3.7940508799999999 3.3123714999999998 O
atom 7.9773053300000001 3.8208227899999998 8.5675255099999994 O
atom 7.5924272000000004 8.9539369400000002 3.2799247600000001 O
atom 7.8866282700000001 9.0339426100000004 8.6603787899999993 O
