lattice_vector 10.1323067499999997 0.0079982700000000 0.8343611500000000 
lattice_vector 0.0000884000000000 10.3492596799999994 0.0179036200000000 
lattice_vector 0.3838597700000000 -0.0326479200000000 5.1955288299999998 
atom 1.4655487300000001 0.0461635400000000 1.5295810500000000 La
atom 1.5193757999999999 5.3625978600000002 1.6148394200000000 Hf
atom 6.6407705699999999 0.2296440700000000 2.0437515199999998 Hf
atom 6.5900444599999997 5.3402564300000002 2.0655651100000001 Hf
atom 1.6976976600000000 2.3485727000000001 4.1930251800000002 Hf
atom 1.6900835900000000 7.4348280800000000 4.2282960899999997 Hf
atom 6.7999230199999996 2.3753151799999999 4.6638160500000003 Hf
atom 6.7302503099999997 7.5236417800000002 4.6447425400000002 Hf
atom 3.7360712500000002 2.7692083400000000 1.3634212900000000 Hf
atom 3.8403468900000002 7.8984996100000000 1.4758546299999999 Hf
atom 8.8427566899999999 2.8226781200000000 1.7972763500000000 Hf
atom 8.7501585700000000 7.9414414300000002 1.8146210899999999 Hf
atom 3.9349707399999998 4.9085714400000002 3.9734443200000000 Hf
atom 4.0424595500000002 10.1852007199999992 3.9316204199999998 Hf
atom 8.9841723499999997 4.9454845599999997 4.3984204499999997 Hf
atom 8.9621447900000000 10.1129167599999992 4.4615066099999998 Hf
atom 0.5001030800000000 2.0017022799999999 0.9020728600000000 O
atom 0.4974827000000000 7.0663326199999998 0.9632474500000000 O
atom 5.5144247000000002 1.7616064199999999 1.2904550299999999 O
atom 5.5358291199999998 6.9173910200000002 1.3222616899999999 O
atom 0.5968053900000000 0.7440593400000000 3.6533666800000000 O
atom 0.6386468700000000 5.9233591099999998 3.5086915099999998 O
atom 5.7772983399999998 0.8009001100000001 3.8842590600000002 O
atom 5.6657030600000002 5.9829544800000001 3.8904998300000000 O
atom 4.8301706099999997 4.3243281099999997 2.1431790600000000 O
atom 4.8488661300000002 9.5471034299999999 2.1110755000000001 O
atom 9.8281925099999992 4.4820438300000003 2.4926361300000002 O
atom 9.5495803299999995 9.5945289400000000 2.5653806600000002 O
atom 5.0437450200000002 3.3889648299999999 4.7314245300000000 O
atom 4.9262653700000003 8.5491423599999994 4.8079044000000000 O
atom 10.0429665499999992 3.3716001300000000 5.0740772200000004 O
atom 10.1079327100000000 8.5522217499999993 5.1782793299999996 O
atom 3.0508168100000002 1.3721828500000000 2.7472513500000000 O
atom 2.9816989000000000 6.4273679200000000 2.7331108899999998 O
atom 8.0726640700000001 1.3734464900000001 3.1778084199999999 O
atom 8.0233978700000002 6.5056136300000000 3.1637936099999999 O
atom 3.2586759000000001 1.2339384900000001 5.2334145699999999 O
atom 3.1751075000000002 6.4163105800000002 5.3483458099999996 O
atom 8.2463605300000005 1.2354276099999999 5.7795039199999998 O
atom 8.2208470200000008 6.3933781700000001 5.7412574599999999 O
atom 2.2926525899999999 3.9513551800000002 0.2460130600000000 O
atom 7.3471459000000001 3.9385983000000002 0.6995602600000000 O
atom 7.3284418899999997 9.0912097099999993 0.7060401300000000 O
atom 2.4442065199999998 3.8295860799999999 2.8422428200000001 O
atom 2.6022664600000001 8.8767428800000001 3.0557227800000000 O
atom 7.5332427199999996 3.8427943000000000 3.3039796600000000 O
atom 7.3829015599999996 8.9674399600000001 3.3370059300000001 O
