lattice_vector 10.0917513999999997 -0.0357844400000000 0.8203247299999999 
lattice_vector -0.0016208600000000 10.3064611799999994 -0.0202595600000000 
lattice_vector 0.8444013700000000 -0.0099746900000000 10.4105242100000002 
atom 1.2934549799999999 0.0198773800000000 1.5188732400000000 La
atom 1.9542850599999999 0.2141565300000000 6.8314160299999998 Hf
atom 1.5171835300000001 5.3604319800000004 1.6132939399999999 Hf
atom 1.9520533300000000 5.3776122300000004 6.8187655999999999 Hf
atom 6.5813930400000000 0.2059952200000000 2.0355751600000001 Hf
atom 6.9800999800000003 0.2087893400000000 7.2761785999999997 Hf
atom 6.5305379500000003 5.3007581799999999 2.0475006499999999 Hf
atom 6.9805119700000002 5.3403546700000000 7.2272958100000002 Hf
atom 1.7113058699999999 2.3066708800000000 4.2111110199999997 Hf
atom 2.1516034400000001 2.3857582800000001 9.4109079100000006 Hf
atom 1.7344210499999999 7.4812605699999999 4.2102472999999998 Hf
atom 2.1887965299999999 7.5158985200000004 9.4294075599999996 Hf
atom 6.7557718400000004 2.3415456600000000 4.6500076200000002 Hf
atom 7.1998551199999996 2.3465367300000000 9.8494262999999993 Hf
atom 6.7563239299999998 7.4610090600000003 4.6345116900000001 Hf
atom 7.2205909200000002 7.4822798800000001 9.8137838700000000 Hf
atom 3.6843176600000000 2.7226230999999999 1.3676571000000000 Hf
atom 4.1352307499999998 2.7748784400000002 6.5677028699999997 Hf
atom 3.7983085900000000 7.8964530599999998 1.3616351799999999 Hf
atom 4.1486169899999998 7.9378027600000003 6.5552798599999997 Hf
atom 8.7634091200000004 2.7990295399999998 1.7696010000000000 Hf
atom 9.2131768600000008 2.7749318500000002 7.0003110399999997 Hf
atom 8.7056933900000004 7.8325168400000003 1.7806352599999999 Hf
atom 9.2072076799999998 7.9087251900000002 6.9717403999999998 Hf
atom 3.9041977800000001 4.8897449300000000 3.9589864800000001 Hf
atom 4.3772662999999996 4.9037727499999999 9.1772318100000003 Hf
atom 3.9369058699999999 10.0722660600000005 3.9427327100000000 Hf
atom 4.3911013499999996 10.0653529299999995 9.1536865600000006 Hf
atom 8.9888119199999998 4.8937094200000004 4.3902703799999996 Hf
atom 9.4106825500000006 4.9085174800000004 9.5681710399999993 Hf
atom 8.8887025499999996 10.0864292500000001 4.4923101100000000 Hf
atom 9.4248637800000008 10.0695727200000000 9.5956296299999995 Hf
atom 0.4249097200000000 1.9520267099999999 0.8378262700000000 O
atom 0.8610701300000000 1.7669299999999999 6.1055569500000004 O
atom 0.4815086000000000 7.0442665900000003 0.9623360700000000 O
atom 0.8570344300000000 6.9156161500000000 6.0579350099999996 O
atom 5.4782797299999997 1.7201521600000000 1.2736129800000000 O
atom 5.8759615199999997 1.7221903400000000 6.4833040899999999 O
atom 5.5203530000000001 6.8491955300000003 1.2450487299999999 O
atom 5.8886221699999997 6.8674053900000001 6.4575739199999997 O
atom 0.5315563200000000 0.8011887200000000 3.5922851400000000 O
atom 1.0808264999999999 0.8269913800000001 8.6878812300000003 O
atom 0.6545557800000000 5.9415852700000000 3.4785220600000000 O
atom 1.0467683999999999 6.0243602599999999 8.6721025399999991 O
atom 5.7259918799999996 0.7757109500000000 3.8825140800000000 O
atom 6.1312973000000000 0.8095934400000000 9.0833846400000002 O
atom 5.6546295000000004 5.9434921699999999 3.8688379099999999 O
atom 6.1170637499999998 5.9564594299999998 9.0624351599999997 O
atom 4.8016665500000002 4.2628418400000001 2.1442781200000001 O
atom 5.2405842199999997 4.2986887100000004 7.3343818399999998 O
atom 4.8720147200000001 9.4355525799999995 2.1315873700000001 O
atom 5.2536609399999996 9.4483201999999995 7.3336638599999997 O
atom 9.8064941300000008 4.3894487599999996 2.5025777400000000 O
atom 10.2839052199999994 4.3297742899999996 7.7311674200000002 O
atom 10.3083407699999992 9.4131214300000003 7.7792922200000003 O
atom 5.0169436100000002 3.3674685499999999 4.7323031499999999 O
atom 5.4642349899999996 3.3846313700000001 9.9485041499999998 O
atom 5.0501822499999998 8.5431286300000000 4.7357316899999997 O
atom 5.5672154500000000 8.5679830799999994 9.9401053099999999 O
atom 10.0577516599999992 3.3492425099999998 5.1395663899999997 O
atom 10.4654267999999995 3.3788421899999999 10.2956969100000002 O
atom 10.0583190200000008 8.5123063099999996 5.0803725699999998 O
atom 10.6286638599999996 8.7040655800000000 10.5762395199999997 O
atom 3.0032332799999999 1.3159401200000000 2.7665630399999999 O
atom 3.4135298500000002 1.3211127400000000 7.9047394100000004 O
atom 3.0032138100000001 6.4156236299999998 2.6994034700000000 O
atom 3.4206803899999998 6.4795957000000000 7.9177767200000000 O
atom 8.0665789500000002 1.2935649899999999 3.1495405200000000 O
atom 8.4800567699999991 1.3105833700000000 8.3626043200000009 O
atom 7.9960346600000003 6.4217463800000001 3.1433707200000001 O
atom 8.4620839300000004 6.4635532199999997 8.3165854699999997 O
atom 3.1904366199999998 1.2226849200000001 5.3271790100000000 O
atom 3.6543159500000000 1.2592055900000001 10.4420375599999993 O
atom 3.1944149899999998 6.3798683299999999 5.3127187800000000 O
atom 3.6095715300000002 6.3504518399999998 10.5148413299999994 O
atom 8.2035895500000002 1.2349544900000000 5.7927893299999997 O
atom 8.6721827900000008 1.2212403300000001 10.9528124699999996 O
atom 8.2424377000000000 6.3662590899999998 5.7262665999999998 O
atom 8.7154875599999997 6.3792429000000004 10.9395018600000000 O
atom 2.2669663899999999 3.9090960500000000 0.2585943900000000 O
atom 2.6657809200000000 3.8965620599999999 5.4644751200000004 O
atom 2.4529916100000002 8.9192725599999996 0.1443477300000000 O
atom 2.6865639699999999 9.0520201300000007 5.4582029299999997 O
atom 7.2906722000000004 3.9092524700000002 0.6692536900000000 O
atom 7.7239650099999997 3.8812308299999998 5.8903432100000002 O
atom 7.3417828800000002 9.0285156400000002 0.6773597300000000 O
atom 7.7027658700000003 9.0233192199999994 5.9143056700000001 O
atom 2.4249392900000002 3.7917796699999999 2.8497538699999998 O
atom 2.8872894200000001 3.8327943300000000 8.0638631800000002 O
atom 2.5800841100000000 8.8461996299999992 2.8887880500000001 O
atom 2.8869806599999999 8.9662907900000004 8.0480196100000008 O
atom 7.5031021400000002 3.7784898000000000 3.2924528600000000 O
atom 7.9392882000000000 3.7974912600000001 8.4814024200000002 O
atom 7.6118841799999997 8.9211481900000003 3.2673959799999999 O
atom 7.9765751199999997 8.9492972999999996 8.4894309299999993 O
