lattice_vector 10.1360109200000004 0.0129732100000000 0.7728773300000000 
lattice_vector 0.0459390500000000 10.2828354799999993 -0.0054684100000000 
lattice_vector 0.8002860600000000 -0.0413357900000000 10.4213618900000000 
atom 1.3667229299999999 0.1143678400000000 1.8288760700000000 Si
atom 1.8583611900000001 0.1348996100000000 6.8050307800000001 Hf
atom 1.5451060700000001 5.3700780400000001 1.6332944800000000 Hf
atom 1.9215715099999999 5.0795254200000004 7.0155020300000004 Hf
atom 6.5786775300000002 0.2427633900000000 2.0122438400000000 Hf
atom 6.9273132999999998 0.2637171900000000 7.2652171100000000 Hf
atom 6.6097792499999999 5.3406250300000000 2.0016231300000000 Hf
atom 7.0056404299999997 5.3006711900000001 7.2172044499999997 Hf
atom 1.7325411300000000 2.3119901000000000 4.1670287000000004 Hf
atom 2.1365402800000002 2.2181225499999999 9.4712135400000008 Hf
atom 1.6413359300000001 7.6470527800000001 4.0820264300000000 Hf
atom 2.0663061800000002 7.4571007099999997 9.4402188999999996 Hf
atom 6.7919812500000001 2.3662423900000000 4.6057629799999997 Hf
atom 7.2080900699999999 2.3466746999999999 9.8727648200000004 Hf
atom 6.8856490499999996 7.4979813899999996 4.5428022800000001 Hf
atom 7.1342108000000000 7.4787753600000002 9.8797248300000007 Hf
atom 3.7300874600000000 2.7900326500000001 1.3547792999999999 Hf
atom 4.1601625799999997 2.7022838700000000 6.5705216899999996 Hf
atom 3.7050533600000000 8.0602468399999996 1.3355557400000000 Hf
atom 4.1867259800000003 7.7946980300000002 6.6554243700000004 La
atom 8.9199665100000001 2.7310859500000002 1.7837555199999999 Hf
atom 9.2037043500000006 2.7283344600000001 6.9361188399999998 Hf
atom 8.8629245900000004 7.9677994200000004 1.7538652400000001 Hf
atom 8.9544273200000006 7.9634209599999997 7.0072111399999999 Hf
atom 3.9499751600000002 5.0815434399999999 4.1080258599999997 La
atom 4.3616172200000003 4.9148133800000000 9.2453352300000002 Hf
atom 3.9907615999999999 10.0549869699999999 3.9173452700000002 Hf
atom 4.3626563300000001 10.1491468400000002 9.2082303000000003 Hf
atom 9.0494501899999999 4.9157793800000000 4.3385838999999997 Hf
atom 9.3788519800000003 4.8912200800000001 9.6113218899999993 Hf
atom 9.0433952200000007 10.0916555900000002 4.3688980400000004 Hf
atom 9.4246335499999994 10.0424354499999993 9.5696356399999996 Hf
atom 0.6001335900000000 1.4617205600000001 0.9035429100000000 O
atom 0.7502795000000000 1.5796394499999999 5.9672096300000002 O
atom 0.3951785900000000 6.8058134099999998 0.7835299999999999 O
atom 2.3351589399999999 6.4427623399999998 5.5671051699999996 O
atom 5.5424883400000002 1.8081519200000000 1.3076636200000000 O
atom 5.9978759899999998 1.8761830300000000 6.5635295999999999 O
atom 5.4881253299999999 6.9505181000000000 1.2996265499999999 O
atom 6.2797652399999997 6.9884232800000001 6.4535509400000004 O
atom 0.6512414900000000 0.7473271800000000 3.3625493400000002 O
atom 0.9367333300000000 0.8347138100000000 8.5980038699999994 O
atom 0.6218849500000000 5.9999443699999997 3.4403253500000002 O
atom 0.8475024799999999 6.1131437399999999 8.5139148500000008 O
atom 5.7477484299999997 0.7398169200000000 3.9056313500000002 O
atom 6.1618707700000002 0.7843487900000000 9.1581904699999992 O
atom 6.0615807600000000 5.8084589700000002 3.9408872100000001 O
atom 6.0774051599999996 5.9744337099999996 9.0398378800000003 O
atom 4.8766787899999997 4.3607353800000004 2.0218213500000002 O
atom 5.1324266400000003 4.4529216500000004 7.2157344200000004 O
atom 4.8561885100000000 9.5373626300000005 2.0657383100000000 O
atom 5.2098167000000002 9.6780600799999998 7.3324265600000000 O
atom 9.9904104399999998 4.2454307800000004 2.5463043700000001 O
atom 10.2555973900000001 4.2676877500000003 7.7605220099999999 O
atom 10.1033356699999999 9.3919064399999996 2.6083661500000002 O
atom 10.3370673600000007 9.2129142700000006 7.7850665799999996 O
atom 5.0069112699999998 3.1807149899999998 4.7225169400000002 O
atom 5.5222821700000004 3.4235822599999999 9.9280478300000006 O
atom 5.0409813200000002 8.3600959800000005 4.4601375799999996 O
atom 5.3430236600000001 8.4994043399999999 9.9009445899999999 O
atom 10.1248190499999993 3.3762154799999999 5.1294374600000001 O
atom 10.5960647199999993 3.4127230000000002 10.4090708200000002 O
atom 10.0452999399999996 8.5015677099999998 5.2686909999999996 O
atom 10.5229943200000005 8.5927720900000004 10.4094594800000007 O
atom 2.8313085099999999 1.1979645200000000 2.5243563999999998 O
atom 3.2915633299999998 1.2532016699999999 7.8477397399999997 O
atom 2.8899564000000000 6.6604485300000000 2.6712913500000002 O
atom 3.2333659300000002 6.2715631600000004 8.1050643900000008 O
atom 8.0982040400000006 1.2931051600000001 3.1103608000000000 O
atom 8.4726478099999998 1.3167402800000001 8.3227502900000001 O
atom 8.1925106099999994 6.4952392999999997 3.0673189000000001 O
atom 8.4279190800000006 6.4573853699999999 8.3512688799999992 O
atom 3.2035092500000002 1.2208089799999999 5.2537459100000001 O
atom 3.8226737499999999 1.4851825500000000 10.3039771800000004 O
atom 3.5912081400000000 6.4510354200000002 10.5605548200000001 O
atom 8.2593317699999993 1.2413544400000001 5.7009181900000003 O
atom 8.6949330299999996 1.2051161800000001 10.9487365099999998 O
atom 8.4804086999999999 6.3530960299999997 5.7350696699999997 O
atom 8.6271646299999993 6.3609944399999998 10.9233842299999999 O
atom 2.3021965299999998 3.9764183499999999 0.2734233200000000 O
atom 2.5859907000000000 3.7291989200000000 5.6015079200000004 O
atom 2.2518182499999999 9.4507200800000000 0.4628099300000000 O
atom 2.6118854200000001 9.0859730600000006 5.3490460600000000 O
atom 7.4421796499999999 3.8799022299999999 0.6949822200000000 O
atom 7.7640372400000004 3.8878414800000001 5.8585761800000000 O
atom 7.3486528599999996 9.0589561700000001 0.6648224400000000 O
atom 7.7188084400000001 9.1029510899999995 5.8661262699999996 O
atom 2.4435010500000001 3.7396341099999999 2.8349187200000001 O
atom 2.9394576400000001 3.6941645400000001 8.1537385600000007 O
atom 2.3918365000000001 9.0958363299999991 2.8048644899999999 O
atom 2.8109330699999999 8.9716698600000004 8.2378646300000007 O
atom 7.6239225099999999 3.7541553799999998 3.2312394400000000 O
atom 7.9423287299999998 3.8029657700000001 8.4997182599999999 O
atom 7.6688456499999997 8.9812927400000007 3.2488297199999998 O
atom 7.8804666900000004 8.9574667600000009 8.4984061499999992 O
