lattice_vector 10.0242644799999994 -0.0094016200000000 0.7648003000000000 
lattice_vector 0.0096937000000000 10.1466170200000008 -0.0070079100000000 
lattice_vector 0.8643128400000000 -0.0003546000000000 10.4403841899999996 
atom 1.3061227000000000 0.1041198000000000 1.8427421500000001 Si
atom 1.9101658699999999 0.2111123500000000 6.8155102999999997 Hf
atom 1.5493657999999999 5.2872933000000000 1.6506572900000001 Hf
atom 1.9699062400000000 5.2737865700000004 6.8355704399999997 Hf
atom 6.4878114900000003 0.2045135700000000 1.9982512900000000 Hf
atom 6.9449423699999997 0.2135142100000000 7.2454034399999996 Hf
atom 6.5658198099999998 5.3338925399999999 1.9801455600000000 Hf
atom 6.9389091699999996 5.3048190599999998 7.1623289999999997 Hf
atom 1.6931635199999999 2.2989623600000000 4.1361527699999998 Hf
atom 2.2100931300000002 2.2728574899999998 9.4653667200000005 Hf
atom 1.7191650500000000 7.3789113200000003 4.2447431900000003 Hf
atom 2.1392827099999998 7.4084982500000001 9.4516826399999996 Hf
atom 6.7616092099999996 2.2903810500000001 4.6173390599999999 Hf
atom 7.2098424699999999 2.3513202000000000 9.8536161900000003 Hf
atom 6.5704055700000001 7.4761909700000002 4.8200178300000003 Si
atom 7.1172854799999996 7.4124665700000003 9.8335804200000005 Hf
atom 3.7063644000000000 2.7427823299999998 1.3623532800000000 Hf
atom 4.1302579200000000 2.7608425099999998 6.5585670299999999 Hf
atom 3.6295858900000000 7.8986839800000004 1.3667812500000001 Hf
atom 4.1323729000000000 7.8544126900000002 6.6230482500000001 Hf
atom 8.8304747500000005 2.6477691600000002 1.7924868899999999 Hf
atom 9.1700219900000004 2.7433115699999999 6.9592332199999998 Hf
atom 8.7359934599999995 7.7583694799999998 1.7738264699999999 Hf
atom 9.1125786600000005 7.7980159300000000 6.9476855799999999 Hf
atom 4.0455186400000001 4.9266094300000001 3.9949875900000000 Hf
atom 4.3702886899999998 4.8753311600000000 9.2080230400000005 Hf
atom 3.9173212199999998 9.9067674799999992 3.9457350299999998 Hf
atom 4.3453605800000004 10.0238934999999998 9.2261852799999993 Hf
atom 8.9034659299999994 4.8745893699999998 4.3116836200000002 Hf
atom 9.3933883100000006 4.8174591700000002 9.5945603599999991 Hf
atom 8.8552038399999997 9.8090646800000005 4.3743452999999999 Hf
atom 9.3774454899999995 9.9190164500000009 9.5891809699999992 Hf
atom 0.5821122300000000 1.4113399099999999 0.8779257600000000 O
atom 0.8300287600000000 1.6406050999999999 5.9623148400000003 O
atom 0.4634114500000000 6.7557378300000002 0.8256248400000000 O
atom 0.7942117400000001 6.6915130400000002 6.0219425199999996 O
atom 5.4372937900000000 1.6714084300000001 1.2134809099999999 O
atom 5.8513395700000004 1.6804970900000000 6.4204913699999997 O
atom 5.3783763400000000 6.7597053599999999 1.1791431999999999 O
atom 5.8688920199999997 6.8274556400000002 6.3335957100000000 O
atom 0.5990440800000000 0.7580000700000000 3.3464085200000002 O
atom 1.0422628100000000 0.8688456600000000 8.6157312899999994 O
atom 0.6345590400000000 5.9179827800000000 3.4388128999999998 O
atom 1.0688330600000000 5.9400368099999996 8.6548177099999997 O
atom 5.5825007299999996 0.8933150600000000 3.7905574799999999 O
atom 6.1066791699999996 0.8779094900000000 9.0437066700000006 O
atom 5.8523778699999998 6.1495413699999997 3.8747361200000001 O
atom 6.0287478700000001 6.0204292099999996 8.9330335600000002 O
atom 4.8901018000000001 4.2316994399999999 2.2469442499999999 O
atom 5.2496935899999997 4.2209730099999998 7.3917200699999999 O
atom 4.8144971200000004 9.2556970199999995 2.2035375899999998 O
atom 5.2351216999999997 9.3150828099999998 7.4118003500000000 O
atom 9.9746830600000003 4.0577125000000001 2.6114437900000000 O
atom 10.3152671700000003 4.1385299499999997 7.8194644899999997 O
atom 9.8801399599999993 9.2388026599999993 2.5874969100000000 O
atom 10.2515926099999994 9.2376840799999993 7.7726571199999999 O
atom 5.1183015599999999 3.4645841399999999 4.8146387400000004 O
atom 5.5815120599999997 3.5380068100000002 10.0769913199999994 O
atom 5.1300276000000000 8.4690570699999999 4.7831771400000003 O
atom 5.3881529500000003 8.5141892200000004 10.0268072499999992 O
atom 10.0410479400000003 3.3739437799999998 5.1492193700000000 O
atom 10.5418324400000003 3.3622516199999999 10.4690885900000001 O
atom 10.0466353200000000 8.4664467899999991 5.2120202799999999 O
atom 10.4654987300000002 8.4530333899999999 10.3996390699999992 O
atom 2.7725651299999998 1.1617721000000001 2.4900645500000000 O
atom 3.3747397200000000 1.2893041800000000 7.8387241400000001 O
atom 3.0058940100000000 6.4176793200000004 2.7394647299999999 O
atom 3.4110178400000000 6.3887065999999999 7.9241953199999999 O
atom 7.9802286799999997 1.1602377399999999 3.0987815200000002 O
atom 8.4461888300000005 1.3072365900000000 8.3157356100000008 O
atom 8.2374992599999999 6.1103738099999996 2.8226828600000000 O
atom 8.4248878200000004 6.3274443600000003 8.2244687200000008 O
atom 3.1898340100000002 1.2605630200000000 5.2103646299999999 O
atom 3.8658318500000002 1.4992956700000000 10.3144720299999992 O
atom 3.2101676600000002 6.3335571599999998 5.3361465700000004 O
atom 3.6391162499999998 6.3838590999999996 10.5320726899999997 O
atom 8.2088226500000001 1.1703047200000001 5.7085763099999998 O
atom 8.6583979299999996 1.2199668900000000 10.9388172299999997 O
atom 8.0171579800000004 6.4383950399999996 5.4703134599999998 O
atom 8.6010761099999993 6.3265181999999998 10.8194523999999994 O
atom 2.2783104500000002 3.8981643400000001 0.2887587800000000 O
atom 2.7081172200000001 3.8631122900000001 5.4667800900000003 O
atom 2.1738901199999998 9.2711318600000006 0.4807073900000000 O
atom 2.7273977700000001 8.9155836199999996 5.4928311399999998 O
atom 7.3560910000000002 3.8263244900000002 0.6958833400000000 O
atom 7.7255004999999999 3.8647714700000000 5.8768220900000001 O
atom 7.2569062400000002 8.9092194599999992 0.7098046099999999 O
atom 7.5476543400000002 8.8376827500000008 5.8667975099999996 O
atom 2.5717110900000000 3.7563586299999998 2.9171248500000000 O
atom 2.9221660500000000 3.7582405300000001 8.1174079500000005 O
atom 2.3219009499999999 8.8900014699999996 2.8817944000000000 O
atom 2.8857458500000002 8.8590145299999996 8.1549040000000002 O
atom 7.5351503700000002 3.6541142000000000 3.2525392399999999 O
atom 7.9138840999999998 3.7799537299999999 8.4842249699999996 O
atom 7.4546263699999997 8.4764908699999992 3.4531875799999998 O
atom 7.9002211300000003 8.8323640799999996 8.4978142600000002 O
