lattice_vector 10.0169286300000007 -0.0368424300000000 0.0547882000000000 
lattice_vector -0.0196007400000000 10.4094585800000008 -0.0581891800000000 
lattice_vector 0.0550931700000000 0.0194699100000000 10.0377774599999992 
atom 1.1917894499999999 0.3739135500000000 1.1133180600000001 Si
atom 1.4092315900000001 0.2047199000000000 6.3330412200000001 Hf
atom 1.3365949600000000 5.3608650700000000 1.2224846199999999 Hf
atom 1.4493582199999999 5.3308656499999998 6.2695027400000001 Hf
atom 6.3801568700000004 0.2071521400000000 1.3070990000000000 Hf
atom 6.3291922100000004 0.0919686000000000 6.2831922100000002 Hf
atom 6.3456795399999999 5.3643155199999999 1.2492800100000001 Hf
atom 6.2138184900000004 5.2912170400000003 6.1445219700000004 La
atom 1.3705183200000000 2.3197435099999999 3.6883037200000000 Hf
atom 1.3238332500000001 2.4812257700000000 8.8032661200000000 Hf
atom 1.4459061600000001 7.5849386499999998 3.8222620200000001 Hf
atom 1.2922919500000001 7.6293150599999997 8.7222308799999997 Hf
atom 6.4267252600000004 2.3529416500000000 3.8263517199999999 Hf
atom 6.3680253899999997 2.4419715300000000 8.7634663300000000 Hf
atom 6.0465071999999997 7.9534336400000001 3.3401764900000002 Hf
atom 6.3233769600000000 7.6673986899999997 8.8060679099999994 Hf
atom 3.6941879800000001 2.7075832700000002 1.2189127500000001 Hf
atom 3.6717762299999999 2.7588219700000001 6.2923490299999996 Hf
atom 3.5446730999999998 7.9802843899999996 1.1794774100000001 Hf
atom 3.6600327400000001 8.0320917200000004 6.3749203100000003 Hf
atom 8.6568394299999998 2.7518582999999999 1.2338596600000000 Hf
atom 8.7273115099999998 2.6760644800000000 6.2850061200000003 Hf
atom 8.7622923400000001 7.9639436799999999 1.2134916300000000 Hf
atom 8.7658092799999991 8.1038640199999996 6.3649097799999996 Hf
atom 3.7253001100000001 5.0049011700000001 3.7008229300000002 Hf
atom 3.6743936800000001 5.0467235500000003 8.8290256199999995 Hf
atom 3.6071922199999999 10.1988214700000004 3.7632066700000002 Hf
atom 3.6122797200000001 10.3200771699999994 8.8546363400000008 Hf
atom 8.7548514300000004 5.1370121099999997 3.7629937999999998 La
atom 8.6776677299999996 5.0482858300000002 8.7161521200000003 Hf
atom 8.7688504900000002 10.1663111399999995 3.7371121800000000 Hf
atom 8.6526342700000001 10.2763937999999992 8.7983002300000006 Hf
atom 0.3977245400000000 1.8312467299999999 1.8157195800000001 O
atom 0.3566175400000000 1.8465945100000001 7.0622705699999999 O
atom 0.2985298800000000 7.0427224900000001 2.0227380300000002 O
atom 0.4429859200000000 7.1449485599999996 6.8995240700000000 O
atom 5.2537266599999999 1.8008285100000001 2.0992036700000001 O
atom 5.4113318499999998 1.9111345399999999 6.9804740199999999 O
atom 5.2833449200000002 7.1215069199999999 1.6306637500000001 O
atom 5.3003781999999999 7.2294766900000003 7.1063077600000000 O
atom 0.4277804000000000 0.5784201700000000 4.5157205899999999 O
atom 0.3569002100000000 0.6868907500000000 9.6316472399999995 O
atom 0.6836648100000000 5.8294340499999997 4.4736656500000000 O
atom 0.3488336400000000 5.9156860699999996 9.4697337299999997 O
atom 5.3708222299999999 0.6977552200000000 4.5276152400000003 O
atom 5.3038855099999997 0.7624525599999999 9.6595034799999997 O
atom 5.5191468600000002 6.0642435099999998 4.0231550699999996 O
atom 5.4088758400000003 5.8733656500000002 9.4147466499999997 O
atom 4.6381851699999999 4.4753862099999999 1.8635778999999999 O
atom 4.5061569900000000 4.4269347000000003 7.1097049700000001 O
atom 4.9294737900000003 9.4936224100000004 2.2170370400000001 O
atom 4.6136178900000004 9.8004990500000009 7.0486433499999999 O
atom 9.7415811199999993 4.3460426700000001 1.8706197899999999 O
atom 9.6917895900000008 4.4986055000000000 6.9075647499999997 O
atom 9.9763710799999998 9.7311221299999993 1.8867378800000001 O
atom 9.7017717900000005 9.7128073500000003 7.0293699500000004 O
atom 4.8211373799999997 3.4302156400000001 4.5786154899999998 O
atom 4.6630824100000003 3.2769353600000000 9.4952756699999998 O
atom 4.6718448800000001 8.5916229099999999 4.6469665500000001 O
atom 4.5927430899999999 8.5953171200000007 9.4766258600000004 O
atom 9.8173182600000004 3.0887237399999998 4.5484419200000001 O
atom 9.6471762099999996 3.2912927399999998 9.4450967200000004 O
atom 9.6347896599999991 8.3183815699999997 4.4766662000000004 O
atom 9.6397188299999996 8.4919083499999992 9.4113476100000000 O
atom 2.4809905900000002 0.8639120200000000 2.3923670200000000 O
atom 2.7460982000000000 1.2661434100000000 7.5561047200000004 O
atom 2.6903872299999998 6.3170948700000000 2.4615779799999999 O
atom 2.7116123200000000 6.4317850800000000 7.5570558400000003 O
atom 7.7688168800000001 1.2141467300000000 2.5218608699999998 O
atom 7.6944879500000001 1.1523619899999999 7.5424631499999997 O
atom 7.5843246000000004 6.6335143499999996 2.4416307399999999 O
atom 7.8528866700000002 6.5278824400000000 7.3879117299999999 O
atom 2.7520862500000001 1.3600421800000000 4.9794473100000003 O
atom 2.5840091699999999 1.4376945000000001 10.0893978600000001 O
atom 2.9460818700000000 6.5645501499999996 5.0344930000000003 O
atom 2.6573439099999998 6.6643623500000002 10.0068499699999993 O
atom 7.8026052300000002 1.1747386900000001 5.0343254799999997 O
atom 7.7053658799999996 1.4026918399999999 10.0341539700000002 O
atom 7.7608539299999997 6.6041238099999999 9.9780037799999999 O
atom 2.4180023700000000 3.9380023400000002 5.0120988200000003 O
atom 2.3260006299999998 4.0152349799999998 10.0382735800000003 O
atom 2.2703361499999999 9.1562232500000000 5.0964788800000003 O
atom 2.2335686899999998 9.4509968000000004 10.2898812100000008 O
atom 7.4157768800000001 3.6826115300000000 5.0088908099999996 O
atom 7.3403132900000001 4.0139954099999997 10.0087465600000005 O
atom 7.3333650500000003 8.9885475300000000 4.9614482999999998 O
atom 7.3105020400000003 9.2281320800000000 10.0071808299999994 O
atom 2.3934439099999998 3.6919455800000001 2.5092331300000001 O
atom 2.2492724599999998 3.8041021399999999 7.5391491400000001 O
atom 2.5725207700000001 8.7819904100000006 2.6948502699999999 O
atom 2.2780970599999999 9.0969908700000008 7.6376906900000003 O
atom 7.2412814200000000 3.7583497100000001 2.4231032199999998 O
atom 7.4469865899999999 3.7224844099999999 7.5748446800000000 O
atom 7.5053653499999999 9.1257501100000002 2.3967565099999999 O
atom 7.3086479200000003 9.0575326199999999 7.5250063100000002 O
