lattice_vector 10.1160960000000006 -0.0016400000000000 -0.0832630000000000 
lattice_vector 0.0135880000000000 10.3045589999999994 0.0324130000000000 
lattice_vector -0.0308780000000000 -0.0226050000000000 10.4558490000000006 
atom 1.3211919999999999 0.0031520000000000 1.6631330000000000 La
atom 1.3765010000000000 0.1962090000000000 7.0038869999999998 Hf
atom 1.4132169999999999 5.3966459999999996 1.8017160000000001 Hf
atom 1.3801730000000001 5.3551659999999996 7.0131839999999999 Hf
atom 1.3733550000000001 2.3317549999999998 4.3764510000000003 Hf
atom 1.4651240000000001 2.4029449999999999 9.5290599999999994 Hf
atom 1.4040440000000001 7.5014289999999999 4.4312769999999997 Hf
atom 1.4013700000000000 7.4768939999999997 9.6251580000000008 Hf
atom 3.5724819999999999 2.7746870000000001 1.7466210000000000 Hf
atom 3.6453750000000000 2.7628330000000001 6.9641840000000004 Hf
atom 3.7267560000000000 7.8681450000000002 1.7796400000000001 Hf
atom 3.6425969999999999 7.9151499999999997 7.0062280000000001 Hf
atom 3.6142520000000000 4.9208610000000004 4.3863320000000003 Hf
atom 3.6685349999999999 4.9272570000000000 9.6080009999999998 Hf
atom 3.6549200000000002 10.0761439999999993 4.4124129999999999 Hf
atom 3.6768749999999999 10.0377709999999993 9.5742759999999993 Hf
atom 6.4220920000000001 0.1785390000000000 0.7989290000000000 Hf
atom 6.4417920000000004 0.1947250000000000 6.0327080000000004 Hf
atom 6.5006589999999997 5.3078760000000003 0.7921450000000000 Hf
atom 6.4508830000000001 5.3370829999999998 6.0181319999999996 Hf
atom 6.3700630000000000 2.3845250000000000 3.4340910000000000 Hf
atom 6.4596359999999997 2.3489249999999999 8.6238050000000008 Hf
atom 6.4647030000000001 7.4710950000000000 3.4314360000000002 Hf
atom 6.4701409999999999 7.4723069999999998 8.6315340000000003 Hf
atom 8.8402010000000004 2.6559720000000002 0.8890709999999999 La
atom 8.6986690000000007 2.7781479999999998 5.9885929999999998 Hf
atom 8.6788410000000002 7.9073820000000001 0.7808840000000000 Hf
atom 8.7180979999999995 7.9329400000000003 6.0145010000000001 Hf
atom 8.7196909999999992 4.9714830000000001 3.4115869999999999 Hf
atom 8.7061510000000002 4.8922580000000000 8.5998809999999999 Hf
atom 8.6000499999999995 10.0989020000000007 3.4641259999999998 Hf
atom 8.7080880000000001 10.0547529999999998 8.6471970000000002 Hf
atom 0.8177910000000000 2.0864810000000000 0.9798960000000000 O
atom 0.3438500000000000 1.7523910000000000 6.1614000000000004 O
atom 0.4447380000000000 7.1059539999999997 1.0368340000000000 O
atom 0.3562480000000000 6.9262290000000002 6.1880139999999999 O
atom 0.1801710000000000 0.8783650000000000 3.5763630000000002 O
atom 0.3631620000000000 0.7821630000000001 8.8317180000000004 O
atom 0.3873880000000000 5.9720740000000001 3.6116489999999999 O
atom 0.3508180000000000 5.9410699999999999 8.7804210000000005 O
atom 4.7565989999999996 4.2341129999999998 0.8304049999999999 O
atom 4.7237270000000002 4.2356790000000002 6.0575700000000001 O
atom 4.7687210000000002 9.3863090000000007 0.8489679999999999 O
atom 4.7281389999999996 9.3880440000000007 6.0866429999999996 O
atom 4.6544470000000002 3.4601400000000000 3.4449169999999998 O
atom 4.7168060000000001 3.4321920000000001 8.6601099999999995 O
atom 4.7975740000000000 8.6198949999999996 3.4578769999999999 O
atom 4.7564640000000002 8.5940770000000004 8.6518960000000007 O
atom 2.7970999999999999 1.2970340000000000 3.1269740000000001 O
atom 2.7764989999999998 1.2514160000000001 8.2267849999999996 O
atom 2.8153709999999998 6.3955130000000002 3.0849009999999999 O
atom 2.7823140000000000 6.4216300000000004 8.3035859999999992 O
atom 2.9452980000000002 1.3408040000000001 0.3043660000000000 O
atom 2.7554430000000001 1.2702030000000000 5.6725859999999999 O
atom 2.7989519999999999 6.4032689999999999 0.4694980000000000 O
atom 2.7729059999999999 6.4282990000000000 5.7013569999999998 O
atom 2.2089370000000002 3.8525250000000000 3.0501960000000001 O
atom 2.2999200000000002 3.8561030000000001 8.2417289999999994 O
atom 2.3916089999999999 8.8676670000000009 3.1586270000000001 O
atom 2.2554020000000001 8.9694000000000003 8.2790300000000006 O
atom 2.3178869999999998 3.9521510000000002 0.3905180000000000 O
atom 2.2445979999999999 3.8609979999999999 5.6621660000000000 O
atom 2.5017510000000001 8.8635909999999996 0.3305420000000000 O
atom 2.2576299999999998 9.0310179999999995 5.7141289999999998 O
atom 5.3004309999999997 1.6896279999999999 1.7118720000000001 O
atom 5.3695440000000003 1.6619699999999999 6.9493000000000000 O
atom 5.4058409999999997 6.7677949999999996 1.7512430000000001 O
atom 5.3680370000000002 6.8019819999999998 6.9602370000000002 O
atom 5.3492829999999998 0.8792720000000001 4.3660750000000004 O
atom 5.3259420000000004 0.8902670000000000 9.5623839999999998 O
atom 5.3623659999999997 6.0100210000000001 4.3568030000000002 O
atom 5.3759100000000002 6.0396760000000000 9.5890199999999997 O
atom 9.7221899999999994 4.5976929999999996 1.6278640000000000 O
atom 9.7364189999999997 4.3532510000000002 6.8025739999999999 O
atom 9.3131299999999992 9.7255979999999997 1.4996730000000000 O
atom 9.7475039999999993 9.4727730000000001 6.8847180000000003 O
atom 9.7229749999999999 3.3847740000000002 4.2113160000000001 O
atom 9.8110440000000008 3.3670990000000001 9.3025020000000005 O
atom 9.7542650000000002 8.5482639999999996 4.2203830000000000 O
atom 9.7679819999999999 8.5349710000000005 9.5128079999999997 O
atom 7.7241660000000003 1.1391849999999999 9.8794319999999995 O
atom 7.7921449999999997 1.2701789999999999 4.7659110000000000 O
atom 7.8574679999999999 6.3850949999999997 9.9500290000000007 O
atom 7.8419119999999998 6.4181350000000004 4.7401530000000003 O
atom 7.5782429999999996 1.1861050000000000 2.2514200000000000 O
atom 7.8425580000000004 1.2864409999999999 7.3294600000000001 O
atom 7.8564509999999999 6.4661900000000001 2.1198839999999999 O
atom 7.8427069999999999 6.4374979999999997 7.3301489999999996 O
atom 7.2749670000000002 3.8657200000000000 9.8735289999999996 O
atom 7.3098850000000004 3.8513299999999999 4.7429709999999998 O
atom 7.2893169999999996 8.9355940000000000 9.9567139999999998 O
atom 7.3103499999999997 8.9879029999999993 4.7677709999999998 O
atom 7.2415520000000004 3.9318350000000000 2.2097880000000001 O
atom 7.3220229999999997 3.8408490000000000 7.3138649999999998 O
atom 7.2358880000000001 8.9403530000000000 2.1423630000000000 O
atom 7.3353890000000002 8.9969000000000001 7.3558760000000003 O
