lattice_vector 10.0424508299999999 0.0368842000000000 -0.1291787700000000 
lattice_vector 0.0509796100000000 10.2626649299999997 -0.0272481200000000 
lattice_vector -0.1076676600000000 0.0202432000000000 5.2169750300000004 
atom 1.0930852499999999 0.0960534000000000 1.5120302200000000 La
atom 1.3936085800000000 5.3983633400000004 1.6357233000000000 Hf
atom 1.3819816000000000 2.4522599000000000 4.1646575400000003 Hf
atom 1.1363437800000000 7.6969795300000001 4.1466724099999999 Hf
atom 3.5864316100000000 2.7917528599999999 1.6541409199999999 Hf
atom 3.6406637000000002 7.9228377999999999 1.6160612599999999 Hf
atom 3.5247546100000000 5.0099844999999998 4.2810079700000001 Hf
atom 3.6038614099999999 10.0972983200000002 4.2034774800000001 Hf
atom 6.3844476999999999 0.2377526600000000 0.7618289800000000 Hf
atom 6.3919613699999998 5.3695395100000001 0.7178047000000000 Hf
atom 6.3345448099999997 2.3998030899999998 3.3421621500000001 Hf
atom 6.3727457999999997 7.5111282399999997 3.3431779100000001 Hf
atom 8.5732637399999998 2.8630254200000000 0.7493188200000001 Hf
atom 8.6441028400000004 7.8671553999999997 0.8555590700000000 Hf
atom 8.6520243099999998 4.9366243699999997 3.3430263099999999 Hf
atom 8.5906036900000000 10.0790746099999993 3.4801358300000000 Hf
atom 0.2975838900000000 6.7725940800000002 0.6529237800000000 O
atom 0.1846648100000000 0.9534304600000000 3.5807185100000001 O
atom 0.2795318300000000 6.0338374400000001 3.3588836500000001 O
atom 4.6800613000000002 4.3118696999999999 0.7688153200000000 O
atom 4.7240396200000001 9.4740806600000003 0.7617010200000000 O
atom 4.6407162399999997 3.4696188200000000 3.3841799199999998 O
atom 4.7157350800000000 8.6130930899999996 3.3377537799999999 O
atom 2.7526829400000001 1.3471444299999999 2.9212558799999999 O
atom 2.7001765600000001 6.4725531099999998 2.9083408799999999 O
atom 2.7405655300000000 1.3838115300000000 0.2453616100000000 O
atom 2.7626807800000002 6.4271991899999996 0.3171576100000000 O
atom 2.2393317599999998 3.9162948100000001 2.9396445000000000 O
atom 2.3208586599999999 8.9886497900000002 2.9025793900000001 O
atom 2.2361127399999998 3.8972726299999998 0.3399908900000000 O
atom 2.4298365400000002 8.8868974400000003 0.1862569500000000 O
atom 5.3765486200000003 1.7794879699999999 1.5994613400000000 O
atom 5.3840080400000003 6.8904138499999998 1.5899625200000000 O
atom 5.3242245500000003 0.8708167800000000 4.2039851500000003 O
atom 5.2929047400000000 6.0347594999999998 4.2137162999999997 O
atom 9.7469009100000008 4.1918400900000004 1.6896553000000001 O
atom 9.7666681099999995 8.6568305300000006 2.4860829400000002 O
atom 9.6462589500000000 3.4713020499999998 4.3466287399999999 O
atom 9.7467447200000006 9.1457215400000003 4.9598465100000002 O
atom 7.6987740899999997 1.3281841900000000 4.7377327600000001 O
atom 7.7530831600000001 6.4397542899999998 4.6962083799999998 O
atom 7.8611794300000000 1.3013587900000001 2.0864998300000002 O
atom 7.7488104900000003 6.4061825900000002 2.0915223500000000 O
atom 7.1872735099999998 3.8926054099999998 4.6536861500000004 O
atom 7.2382623900000000 8.9539559099999995 4.6979205899999998 O
atom 7.2550808800000004 3.8892061700000000 2.0557108300000002 O
atom 7.2990237599999999 9.0708404700000003 2.0750021900000002 O
