lattice_vector 10.1556764299999998 0.0277550100000000 0.7063024700000000 
lattice_vector 0.0239523200000000 10.1950646099999993 -0.0033934500000000 
lattice_vector 0.8514501100000000 -0.0513669600000000 10.5804871499999997 
atom 1.3063749099999999 0.2376812800000000 1.7621879300000001 Si
atom 1.8763351800000001 0.1349454800000000 6.9025035900000002 Hf
atom 1.5195580600000000 5.3444692600000003 1.7085690800000000 Hf
atom 1.9212613900000000 5.0985263800000000 6.8635426900000001 La
atom 6.5703009500000000 0.2500521200000000 1.9369589899999999 Hf
atom 6.9892732000000004 0.0602400000000000 7.3205000299999998 Hf
atom 6.5898431300000002 5.3351860100000001 1.9668816400000000 Hf
atom 7.2634146900000003 5.3799611299999999 7.2419949700000004 Hf
atom 1.7723754199999999 2.3005520800000001 4.1977109900000000 Hf
atom 2.1920192300000001 2.2630346800000001 9.5711734400000008 Hf
atom 1.8044392100000000 7.4192740900000000 4.3200272499999999 Hf
atom 2.0574273299999999 7.3941324200000000 9.5873321100000002 Hf
atom 6.8995442100000002 2.3228112599999999 4.5110646799999996 Hf
atom 7.1747424700000000 2.3232045700000001 9.8870571399999996 Hf
atom 6.8340391699999996 7.4297312900000003 4.6154422999999998 Hf
atom 7.1531532599999998 7.3978651199999996 9.9474386999999993 Hf
atom 3.7171646200000001 2.7237606099999998 1.3251132500000000 Hf
atom 4.3896582200000003 2.5825050599999999 6.7118257899999998 La
atom 3.6868791900000000 7.9657127299999999 1.4370657700000000 Hf
atom 4.2009826099999996 7.7656326199999999 6.7080729899999998 Hf
atom 8.9174999300000000 2.7456813300000000 1.7146078700000000 Hf
atom 9.2409332299999996 2.6475909299999998 6.9614194500000002 Hf
atom 8.8454811099999997 7.9168182600000003 1.7306302600000001 Hf
atom 9.3182993500000002 7.8899348500000004 6.9793192599999996 Hf
atom 4.0614179100000003 4.8303025799999997 3.9720457300000001 Hf
atom 4.3515257600000004 5.0326427100000002 9.5512884899999992 Hf
atom 4.0335974300000004 9.9253450200000000 3.9973041000000000 Hf
atom 4.3375275100000001 10.0020176200000002 9.3507760700000002 Hf
atom 9.1072058899999995 4.8711977800000001 4.3530297400000002 Hf
atom 9.4488807599999998 4.8188558099999996 9.7345900200000006 Hf
atom 9.1022032300000006 9.9761329199999995 4.3265781700000003 Hf
atom 9.4611055099999994 9.9904774300000003 9.6613528599999992 Hf
atom 0.5635225500000000 1.4794112900000000 0.8131208000000000 O
atom 0.8287137000000000 1.5889081199999999 6.0044958900000003 O
atom 0.3509798900000000 6.7608043799999997 0.8564771200000000 O
atom 0.8361855200000000 6.8641458499999999 6.0744113400000002 O
atom 5.4109677600000001 1.5779479500000000 1.0087061700000000 O
atom 6.1198090900000004 1.3679217699999999 6.1518507199999997 O
atom 5.3376911700000003 6.6638614000000000 1.0484339300000001 O
atom 5.9112824100000001 6.5991110099999997 6.3808652800000001 O
atom 0.6225211000000000 0.8458741000000000 3.2797563699999999 O
atom 0.9163558100000000 0.9338941600000000 8.7041972699999999 O
atom 0.6294630900000000 5.9841797000000003 3.4950494800000000 O
atom 0.9247929200000000 5.9778070200000002 8.8758373000000006 O
atom 5.5805745699999996 1.0532453300000000 3.6251708100000002 O
atom 5.9653955300000003 1.0161902899999999 8.8988864200000002 O
atom 5.6929915400000004 6.0918160700000001 3.6828644700000002 O
atom 6.1073162099999996 5.9257827399999998 8.9227975300000004 O
atom 4.9828152299999999 4.0993579200000001 2.2237068899999999 O
atom 4.9983456000000004 9.2062672299999999 2.2700759499999998 O
atom 5.3249218899999997 9.1819919300000006 7.5939174300000003 O
atom 10.0667118299999991 4.1275403600000002 2.6389735100000000 O
atom 10.2050708199999995 3.9732367200000001 8.0678961099999995 O
atom 10.1019005199999992 9.3665650899999999 2.5202570799999999 O
atom 10.3499343100000001 9.3235337499999993 7.8775026800000001 O
atom 5.4376445799999997 3.6711896400000001 4.9164847900000002 O
atom 5.5781128999999998 3.5499597800000000 10.1487146100000007 O
atom 5.1967425399999998 8.6015966099999996 4.9360873400000003 O
atom 5.4538065299999996 8.5470763499999993 10.2073591599999993 O
atom 10.2950881800000005 3.5234652000000000 5.2851048299999999 O
atom 10.6933589700000002 3.4633463400000002 10.6203289800000000 O
atom 10.2416031000000007 8.6087160600000008 5.1996441799999999 O
atom 10.5750109900000009 8.5674881599999999 10.5304061099999995 O
atom 2.7817321100000001 1.1512785000000001 2.4373943900000001 O
atom 3.2372256799999999 1.1241815799999999 8.0266008899999992 O
atom 3.0157123900000000 6.3904209999999999 2.7255012900000000 O
atom 3.5198169099999999 6.4014879799999997 8.1476697199999997 O
atom 8.0700905499999998 1.2830876099999999 2.9847560700000000 O
atom 8.4216221900000008 1.2574769800000001 8.3273088600000005 O
atom 8.1070417399999997 6.4102542199999997 3.0651411199999998 O
atom 8.5741081200000000 6.3917296800000001 8.3558590400000003 O
atom 3.1424143600000001 1.1109574300000000 5.2396124500000001 O
atom 3.8288782600000002 1.4708488200000001 10.4075846599999995 O
atom 3.3480201200000002 6.3494032400000000 5.2913787000000001 O
atom 3.5418549399999999 6.4653852000000001 10.7523394999999997 O
atom 8.4708310999999998 1.2945979000000001 5.5469978800000002 O
atom 8.6922783799999994 1.2368648300000000 10.9791349999999994 O
atom 8.3500177200000003 6.3620420299999996 5.7037850900000002 O
atom 8.6351488500000002 6.3397680300000001 11.0230140999999993 O
atom 2.3094862900000002 3.9783515399999998 0.3696670500000000 O
atom 2.8997058600000001 3.7013091899999999 5.3157229600000004 O
atom 2.2434378900000000 9.3731315399999993 0.5715837700000000 O
atom 2.7700053499999999 8.8718081899999994 5.6623610199999996 O
atom 7.4155173500000000 3.8492436900000002 0.6259599500000000 O
atom 7.8729371700000002 3.8670925100000000 5.9027592100000001 O
atom 7.3229771699999997 8.9716435200000006 0.6248129900000000 O
atom 7.8293765400000002 8.9504077100000003 5.9043342799999996 O
atom 2.5705324500000000 3.7310276899999999 2.8736618300000001 O
atom 3.2373288100000002 3.7544902400000000 8.4378943500000005 O
atom 2.5543167400000000 8.8578717999999999 3.0298788299999999 O
atom 2.8835198499999999 8.8304105199999992 8.3215546400000004 O
atom 7.6846640900000001 3.7914701499999999 3.2078315499999999 O
atom 7.7812252800000001 3.7823059099999998 8.5170577200000004 O
atom 7.6511575599999997 8.8958262500000007 3.2611332300000000 O
atom 7.9862212399999999 8.8283244500000002 8.6047381299999994 O
