lattice_vector 5.0483966400000000 0.0062950800000000 0.3656108100000000 
lattice_vector -0.0228303700000000 10.3746801800000004 -0.0390980100000000 
lattice_vector 0.7956056700000000 -0.0289399200000000 10.3474612300000004 
atom 1.4727927900000000 0.0332225000000000 1.4886526300000000 La
atom 1.9491666100000000 0.2293876000000000 6.7699138599999999 Hf
atom 1.4996991099999999 5.3663298599999996 1.5983477399999999 Hf
atom 1.9115616300000000 5.3604050200000000 6.7392501300000003 Hf
atom 1.6938443000000001 2.3342218600000000 4.1579781799999997 Hf
atom 2.1229935400000000 2.4131118900000001 9.3496776900000000 Hf
atom 1.6662618899999999 7.4942302300000003 4.2033780500000004 Hf
atom 2.0774978000000002 7.5066015200000002 9.2915978599999995 Hf
atom 3.7255324900000000 2.7928770699999999 1.3185076200000001 Hf
atom 4.1394068800000001 2.7979167700000001 6.4815609399999996 Hf
atom 3.7517278799999998 7.8807055500000001 1.3760200800000000 Hf
atom 4.1202680699999998 7.9837115299999999 6.4963183600000001 Hf
atom 3.9001212299999999 4.9359231299999999 3.9061820200000001 Hf
atom 4.3168132799999999 4.9495627300000002 9.0676330699999994 Hf
atom 3.8579962100000000 10.1465033299999998 3.9116631499999999 Hf
atom 4.4169192800000001 10.2028068199999993 9.0147418500000001 Hf
atom 0.4893892000000000 1.9969288800000000 0.8536943200000000 O
atom 0.8601814300000000 1.8006573400000001 6.0918139399999998 O
atom 0.5761468500000000 7.1600608499999998 0.9570504500000000 O
atom 0.8291622500000000 6.9689493999999996 6.0940249900000003 O
atom 0.5958562500000000 0.7366563200000000 3.5871859000000001 O
atom 1.1528137700000001 0.7523928700000000 8.6742815100000001 O
atom 0.6237315600000000 5.9351398299999998 3.4634401700000002 O
atom 1.0451476200000001 5.9454194899999999 8.6617650600000005 O
atom 4.7440036499999998 4.4651329100000003 1.9942439199999999 O
atom 5.1738515300000003 4.4083281999999997 7.1933691299999998 O
atom 4.3794369399999997 9.6941606199999999 1.9365237399999999 O
atom 5.2007034799999996 9.5764518600000006 7.1870683399999997 O
atom 4.9731603499999997 3.3606139700000002 4.6114896700000001 O
atom 5.3822160900000000 3.3818522299999998 9.7288720699999995 O
atom 4.9495261299999997 8.5303880700000008 4.6127540400000004 O
atom 5.3701840499999998 8.5848876399999998 9.8492287399999991 O
atom 3.0173486500000002 1.4216266000000000 2.7585352900000002 O
atom 3.4207516800000000 1.3456984500000000 7.8282546599999998 O
atom 2.9690504600000001 6.4393312299999996 2.6826496099999999 O
atom 3.3540394800000000 6.5185937100000002 7.8326840200000003 O
atom 3.1539060999999999 1.2343110399999999 5.2909220200000000 O
atom 3.6760668700000001 1.2638800699999999 10.3447295100000005 O
atom 3.1620710999999999 6.3999441600000004 5.2735316900000004 O
atom 3.5624896900000000 6.4468971300000000 10.4138459300000008 O
atom 2.2809174600000000 3.9863590100000001 0.2072909500000000 O
atom 2.6409693100000000 3.9152710300000000 5.3934169199999999 O
atom 2.6420008199999998 9.1051204000000006 5.4574138500000000 O
atom 2.4168504899999999 3.8474582399999999 2.8016551299999999 O
atom 2.8565366100000000 3.8431710099999998 7.9719785700000001 O
atom 2.4335226200000002 8.8276855800000007 2.8982025999999999 O
atom 2.8775054199999999 9.0205529400000000 8.0956356399999994 O
