lattice_vector 10.0961524699999998 0.1340611300000000 0.0921319300000000 
lattice_vector -0.0494324000000000 10.4602393100000004 -0.3171154200000000 
lattice_vector 0.0099111300000000 -0.3273339300000000 10.0492655499999994 
atom 1.0857964000000000 0.3409366700000000 1.0671051700000000 Si
atom 1.3909947000000000 0.0019715900000000 6.3242097599999996 Hf
atom 1.0370372999999999 5.3328799399999998 0.8430774400000000 Hf
atom 1.3587540100000000 5.2454697399999999 6.2194672300000002 Hf
atom 6.4190475999999999 0.2956904100000000 1.3078263500000000 Hf
atom 6.3329980299999997 -0.2533050400000000 6.3716224700000001 La
atom 6.4236988100000003 5.5584534300000001 1.1506374699999999 Hf
atom 6.1285605199999997 5.3580863399999998 5.9224755800000004 Hf
atom 1.3728194199999999 2.1889822799999998 3.6132062999999999 Hf
atom 1.3650539399999999 2.2596443300000000 8.8617188400000000 Hf
atom 1.3952357099999999 7.3534011300000000 3.4642861300000001 Hf
atom 1.2929742399999999 7.5030506299999997 8.6748604599999997 Hf
atom 6.5836058399999997 2.6526622899999999 3.7148874500000000 Hf
atom 6.5400660600000000 2.2766039800000000 8.7043404800000008 Hf
atom 6.4234055000000003 7.7236417499999996 3.6006888099999999 Hf
atom 6.4382394200000004 7.4864299100000000 8.4891664500000008 Hf
atom 4.0244684399999997 2.7352792500000001 0.9822779500000000 Hf
atom 3.7031400099999998 2.6126476400000000 6.3110836700000004 La
atom 3.9896818199999999 7.9645856300000002 0.7586958800000000 Hf
atom 3.5411491499999999 7.9225135099999999 6.1508904199999996 Hf
atom 8.7622752100000003 2.9121465899999999 1.2201069300000000 Hf
atom 8.9009006399999997 2.5750079000000001 6.1503560500000001 Hf
atom 8.7606987099999998 8.1774243999999996 1.0172341600000001 Hf
atom 9.0449210400000002 7.9300883899999999 5.7800690399999999 Hf
atom 3.6181432400000002 4.8306329699999999 3.5780492700000002 Hf
atom 3.6430967299999999 4.9318044199999997 8.7747173899999993 Hf
atom 3.4033312100000002 9.9325723700000008 3.2658460100000002 Hf
atom 3.4688987000000000 10.1322353399999994 8.6922203099999997 Hf
atom 8.7541543799999992 5.1115545899999999 3.7754125799999998 Hf
atom 8.6563479300000008 4.8994432699999999 8.5612489600000004 Hf
atom 8.7839487500000004 10.3788383700000004 3.4183566900000000 Hf
atom 8.7233639699999994 10.0940068400000005 8.4929410799999996 Hf
atom 0.3689855100000000 1.8693946200000000 1.7760799500000000 O
atom 0.4143321300000000 1.7547199099999999 7.0557740100000004 O
atom 0.2736734500000000 7.1184269999999996 1.6580535900000000 O
atom 0.3222039200000000 6.9490606000000001 6.8755302100000000 O
atom 5.3383602400000001 1.8315318000000000 2.3181953000000002 O
atom 5.5461382700000001 1.7398154100000001 7.1113953199999997 O
atom 5.4379673999999998 7.2461317500000000 1.8750535500000001 O
atom 5.3665347199999998 7.2366745999999997 6.6857943400000002 O
atom 0.1669212800000000 0.7314828300000000 4.7017855600000003 O
atom 0.3065574800000000 0.4403257500000000 9.5915342599999995 O
atom 0.1433718200000000 6.0135290000000001 4.5431756400000003 O
atom 0.2585629800000000 5.7178578099999999 9.1621105099999998 O
atom 5.1314825500000003 0.7804907300000000 9.8451339999999998 O
atom 5.2686666500000001 6.0703947999999999 4.2026918300000000 O
atom 5.1814617399999996 6.0484515400000003 9.6081415299999993 O
atom 4.7820364299999998 4.5520824500000003 1.8128718500000001 O
atom 4.7177197399999997 4.6324035300000004 7.0733638900000004 O
atom 4.6629925099999996 9.7917136399999993 1.6157323900000000 O
atom 4.2569616899999998 9.7082160399999999 6.8337826000000002 O
atom 9.7437635999999994 4.5918529299999999 2.0354252100000001 O
atom 9.7465080200000003 4.4288682100000001 6.8365649499999996 O
atom 9.8163287199999996 9.9881108300000001 1.5558182100000000 O
atom 9.7934488999999996 9.6737362000000005 6.6953880699999999 O
atom 4.9851152100000000 3.5151983599999999 4.5493127600000003 O
atom 4.8121346000000003 3.2855824800000000 9.3275810900000007 O
atom 4.8892899400000003 8.9107038200000002 4.3451483599999996 O
atom 4.6511138799999996 8.4896338100000008 9.1028689600000003 O
atom 9.7346552000000006 3.3081596499999999 4.3133028099999997 O
atom 9.8533757400000006 3.3586267699999999 9.6557936000000009 O
atom 9.8972095800000002 8.6631507400000007 4.0495482500000000 O
atom 9.6484579400000001 8.4023822799999994 9.3145252200000002 O
atom 2.0350386000000000 0.4039432700000000 2.4893697399999999 O
atom 2.5887808200000002 0.9988730400000000 7.7281322299999999 O
atom 2.2192743699999999 5.7065275800000004 2.4387450500000001 O
atom 2.7353206399999999 6.3778782800000000 7.4291025599999996 O
atom 7.8474851399999999 1.3526176200000000 2.4707837000000001 O
atom 7.9594478200000003 0.9926310200000000 7.5854535399999996 O
atom 7.7936244099999996 6.5266979200000002 2.4009253300000002 O
atom 7.3764105899999999 5.9755876299999997 7.4479836199999996 O
atom 2.7321653100000001 1.0347115200000001 4.8325689799999996 O
atom 2.5298374500000000 1.1542945899999999 10.2681747399999992 O
atom 2.7160381000000000 6.4182975799999999 4.8522207300000000 O
atom 2.5722639300000001 6.4004128700000003 9.9659687699999999 O
atom 7.5791060400000001 1.3614211500000000 4.9233693399999998 O
atom 7.7095035899999997 1.2089613100000001 10.0707540499999997 O
atom 7.6553428200000004 6.6271627899999999 4.9245126900000002 O
atom 7.7230217400000001 6.4804250600000000 9.8781201799999998 O
atom 2.1773113099999999 3.8762161399999999 4.8551047199999999 O
atom 2.4497521500000001 3.7152939599999999 10.1038668299999994 O
atom 2.2360256299999999 8.9586305599999996 4.7597614999999998 O
atom 2.0750742099999999 9.1438061000000008 9.9793831100000006 O
atom 7.4910865500000003 4.0531897399999997 5.0185067099999996 O
atom 7.4086547700000001 3.8720873999999998 9.9678984100000001 O
atom 7.6350725500000003 9.1368065000000005 4.5829474799999996 O
atom 7.2280795500000004 9.1138209999999997 9.6707506700000003 O
atom 2.8647870599999998 3.0761082399999999 2.6003570599999999 O
atom 2.1645043500000001 3.8414101100000000 7.6400554899999999 O
atom 2.7744460700000002 8.2825784400000000 2.3519618599999998 O
atom 2.1175046200000001 8.8865390499999997 7.3959339499999999 O
atom 7.3848738300000001 3.9561261999999999 2.4272689800000000 O
atom 7.6291768700000002 3.4331297799999998 7.5010437000000003 O
atom 7.3634661100000001 9.2014292399999995 2.1683416400000000 O
atom 7.6613790200000000 8.6172962700000006 7.2644208399999997 O
