lattice_vector 10.0250980399999996 -0.0179214600000000 0.7644517300000000 
lattice_vector 0.0106382400000000 10.1507577500000004 -0.0062873300000000 
lattice_vector 0.8758607500000000 -0.0065604200000000 10.4490280599999998 
atom 1.3637682000000000 0.1003524100000000 1.8168575899999999 Si
atom 1.9259839500000000 0.2001659000000000 6.8110850300000001 Hf
atom 1.4953601400000001 5.2939938800000004 1.6624380400000001 Hf
atom 1.9664518600000001 5.2740930800000001 6.8464181000000002 Hf
atom 6.5684015799999997 0.2660223300000000 2.0013703700000001 Hf
atom 6.9410294300000004 0.2313015200000000 7.1579515400000000 Hf
atom 6.4765076600000002 5.2808570799999996 1.9789902500000001 Hf
atom 6.9633970200000004 5.2821342600000003 7.2622041499999996 Hf
atom 1.7063903600000001 2.2698136600000001 4.1553815199999997 Hf
atom 2.2148052599999999 2.2672104399999999 9.4552559600000006 Hf
atom 1.7155195100000000 7.3846209500000004 4.2398255699999998 Hf
atom 2.1490285400000002 7.4053352500000003 9.4625436199999999 Hf
atom 6.5818791499999998 2.3781566600000001 4.7905166100000001 Si
atom 7.1690983900000003 2.3416827800000002 9.8401388500000007 Hf
atom 6.7619201300000000 7.3573357899999996 4.6252173200000000 Hf
atom 7.1772990900000000 7.4150777200000002 9.8606800099999994 Hf
atom 3.6706607099999999 2.7110256900000000 1.3315616800000001 Hf
atom 4.1339423499999999 2.7711771800000000 6.5877053700000001 Hf
atom 3.6701280800000000 7.9291735100000000 1.4080821500000000 Hf
atom 4.1545554600000001 7.8323622999999998 6.6047989100000004 Hf
atom 8.8236805000000000 2.5938064500000002 1.7905924000000000 Hf
atom 9.1434135399999992 2.7395864500000000 6.9383821799999996 Hf
atom 8.7523344200000004 7.8173078900000004 1.7646162599999999 Hf
atom 9.1563423700000008 7.7911921199999998 6.9804559900000003 Hf
atom 3.9554239099999999 4.8224431000000001 3.9803589599999998 Hf
atom 4.3552171700000004 4.8915041700000002 9.2365329999999997 Hf
atom 4.0008453700000004 9.9750292100000006 3.9669325899999999 Hf
atom 4.3834230600000001 10.0039111999999992 9.2152334699999994 Hf
atom 8.8638360200000008 4.7457001800000000 4.3670624100000000 Hf
atom 9.4124157400000001 4.8070828199999998 9.6488301399999994 Hf
atom 8.9090324600000006 9.9265262900000000 4.3405150099999998 Hf
atom 9.3764388499999995 9.9195360899999994 9.5576373599999993 Hf
atom 0.6449420200000000 1.4310671100000001 0.8677458400000000 O
atom 0.7637168400000000 1.5613855500000000 5.9143715099999996 O
atom 0.3797460300000000 6.6970963299999999 0.7979620700000000 O
atom 0.8476100600000001 6.7286808899999997 6.0562817400000002 O
atom 5.4112044800000003 1.6584777799999999 1.1707371600000001 O
atom 5.8775019500000001 1.7423507800000000 6.3163767000000002 O
atom 5.3975503900000001 6.7671760100000000 1.2224145900000001 O
atom 5.8646975000000001 6.7541748600000000 6.4338466800000003 O
atom 0.6620416800000000 0.7637233500000000 3.3240435499999998 O
atom 1.0401342300000000 0.8870691200000000 8.5953723800000006 O
atom 0.5900746800000000 5.9046151800000004 3.4528694199999999 O
atom 1.0743641799999999 5.9412884400000001 8.6626134300000004 O
atom 5.8148140200000000 1.0659772400000000 3.8588205699999998 O
atom 6.0959829499999998 0.9132948000000000 8.9511508600000003 O
atom 5.6465122499999998 5.9140682299999998 3.8208941599999999 O
atom 6.0479064899999999 5.9974803100000003 9.0298245099999992 O
atom 4.8139624200000002 4.1794540700000002 2.1960618400000000 O
atom 5.2508372000000003 4.2077891899999997 7.4360802100000001 O
atom 4.8948464200000004 9.2945720499999993 2.2553845799999999 O
atom 5.2549741399999998 9.3195458700000007 7.3801571900000003 O
atom 9.8167620800000002 4.1208216899999996 2.6082767900000001 O
atom 10.2970837199999998 4.1320152999999999 7.8177117899999997 O
atom 10.0219668700000000 9.1806709800000004 2.5923842200000000 O
atom 10.3008111899999992 9.2033658299999992 7.8095041900000002 O
atom 5.1609535400000004 3.3908394500000001 4.7961240199999997 O
atom 5.5650477000000000 3.5373274800000001 10.0767663499999998 O
atom 5.0832862600000004 8.5083656899999998 4.7927605800000004 O
atom 5.4411134600000004 8.5262390299999993 10.0596582399999992 O
atom 10.0722712800000007 3.3837443199999999 5.1868234600000003 O
atom 10.5528196399999992 3.3464122700000001 10.4757878099999999 O
atom 10.0490132299999999 8.4547556700000008 5.1903699100000003 O
atom 10.4958499900000000 8.4840352499999998 10.4250507799999994 O
atom 2.8225639299999998 1.1490297100000000 2.4911204499999999 O
atom 3.3912161099999998 1.2836037100000000 7.8224591900000000 O
atom 2.9725612199999998 6.3905159100000004 2.7287574900000000 O
atom 3.4087817700000000 6.3853737900000000 7.9413409699999997 O
atom 8.2453664199999999 0.9953545499999999 2.8355139399999998 O
atom 8.4429673699999999 1.2663261699999999 8.2032784900000006 O
atom 7.9868643400000003 6.2578087000000000 3.0862233500000000 O
atom 8.4440928500000005 6.3560058399999999 8.3516992400000003 O
atom 3.1989244700000001 1.2751574999999999 5.2224961800000003 O
atom 3.8814626600000000 1.4827901800000001 10.2755786899999997 O
atom 3.2144007999999999 6.2974529199999996 5.3308219100000001 O
atom 3.6288068800000000 6.4167747400000001 10.5708780000000004 O
atom 8.0230669100000007 1.3537234899999999 5.4555698100000001 O
atom 8.6427235000000007 1.2478937100000000 10.8403556699999992 O
atom 8.2081223300000001 6.2513352600000003 5.7224109299999997 O
atom 8.6360495000000004 6.3019318000000002 10.9317735700000007 O
atom 2.2432817200000001 3.9121542800000002 0.2870944700000000 O
atom 2.7166641899999999 3.8262997500000000 5.4833649099999997 O
atom 2.2306288400000001 9.2806014300000008 0.4981529600000000 O
atom 2.7264613000000000 8.9280322499999993 5.4985036500000000 O
atom 7.3400747099999997 3.8123681199999999 0.7618890699999999 O
atom 7.6014793300000001 3.7829302000000000 5.9049654100000000 O
atom 7.2790718600000002 8.9313292000000004 0.6680238400000000 O
atom 7.7181494400000004 8.9272207699999999 5.8825520999999998 O
atom 2.4825067800000000 3.7169178000000000 2.8919551999999999 O
atom 2.9138602100000002 3.7626310699999999 8.1264732300000002 O
atom 2.4325798800000000 8.8963184900000005 2.9226770599999998 O
atom 2.9176069199999999 8.8535000999999998 8.1686203200000005 O
atom 7.4626412200000001 3.3342596300000000 3.4949509299999999 O
atom 7.9408213700000001 3.7696486100000000 8.5307530099999997 O
atom 7.5387776999999998 8.7533001099999996 3.2717611999999998 O
atom 7.8951511400000003 8.8392531299999995 8.4828229299999993 O
