lattice_vector 9.9715070499999996 0.0177375400000000 -0.1595881800000000 
lattice_vector 0.0877180300000000 10.1655164500000001 0.0176230300000000 
lattice_vector -0.0646787200000000 0.0475309700000000 10.4187406800000009 
atom 1.0361444600000000 0.2987636000000000 2.1670555500000002 Si
atom 1.3429519700000001 0.2457235200000000 6.9106607899999997 Hf
atom 1.4172790700000000 5.3024941900000000 1.7639579900000000 Hf
atom 1.4132175199999999 5.3429888700000001 6.9709785799999997 Hf
atom 1.3602098700000000 2.4342082899999999 4.3538986399999997 Hf
atom 1.3669615300000000 2.3366623199999998 9.5810667100000000 Hf
atom 1.4003170100000000 7.4671235100000004 4.3347777900000004 Hf
atom 1.4217141200000001 7.4672041399999998 9.5532371699999992 Hf
atom 3.5747247199999999 2.7385683300000001 1.6843864500000001 Hf
atom 3.5892914000000000 2.8006227799999999 6.9396538200000002 Hf
atom 3.6048974999999999 7.8962537299999997 1.6558458100000000 Hf
atom 3.6624349500000002 7.8872557299999997 6.9214198700000003 Hf
atom 3.6377976699999999 4.9251113300000000 4.3370379300000002 Hf
atom 3.5745707800000002 4.8877079600000002 9.5680443799999999 Hf
atom 3.6190928800000002 10.0194381999999997 4.2633080799999998 Hf
atom 3.6453431799999998 9.9947736900000006 9.5221003100000008 Hf
atom 6.3756961600000004 0.2388551100000000 0.7041434800000000 Hf
atom 6.3028019400000002 0.2540424800000000 5.9492296700000002 Hf
atom 6.4359897300000002 5.2558764699999996 0.6877716200000000 Hf
atom 6.4281217799999997 5.3160007800000004 5.9865066799999997 Hf
atom 6.3553377800000002 2.3717543900000000 3.3479179499999998 Hf
atom 6.3851625099999998 2.3939463700000001 8.5860961099999997 Hf
atom 6.3585578700000003 7.4224133300000004 3.2881437099999999 Hf
atom 6.4573214200000004 7.3666302300000002 8.5479926800000001 Hf
atom 8.6108473700000001 2.7724403799999999 0.7088175300000000 Hf
atom 8.5778192999999998 2.8172953700000001 6.0166570999999998 Hf
atom 8.7491610200000007 7.9024982000000001 0.7485984100000000 Hf
atom 8.6138778899999995 7.8693968200000004 5.9144226800000004 Hf
atom 8.6080738399999994 4.9249123700000004 3.3297279500000001 Hf
atom 8.8112545999999998 5.0246422099999997 8.3742808300000000 Si
atom 8.5309570699999995 9.9908976000000003 3.3786285600000001 Hf
atom 8.6365608500000004 9.9886301700000004 8.5176963899999993 Hf
atom 0.5468597300000000 1.5122376600000000 1.0066985500000001 O
atom 0.3365641300000000 1.7841524499999999 6.0990695099999996 O
atom 0.4301127500000000 6.7983751600000000 0.8758959200000001 O
atom 0.3850991100000000 6.8159455800000002 6.0562090700000004 O
atom 0.2477840500000000 0.8699939100000000 3.5450915200000002 O
atom 0.2905024100000000 0.9036894400000000 8.6621293500000007 O
atom 0.3491671500000000 5.9764510900000003 3.4655627999999998 O
atom 0.2788501500000000 5.9451752300000003 8.6834339200000006 O
atom 4.6354757900000001 4.2675785900000003 0.8635381600000001 O
atom 4.6613541300000003 4.3126025600000002 6.0573661899999998 O
atom 4.7637808100000001 9.3362657500000008 0.8121534600000000 O
atom 4.6534075899999996 9.3843412799999992 6.0019046999999999 O
atom 4.6209654699999998 3.3698448399999998 3.4582971800000002 O
atom 4.6284370700000004 3.4248459499999999 8.6242689800000001 O
atom 4.6068664899999998 8.4886499799999999 3.4035732300000001 O
atom 4.7184957100000000 8.4841109899999996 8.6056282399999997 O
atom 2.4938538800000001 1.2434238600000000 2.8332978199999999 O
atom 2.6989881100000002 1.2834336200000001 8.1340732300000003 O
atom 2.7660393800000000 6.4343182900000002 3.0170212200000002 O
atom 2.7497341300000002 6.3665950799999997 8.2219725399999994 O
atom 3.0056673699999998 1.4717780700000000 0.1710105800000000 O
atom 2.7386529799999999 1.3556482800000000 5.5246236700000004 O
atom 2.8086116099999998 6.3486960300000002 0.4122098000000000 O
atom 2.7966622200000000 6.4231583800000003 5.6181169899999999 O
atom 2.2493769900000000 3.8476333100000000 3.0625620400000000 O
atom 2.1877260900000000 3.8140402099999999 8.2669920500000007 O
atom 2.0984421000000002 9.0746242400000003 2.8759000100000001 O
atom 2.2626181399999998 8.9016204299999995 8.1668528600000005 O
atom 2.1781359800000000 3.8561589999999999 0.4339281300000000 O
atom 2.2168131500000001 3.8907976199999998 5.6489557599999998 O
atom 2.3786438300000001 8.8849057400000007 0.2927691200000000 O
atom 2.2571863200000002 8.9744530200000003 5.5549291700000003 O
atom 5.3144750299999997 1.6895987299999999 1.6612119000000001 O
atom 5.3140045300000001 1.7834715100000000 6.8099397599999998 O
atom 5.3394915699999999 6.7896539100000002 1.6221029499999999 O
atom 5.4136501800000003 6.8323043400000003 6.8337972100000002 O
atom 5.2828049400000001 0.8535985000000000 4.2092427099999998 O
atom 5.3628739599999999 0.8317169599999999 9.3867583400000001 O
atom 5.3658001799999999 5.9442671400000000 4.2463430600000001 O
atom 5.3076429200000002 5.9734388599999999 9.4666636700000009 O
atom 9.6869119500000007 4.1954637999999997 1.6454508800000001 O
atom 9.5965900600000005 4.3550569200000000 6.9067497900000001 O
atom 9.7738624200000004 9.4304036399999998 1.6470650200000001 O
atom 9.6689488400000005 9.3760844799999994 6.7670901800000003 O
atom 9.6192256000000000 3.4858559100000002 4.2841249699999997 O
atom 9.4091568199999998 3.6215030700000002 9.3664406499999995 O
atom 9.6276271500000004 8.5108564300000005 4.1770478100000004 O
atom 9.6629477799999997 8.5239713899999998 9.4149162700000009 O
atom 7.8130788000000004 1.2050388500000000 9.8660541300000002 O
atom 7.7119739500000000 1.2947653200000000 4.6736852899999999 O
atom 7.8730160400000004 5.9863880299999996 9.6658442299999994 O
atom 7.7618727700000001 6.3784605000000001 4.6246946099999997 O
atom 7.7436035499999996 1.3258060199999999 2.0395637999999998 O
atom 7.7123846800000004 1.3426520799999999 7.2434632299999997 O
atom 7.7926980700000001 6.4122953100000002 1.9542226899999999 O
atom 7.9142929400000002 6.3551767699999999 7.2660600999999998 O
atom 6.9100299500000002 3.5434777799999999 10.1609757700000003 O
atom 7.2050845700000004 3.8138351899999998 4.7541992400000002 O
atom 7.2467824900000002 8.7896134000000004 9.8943669399999994 O
atom 7.1952799599999997 8.9066043300000004 4.6571389400000003 O
atom 7.2585280599999997 3.8680119099999999 2.1452637399999999 O
atom 7.3419720999999996 3.9899788300000001 7.5031939500000000 O
atom 7.3111102600000004 8.9409971400000003 2.0586352799999998 O
atom 7.2551393500000003 8.9266530599999996 7.2628219899999999 O
