lattice_vector 10.1450225500000002 0.0024750700000000 -0.0122376800000000 
lattice_vector 0.0096676700000000 5.1481643600000000 -0.0079691300000000 
lattice_vector 0.0043915300000000 -0.0135530700000000 10.4595406799999999 
atom 1.3034517500000000 0.0924255500000000 1.6841114900000000 La
atom 1.4171495999999999 0.2173060500000000 7.0360268200000000 Hf
atom 1.4937154100000001 2.4265936099999998 4.4559727200000001 Hf
atom 1.4560998999999999 2.3905998899999998 9.6074906000000002 Hf
atom 3.7061658000000000 2.7442719599999998 1.7717690399999999 Hf
atom 3.7091233899999998 2.7755680200000001 7.0310784100000001 Hf
atom 3.6860219500000002 4.9282669700000001 4.3981579200000001 Hf
atom 3.7399230700000001 4.9329229500000000 9.6081867899999995 Hf
atom 6.4890406000000000 0.1922841100000000 0.8171808800000000 Hf
atom 6.4732779599999999 0.1937123400000000 6.0794071000000001 Hf
atom 6.4308751400000004 2.3234823100000002 3.4548526900000001 Hf
atom 6.5162005399999998 2.3463118199999999 8.6558758099999995 Hf
atom 8.7110374299999993 2.7797988600000001 0.7983250600000000 Hf
atom 8.7666012900000005 2.7717141299999999 6.0262012900000004 Hf
atom 8.5321120300000004 4.8716555100000001 3.4330917599999999 Hf
atom 8.7703130199999997 4.9214517300000002 8.6461354299999993 Hf
atom 0.4049706100000000 2.0566108500000002 0.9479680700000001 O
atom 0.3353286900000000 1.6650408699999999 6.0322220399999997 O
atom 0.3667924900000000 0.8450082400000000 8.7482851799999999 O
atom 4.7837182800000004 4.2663703999999996 0.8715714800000000 O
atom 4.7410994000000004 4.2834285500000000 6.1205982099999998 O
atom 4.7467748299999997 3.4100765499999999 3.5167211300000001 O
atom 4.7868162999999999 3.4165396200000000 8.6985499999999991 O
atom 2.7474415599999999 1.2911585100000000 3.1953022600000001 O
atom 2.8099501299999998 1.2748019500000001 8.2895502400000005 O
atom 2.8995568000000000 1.3182415100000000 0.3788442700000000 O
atom 2.8111535999999999 1.2937528500000000 5.7351197300000001 O
atom 2.3795652199999999 3.7789194600000000 3.1319492200000001 O
atom 2.3127010800000001 3.8556153900000001 8.2690838699999993 O
atom 2.4803978899999999 3.7665137600000000 0.3337841200000000 O
atom 2.2945479000000000 3.8679553499999999 5.7005504599999997 O
atom 5.3978969799999996 1.6494139000000001 1.7558537700000001 O
atom 5.4421546699999999 1.6976493399999999 6.9579898000000000 O
atom 5.4254273099999999 0.8043692600000000 4.3597714700000001 O
atom 5.4755921200000000 0.8413662900000000 9.5624944200000002 O
atom 9.3930173700000008 4.4591358799999998 1.6514848799999999 O
atom 9.8368461099999998 4.2663905700000004 6.9234176900000000 O
atom 9.8323750899999993 3.4614466099999999 4.2467830400000004 O
atom 9.8294716500000003 3.4513512099999999 9.5292473799999993 O
atom 7.9032112899999998 1.2559200399999999 9.9779291600000004 O
atom 7.8628689899999999 1.2352582500000000 4.7707169299999999 O
atom 7.8428689499999997 1.3300683700000000 2.1746696299999999 O
atom 7.9012624100000002 1.2991239200000000 7.3590074899999998 O
atom 7.3652033299999999 3.8342198800000000 9.9637300300000007 O
atom 7.3339146000000000 3.7828183800000001 4.7868989600000003 O
atom 7.1637953400000001 3.8568886099999999 2.1938549400000000 O
atom 7.3877599800000002 3.8628566499999999 7.3611234600000000 O
