lattice_vector 10.0678127300000000 -0.0193089600000000 -0.1049767600000000 
lattice_vector -0.0304602100000000 5.2065161800000004 -0.0168147100000000 
lattice_vector -0.0901751900000000 -0.0548083500000000 10.1104597999999992 
atom 1.2150365000000001 0.0614737100000000 1.2242188000000001 La
atom 1.2862175199999999 0.1054507600000000 6.2446511500000002 Hf
atom 6.3405977800000004 0.1279324200000000 1.1971179800000000 Hf
atom 6.3144541700000003 0.1289718100000000 6.2581136300000004 Hf
atom 1.3038521999999999 2.4218194899999999 3.7890269800000000 Hf
atom 1.4577022399999999 2.2927461099999999 8.6893249200000007 Hf
atom 6.2931574499999998 2.3782866700000000 3.7820758799999998 Hf
atom 6.3108509200000000 2.3950758200000002 8.7784691000000006 Hf
atom 3.6743689399999999 2.7037347199999999 1.2330579500000001 Hf
atom 3.6592753099999999 2.7294454600000000 6.2131600799999998 Hf
atom 8.5235617999999995 2.7351353399999998 1.3596650699999999 Hf
atom 8.6916722699999998 2.7614028799999999 6.2347967600000000 Hf
atom 3.6048599299999999 5.0182060399999999 3.7030953900000001 Hf
atom 3.6429452800000002 4.9149378900000000 8.7854927299999996 Hf
atom 8.5999972000000007 4.9999367399999999 3.7503074500000002 Hf
atom 8.5294725699999994 5.0815200500000000 8.7095318299999995 Hf
atom 0.2358334500000000 2.1120080099999998 2.0423721700000002 O
atom 0.3511588900000000 1.8912369499999999 6.8837083100000003 O
atom 5.3695610599999997 1.8487459700000000 1.9088569000000000 O
atom 5.3327457400000000 1.8663294200000000 6.9686021199999999 O
atom 0.3138421700000000 0.6534493000000000 4.4352597800000000 O
atom 0.1277818900000000 0.9078384300000000 9.3638069900000005 O
atom 5.3313148999999997 0.6447200300000000 4.4785650400000003 O
atom 5.3853034199999996 0.6056801900000000 9.4432902599999995 O
atom 4.6050120699999999 4.5036175299999996 1.8619289100000000 O
atom 4.6386183599999997 4.4498203600000004 6.9760423999999999 O
atom 9.3158949900000003 4.5282979499999998 1.9204263300000000 O
atom 9.6593671899999993 4.4702879199999996 6.9961180900000004 O
atom 4.6233165400000003 3.2682558899999998 4.4524442700000000 O
atom 4.6949974100000000 3.2515794800000002 9.5436738099999996 O
atom 9.6564080800000003 3.2913939999999999 4.4429662700000003 O
atom 2.7602261499999998 1.2586608399999999 2.5386416500000002 O
atom 2.6791428300000000 1.1176212000000001 7.4939941200000000 O
atom 7.6419174300000003 1.2017483700000000 2.5140057900000001 O
atom 7.6938800299999999 1.2126721100000000 7.4910974200000000 O
atom 2.6573295600000000 1.3388031100000000 5.0187393100000000 O
atom 2.7614011100000000 1.2521344800000000 9.9638768599999992 O
atom 7.6940089399999998 1.3500501199999999 5.0074027900000004 O
atom 7.6473410900000003 1.3564423999999999 10.0528282099999995 O
atom 2.2677862800000002 3.9702679299999999 4.9830568299999998 O
atom 2.2890213099999999 3.7491464200000002 9.9339339800000008 O
atom 7.2790328700000000 3.9352703500000001 5.0120739500000004 O
atom 7.3871550099999999 3.9184428200000001 10.0311100700000004 O
atom 2.3911392400000002 3.7006773000000002 2.5454018299999999 O
atom 2.2946533599999999 3.7568869500000002 7.4509482800000004 O
atom 7.1107927999999996 3.7959614699999999 2.5091003900000000 O
atom 7.2863239699999998 3.7982189200000001 7.5106445900000001 O
