lattice_vector 10.1492473499999996 0.0034162400000000 0.0000840400000000 
lattice_vector -0.0023394700000000 5.2136848499999999 0.0120535900000000 
lattice_vector 0.0013740400000000 -0.0163515400000000 10.5207753900000007 
atom 1.3129471300000000 0.1151008100000000 1.6659098100000000 La
atom 1.4203419700000000 0.2042281200000000 7.0715650700000001 Hf
atom 1.4048763799999999 2.3679373600000000 4.4568010899999999 Hf
atom 1.4158150800000000 2.4073010600000000 9.6098380599999995 Hf
atom 3.6472080899999999 2.7322566899999998 1.6725745999999999 Hf
atom 3.6738573300000001 2.8067907100000000 7.0478117800000000 Hf
atom 3.6092209799999999 5.0325287899999998 4.4705830400000002 Hf
atom 3.7282925400000000 4.9620330700000004 9.6373464700000007 Hf
atom 6.4800878500000003 0.2332425500000000 0.8096751300000000 Hf
atom 6.4913082500000003 0.1775519700000000 6.1777925700000003 Hf
atom 6.3865007800000004 2.4857324599999999 3.6006634499999999 La
atom 6.4938062700000003 2.3806184099999999 8.7156236299999996 Hf
atom 8.6847653299999994 2.7838864000000001 0.8076705100000000 Hf
atom 8.8033454500000001 2.8383167899999999 6.1618073100000004 Hf
atom 8.7205952900000003 5.0844532899999999 3.6061220399999998 Hf
atom 8.7474997000000005 4.9935383000000000 8.7516738600000004 Hf
atom 0.4016937500000000 2.0846046100000000 0.9108569900000000 O
atom 0.4045407700000000 1.8045413900000000 6.2612267900000003 O
atom 0.2866772000000000 0.8736355300000000 3.6914663700000001 O
atom 0.3857031100000000 0.7928749899999999 8.8667782400000004 O
atom 4.7615126999999999 4.3362839099999997 0.9015400000000000 O
atom 4.7191146300000000 4.3477916499999996 6.2263612600000000 O
atom 4.3764556700000004 3.3830585700000002 3.5395794600000001 O
atom 4.7362342499999999 3.3948807799999998 8.7768592200000004 O
atom 2.8346574699999998 1.2730606400000000 3.1342577100000000 O
atom 2.8144883500000000 1.2750988599999999 8.3073257999999992 O
atom 2.8465962800000000 1.2909090599999999 0.3194596300000000 O
atom 2.8032390299999999 1.3109440500000000 5.7366283400000002 O
atom 2.2718107900000000 3.7742461500000002 3.1046640499999998 O
atom 2.2979049400000000 3.8949502900000001 8.3101148899999995 O
atom 2.4597490899999999 3.7816888500000001 0.2959843700000000 O
atom 2.2710283200000001 3.9260037300000001 5.7385417299999997 O
atom 5.3606317299999997 1.7271836599999999 1.5743613299999999 O
atom 5.4595558700000000 1.7913330100000000 6.9205608700000001 O
atom 5.4775957499999999 0.5158848000000000 4.3554627699999999 O
atom 5.4800670100000000 0.7798178099999999 9.5260645400000001 O
atom 9.4503718299999999 4.4348915099999999 1.7385495399999999 O
atom 9.8101471300000007 4.4059733400000001 7.0226628599999996 O
atom 9.8368164999999994 3.4810116500000001 4.3769596100000001 O
atom 9.7941237700000006 3.4529013499999999 9.5729405199999995 O
atom 7.8782832799999998 1.2753466200000001 10.0509481899999997 O
atom 7.9218885400000003 1.3108576999999999 4.9474269199999998 O
atom 7.9086692500000000 1.3291553599999999 2.1325309400000001 O
atom 7.8889411699999998 1.3107611600000000 7.4802964200000002 O
atom 7.3461006800000002 3.8734319099999999 10.0607720799999996 O
atom 7.5341752399999997 4.0335749400000003 4.9822675399999996 O
atom 7.3471618999999997 4.0413977599999997 2.1738666300000000 O
atom 7.3723616700000001 3.9043769400000001 7.4891382499999999 O
