lattice_vector 10.0214785299999996 0.0524279400000000 0.7845766400000000 
lattice_vector 0.0916921200000000 10.1429203799999996 -0.0180373400000000 
lattice_vector 0.8429471700000000 -0.0226080600000000 10.4446901299999997 
atom 1.3470215900000000 0.1312667700000000 1.8271015200000000 Si
atom 1.8816121500000000 0.2205849300000000 6.7722576300000004 Hf
atom 1.5908844600000001 5.3309964299999999 1.6047146200000000 Hf
atom 2.0024205700000000 5.2607625000000002 6.8432584800000003 Hf
atom 6.5165986599999997 0.2619131600000000 2.0353864900000000 Hf
atom 6.9443598299999998 0.2195334300000000 7.2387659600000003 Hf
atom 6.5834692199999996 5.3125354299999996 2.0453486399999998 Hf
atom 6.9930057100000003 5.2334884199999996 7.2397692500000002 Hf
atom 1.6106661400000000 2.3725354599999999 4.1335246000000003 Hf
atom 2.2006919200000001 2.2591425900000002 9.4345709200000005 Hf
atom 1.7642640500000000 7.3695975899999997 4.2270422600000002 Hf
atom 2.2114847100000001 7.4230529599999997 9.4221381999999991 Hf
atom 6.7933184000000004 2.3827816700000000 4.6670883800000000 Hf
atom 7.2020736699999999 2.3467641700000001 9.8930000400000004 Hf
atom 6.8662695400000002 7.3254562300000003 4.6133055000000001 Hf
atom 7.1872527699999997 7.4051781099999996 9.8551499000000007 Hf
atom 3.6955284100000001 2.7296540500000002 1.3309581800000001 Hf
atom 4.1296926799999998 2.7432498399999998 6.5497485299999996 Hf
atom 3.7141804899999999 7.9300147599999997 1.3665669499999999 Hf
atom 4.2361255599999996 7.8276779300000001 6.5694435599999998 Hf
atom 8.8780311899999997 2.7400738300000000 1.8644239499999999 Hf
atom 9.1311359599999999 2.8307037300000002 7.0081838999999997 Hf
atom 8.8160679900000005 7.8859135000000000 1.7526663000000000 Hf
atom 9.2120844000000002 7.8101881000000004 7.0025842999999997 Hf
atom 3.9722441800000001 4.8505598200000000 3.9626817900000000 Hf
atom 4.3874478100000003 4.8703528800000004 9.2039942099999994 Hf
atom 3.9969589499999998 9.9431229999999999 3.9342953700000001 Hf
atom 4.4305636699999997 9.9994668799999999 9.1845797400000002 Hf
atom 9.1415770900000002 4.9809398600000003 4.1706638600000003 Si
atom 9.4503479400000003 4.8693997199999997 9.6704231600000004 Hf
atom 8.9896339899999997 9.9246292900000004 4.3749847199999996 Hf
atom 9.4209396499999993 9.9722843300000008 9.5812634699999997 Hf
atom 0.6088658000000000 1.4735853200000000 0.8854018500000000 O
atom 0.7617402100000000 1.6515978099999999 5.8912908200000000 O
atom 0.4911308200000000 6.7741734100000004 0.7959601500000000 O
atom 0.8927149800000000 6.7041063699999999 6.0222955599999999 O
atom 5.4240609299999996 1.6792209100000000 1.1932207600000000 O
atom 5.7674431999999998 1.5834221700000000 6.3760540700000004 O
atom 5.4604942699999999 6.7837563200000002 1.2259777400000000 O
atom 5.9778333300000002 6.7478645999999998 6.4049237600000000 O
atom 0.5984540600000000 0.8052753200000000 3.3328551900000001 O
atom 1.0049204000000000 0.8877956400000000 8.5759959200000004 O
atom 0.5753863800000000 5.9042431999999998 3.4180330900000002 O
atom 1.1114127000000000 5.9524688499999998 8.6565685499999994 O
atom 5.5892495200000001 0.9321876500000000 3.7957678399999999 O
atom 6.1005530800000001 0.8823717500000000 9.0327988999999995 O
atom 5.6790020400000003 5.9578562399999999 3.8011413100000002 O
atom 6.0836218000000004 5.9694714299999996 9.0209449500000005 O
atom 4.8994469299999999 4.1803858800000002 2.2022553899999999 O
atom 5.2312124899999999 4.2075962899999997 7.4099620499999999 O
atom 4.9014471100000003 9.2978429100000000 2.1783699300000001 O
atom 5.3398551000000003 9.2634597400000001 7.4033787200000001 O
atom 9.8903402699999994 4.3074030900000002 2.6648668899999999 O
atom 10.3267572800000007 4.2021408899999999 7.8666521400000002 O
atom 10.0046883599999994 9.3514621000000009 2.5615286199999998 O
atom 10.3122145500000002 9.2806251900000003 7.7680217499999999 O
atom 5.0649266199999996 3.4334026199999998 4.8048004799999999 O
atom 5.5643535399999999 3.5065287000000001 10.0667121399999999 O
atom 5.1199462499999999 8.4717997300000007 4.7540141399999998 O
atom 5.4454889299999998 8.4850472200000002 10.0196506200000002 O
atom 9.8802597500000005 3.6389201299999998 5.1125211999999998 O
atom 10.5700647399999994 3.4383350300000002 10.5513931299999992 O
atom 10.0891967600000001 8.4813176499999994 5.1837974300000003 O
atom 10.5305248000000002 8.5287278799999999 10.4021191099999992 O
atom 2.7557707800000002 1.1768994399999999 2.4611729000000002 O
atom 3.3522734700000001 1.2638467400000000 7.8045405700000003 O
atom 2.9877488300000001 6.4188782599999996 2.7151068500000002 O
atom 3.4559655999999999 6.3824819300000000 7.9119368699999999 O
atom 7.9739824500000003 1.3553021500000000 3.1316242399999998 O
atom 8.4156741799999999 1.3499874900000000 8.3286102000000000 O
atom 8.1808685800000003 6.3498823499999997 3.1168699399999999 O
atom 8.4658887000000007 6.3779107200000000 8.3123974100000009 O
atom 3.1066077499999998 1.2829114699999999 5.1749373500000004 O
atom 3.8443813400000000 1.4818400100000000 10.2756929100000001 O
atom 3.2578213200000001 6.2938883499999996 5.3161665400000002 O
atom 3.6690629900000000 6.3950618500000003 10.5335237599999996 O
atom 8.2076810899999995 1.1880806600000000 5.7304039199999997 O
atom 8.6796638999999995 1.2546660100000000 10.9886265000000005 O
atom 8.3083220400000002 5.9650256500000003 5.5319310300000000 O
atom 8.6713590699999994 6.3303782699999998 10.9523941899999997 O
atom 2.2811013899999999 3.9242371999999999 0.2676106600000000 O
atom 2.6522275799999999 3.8353369599999998 5.4541296600000004 O
atom 2.2721447900000000 9.2903368600000000 0.4475824400000000 O
atom 2.7521489799999999 8.9026133400000003 5.4720058700000003 O
atom 7.3823183900000000 3.8296273599999999 0.8230223300000000 O
atom 7.4874896000000000 3.6079034900000000 6.1671564800000001 O
atom 7.3224784500000002 8.9616994099999996 0.6635950300000000 O
atom 7.7543947800000002 8.8378876999999996 5.8910284800000001 O
atom 2.5149059299999998 3.7572886599999999 2.8663496999999998 O
atom 2.9161725399999998 3.7401123200000002 8.1140834000000002 O
atom 2.3994450000000001 8.9056101099999996 2.8627629099999998 O
atom 2.9574098700000002 8.8551930900000002 8.1119676700000003 O
atom 7.7330883600000000 3.9353121799999999 3.5369155399999999 O
atom 7.9796244900000000 3.8261860699999999 8.6382098000000003 O
atom 7.5927081500000000 8.8365589000000000 3.2648139999999999 O
atom 7.9673645899999999 8.8503744100000006 8.5126847800000007 O
