lattice_vector 10.1145779999999998 0.0160900000000000 0.7975940000000000 
lattice_vector 0.0262970000000000 10.2400420000000008 -0.0029730000000000 
lattice_vector 0.8871110000000000 -0.0057740000000000 10.4693539999999992 
atom 1.3827810000000000 0.0994190000000000 1.8641700000000001 Si
atom 1.9561809999999999 0.2216470000000000 6.8467039999999999 Hf
atom 1.5437860000000001 5.3260339999999999 1.6423820000000000 Hf
atom 1.9916330000000000 5.3170620000000000 6.8402409999999998 Hf
atom 6.5182229999999999 0.1471990000000000 1.9766239999999999 La
atom 7.0357810000000001 0.2252060000000000 7.2842310000000001 Hf
atom 6.5923949999999998 5.3431879999999996 2.0105909999999998 Hf
atom 7.0462199999999999 5.3384510000000001 7.2758849999999997 Hf
atom 1.7212730000000001 2.3244769999999999 4.1822509999999999 Hf
atom 2.2445490000000001 2.2937419999999999 9.4787680000000005 Hf
atom 1.7247669999999999 7.4463130000000000 4.2569830000000000 Hf
atom 2.1959360000000001 7.4518750000000002 9.4397050000000000 Hf
atom 6.8082240000000001 2.3366449999999999 4.6590470000000002 Hf
atom 7.2855860000000003 2.3983089999999998 9.8848570000000002 Hf
atom 6.8324769999999999 7.4561250000000001 4.6625819999999996 Hf
atom 7.2667390000000003 7.4617030000000000 9.8967919999999996 Hf
atom 3.7030580000000000 2.7822879999999999 1.3306800000000001 Hf
atom 4.1860980000000003 2.7921730000000000 6.5892640000000000 Hf
atom 3.6345850000000000 7.9451029999999996 1.3707320000000001 Hf
atom 4.2236079999999996 7.9146539999999996 6.6352279999999997 Hf
atom 8.8808930000000004 2.7101639999999998 1.8085670000000000 Hf
atom 9.2505000000000006 2.7778109999999998 7.0086990000000000 Hf
atom 8.8971129999999992 7.8968210000000001 1.7796160000000001 Hf
atom 9.2412609999999997 7.8912930000000001 7.0301190000000000 Hf
atom 3.9822639999999998 4.9188130000000001 3.9829800000000000 Hf
atom 4.4008929999999999 4.9322189999999999 9.2062039999999996 Hf
atom 3.9078789999999999 10.0023619999999998 4.0253040000000002 Hf
atom 4.4472620000000003 10.0945610000000006 9.2588790000000003 Hf
atom 9.0054479999999995 4.8931750000000003 4.3770680000000004 Hf
atom 9.5168389999999992 4.8754640000000000 9.6628880000000006 Hf
atom 9.0437510000000003 10.0247960000000003 4.4277780000000000 Hf
atom 9.5201290000000007 10.0271869999999996 9.6058229999999991 Hf
atom 0.6410380000000000 1.4591030000000000 0.8946860000000000 O
atom 0.8150780000000000 1.6349330000000000 5.9898470000000001 O
atom 0.4589170000000000 6.7949099999999998 0.8142710000000000 O
atom 0.8461419999999999 6.7729270000000001 6.0610140000000001 O
atom 5.4739979999999999 1.9344490000000001 1.1935770000000001 O
atom 5.9251670000000001 1.7388939999999999 6.5120259999999996 O
atom 5.4641169999999999 6.8450939999999996 1.2175350000000000 O
atom 5.9320769999999996 6.8222839999999998 6.4756140000000002 O
atom 0.6748050000000000 0.7740180000000000 3.3774730000000002 O
atom 1.0897939999999999 0.8823560000000000 8.6329490000000000 O
atom 0.6209070000000000 5.9642890000000000 3.4444800000000000 O
atom 1.0977020000000000 5.9880769999999997 8.6721160000000008 O
atom 5.5376250000000002 0.9458820000000000 3.9721109999999999 O
atom 6.2085569999999999 0.8525640000000000 9.1282289999999993 O
atom 5.7084219999999997 6.0022970000000004 3.8432089999999999 O
atom 6.1170010000000001 6.0277339999999997 9.0514749999999999 O
atom 4.8290629999999997 4.3295750000000002 2.1547410000000000 O
atom 5.3050560000000004 4.2814699999999997 7.3930670000000003 O
atom 4.7193290000000001 9.1846119999999996 2.3832810000000002 O
atom 5.3363560000000003 9.3924369999999993 7.4464899999999998 O
atom 9.9795060000000007 4.2003459999999997 2.6098420000000000 O
atom 10.4059369999999998 4.2138400000000003 7.8491249999999999 O
atom 10.0529670000000007 9.4151690000000006 2.5889769999999999 O
atom 10.4097720000000002 9.3384830000000001 7.8315799999999998 O
atom 5.1054209999999998 3.4742959999999998 4.8060820000000000 O
atom 5.5849419999999999 3.5424790000000002 9.9958890000000000 O
atom 5.1237579999999996 8.5826270000000005 4.8554329999999997 O
atom 5.5260540000000002 8.6065480000000001 10.1043210000000006 O
atom 10.1325289999999999 3.4072510000000000 5.1838850000000001 O
atom 10.6802639999999993 3.4294340000000001 10.5193840000000005 O
atom 10.1439360000000001 8.5442660000000004 5.2427950000000001 O
atom 10.7104789999999994 8.6146449999999994 10.4691670000000006 O
atom 2.8260800000000001 1.1665360000000000 2.4969660000000000 O
atom 3.4401950000000001 1.2948160000000000 7.8732670000000002 O
atom 2.9762640000000000 6.4672879999999999 2.7281240000000002 O
atom 3.4439890000000002 6.4321789999999996 7.9253330000000002 O
atom 8.1577660000000005 1.3613540000000000 3.2323290000000000 O
atom 8.5250570000000003 1.3302849999999999 8.3402340000000006 O
atom 8.0893110000000004 6.3933999999999997 3.1042060000000000 O
atom 8.5212339999999998 6.4302039999999998 8.3831109999999995 O
atom 3.1693400000000000 1.2803210000000000 5.2862669999999996 O
atom 3.9156330000000001 1.5038020000000001 10.3254699999999993 O
atom 3.2362839999999999 6.3719109999999999 5.3346520000000002 O
atom 3.6713279999999999 6.4364819999999998 10.5441839999999996 O
atom 8.2719360000000002 1.2313850000000000 5.7710200000000000 O
atom 8.8532700000000002 1.3163840000000000 10.8887809999999998 O
atom 8.2884119999999992 6.3557389999999998 5.7495399999999997 O
atom 8.7511240000000008 6.3357630000000000 10.9809400000000004 O
atom 2.2770750000000000 3.9536270000000000 0.2614070000000000 O
atom 2.7027399999999999 3.8774500000000001 5.4855140000000002 O
atom 2.2784339999999998 9.3869910000000001 0.4938150000000000 O
atom 2.7315760000000000 8.9844720000000002 5.5322209999999998 O
atom 7.4163730000000001 3.8734180000000000 0.7045760000000000 O
atom 7.7809939999999997 3.8797640000000002 5.9189059999999998 O
atom 7.5066210000000000 8.8695020000000007 0.5552390000000000 O
atom 7.7798959999999999 8.9975529999999999 5.9382200000000003 O
atom 2.5189910000000002 3.7689480000000000 2.8980720000000000 O
atom 2.9601720000000000 3.7831190000000001 8.1192759999999993 O
atom 2.2722080000000000 8.9790829999999993 2.8969480000000001 O
atom 2.9912030000000001 8.9241790000000005 8.1850670000000001 O
atom 7.5571429999999999 3.7894649999999999 3.2804099999999998 O
atom 8.0268969999999999 3.8337509999999999 8.5408659999999994 O
atom 7.7501460000000000 8.8156110000000005 3.3600210000000001 O
atom 8.0107940000000006 8.9288500000000006 8.5194960000000002 O
