lattice_vector 9.9648807700000006 0.0260214700000000 0.0881656600000000 
lattice_vector 0.0233049200000000 10.3699732999999998 -0.0413381600000000 
lattice_vector 0.0839835800000000 -0.0350376100000000 10.0391679400000005 
atom 1.0012596499999999 0.2609292400000000 0.8320687800000000 Si
atom 1.3973018800000001 0.1619769900000000 6.3468318799999999 Hf
atom 1.3423661300000000 5.3774593700000004 1.2806450599999999 Hf
atom 1.4095356100000000 5.3237682299999998 6.2669874099999996 Hf
atom 6.2549313299999998 0.1416570900000000 1.3548203700000001 La
atom 6.3210364800000001 0.1356692000000000 6.2829496499999999 Hf
atom 6.3360438600000002 5.3674548399999997 1.3306459399999999 Hf
atom 6.3848059199999998 5.3737253999999997 6.3241490599999999 Hf
atom 1.4593530900000000 2.3331149000000000 3.7252633500000001 Hf
atom 1.4120755800000000 2.4472002399999999 8.7783127899999993 Hf
atom 1.4182016300000000 7.5736306899999999 3.8355600700000001 Hf
atom 1.3925478700000000 7.5657845699999999 8.7759124800000006 Hf
atom 6.4679672999999998 2.4575541799999998 3.9334629400000001 Hf
atom 6.3782828499999997 2.4261395800000001 8.7995153899999998 Hf
atom 6.4052110700000000 7.6108411499999997 3.7944971199999999 Hf
atom 6.3669454099999996 7.5899314499999999 8.8434718599999993 Hf
atom 3.5467065700000000 2.8161296700000000 1.2499527600000000 Hf
atom 3.7194861900000000 2.7611154999999998 6.2975073000000004 Hf
atom 3.5772080499999999 7.9581510700000004 1.3585103100000000 Hf
atom 3.7187218299999998 7.9527309099999997 6.3342130499999998 Hf
atom 8.6521187099999999 2.7612497700000000 1.2965033300000000 Hf
atom 8.7207397100000001 2.7528679299999999 6.3372292300000002 Hf
atom 8.7507195699999993 7.9177367399999996 1.2193605000000001 Hf
atom 8.7045979700000000 7.9563824299999997 6.3005663700000003 Hf
atom 3.7241881499999998 4.9907943100000001 3.7998951500000002 Hf
atom 3.7374869199999998 5.0301514000000003 8.7970394499999998 Hf
atom 3.6527408800000001 10.1637323800000008 3.8100295000000002 Hf
atom 3.6519290500000001 10.1945306599999999 8.8669290699999994 Hf
atom 8.7106782099999993 5.0042550700000001 3.8137371199999999 Hf
atom 8.6905856700000008 5.0109439499999997 8.8422919300000000 Hf
atom 8.7748661600000002 10.2188171299999997 3.7675463699999998 Hf
atom 8.6306641600000003 10.1737534000000007 8.7440008700000007 Hf
atom 0.5652979800000000 1.7047066300000000 1.7586544000000000 O
atom 0.4156529900000000 1.8927124700000000 6.9956733499999997 O
atom 0.3839819800000000 7.0631567400000002 2.0017153099999998 O
atom 0.4350309900000000 7.0675284800000000 6.9408810900000004 O
atom 5.4406351400000004 1.9380123400000000 6.8900038700000001 O
atom 5.3450604100000003 7.1002084099999996 2.0201403299999998 O
atom 5.3865999799999997 7.0692968799999996 7.0520651399999998 O
atom 0.4717855400000000 0.6403483800000001 4.4481902199999999 O
atom 0.3836939200000000 0.6293537800000000 9.3972815399999998 O
atom 0.4166134700000000 5.8063777900000000 4.4667353299999997 O
atom 0.3884822700000000 5.8611497000000004 9.5213744600000005 O
atom 5.4438101300000001 0.6858833400000000 4.3698495900000003 O
atom 5.2850000899999996 0.7937055300000000 9.3909838699999995 O
atom 5.4205137800000003 5.8650428100000003 4.4957160399999996 O
atom 5.3982078900000001 5.8713983499999998 9.5566814200000003 O
atom 4.6761838700000000 4.3953363799999998 2.0044029000000001 O
atom 4.6935181899999998 4.5058570900000001 7.0032698699999996 O
atom 4.5063648499999998 9.5916009399999993 2.0926873399999999 O
atom 4.6602607200000001 9.6979256399999993 7.0185606700000003 O
atom 9.6488276499999994 4.4300493500000000 2.0129147299999999 O
atom 9.6831411799999998 4.4973671800000004 7.0379410299999998 O
atom 9.8111126300000002 9.7623546000000001 1.7334258899999999 O
atom 9.6619280500000002 9.6953473500000005 6.9738550500000001 O
atom 4.7211707000000001 3.2856502200000000 4.5129328299999996 O
atom 4.6589992000000002 3.2820668600000000 9.4755260700000008 O
atom 4.7556070200000002 8.4919335399999998 4.5950404699999998 O
atom 4.6567002899999999 8.5092664899999999 9.5783517699999994 O
atom 9.6891525600000001 3.2387447699999998 4.4909337499999999 O
atom 9.6948236399999992 3.2923189399999999 9.5279179500000009 O
atom 9.6981038599999998 8.4844209999999993 4.5173509699999999 O
atom 9.6743599299999996 8.4512545800000005 9.4213078100000001 O
atom 3.0963363199999998 1.4373953900000001 2.6641857500000001 O
atom 2.7670650200000000 1.2300307800000001 7.6045403199999999 O
atom 2.7391445900000000 6.3520537600000004 2.5198218500000000 O
atom 2.7490621399999999 6.3884138100000003 7.5345217000000000 O
atom 7.8445939400000002 1.3463266300000001 2.6255959999999998 O
atom 7.6894143300000000 1.1921230800000000 7.5315456799999998 O
atom 7.7212709600000000 6.3469410000000002 2.5342323200000001 O
atom 7.7414485400000004 6.4109096399999999 7.5735208399999996 O
atom 2.7239702000000001 1.3484369400000000 5.1094067900000004 O
atom 2.5630942200000000 1.2906341100000001 10.1677103300000002 O
atom 2.7952792700000000 6.5244624000000000 5.0430003900000004 O
atom 2.7383349600000000 6.5738919899999999 10.0446353500000001 O
atom 7.7892544800000003 1.3451120800000000 5.0898430599999998 O
atom 7.8073975999999998 1.4089172000000001 9.9879102999999994 O
atom 7.7401268600000002 6.5709787500000001 5.0516989700000003 O
atom 7.7425120400000003 6.5205831800000000 10.0798859299999997 O
atom 2.3645814399999998 3.9223885699999999 5.0024849700000003 O
atom 2.3624314000000002 3.9598675999999999 10.0301412600000006 O
atom 2.3450143600000000 9.1021015700000003 5.1340535799999998 O
atom 2.1742841700000000 9.2797326200000008 10.2354190099999993 O
atom 7.3778297600000000 3.9777086000000001 5.0855466900000001 O
atom 7.3586983500000001 3.9411459099999999 10.0973820500000002 O
atom 7.3812745099999999 9.1771562299999996 5.0030535000000000 O
atom 7.4080207400000004 9.0364473600000004 9.9638685200000001 O
atom 2.2508145100000001 3.8612096999999999 2.4945318400000001 O
atom 2.3502884200000000 3.8135034700000001 7.5289727199999996 O
atom 2.3463859600000001 8.9032669099999993 2.6896807599999999 O
atom 2.3470819199999999 9.0008139899999993 7.6268684400000000 O
atom 7.2757068699999996 3.8062497099999999 2.5573537800000001 O
atom 7.3457874700000003 3.8203725700000000 7.5654601599999998 O
atom 7.5713938499999998 8.8898186599999995 2.5683252599999999 O
atom 7.2945472699999998 8.9822582499999992 7.4981123600000004 O
