lattice_vector 10.0732719999999993 0.0205070000000000 0.0007670000000000 
lattice_vector -0.0042530000000000 10.2309350000000006 0.0270740000000000 
lattice_vector 0.0031630000000000 0.0033610000000000 10.1255769999999998 
atom 1.2491930000000000 0.0371990000000000 1.3048070000000001 La
atom 1.2628800000000000 -0.0242920000000000 6.3709179999999996 Hf
atom 1.2503800000000000 5.1533350000000002 1.2756650000000000 Hf
atom 1.2591930000000000 5.1299560000000000 6.3384320000000001 Hf
atom 6.3368880000000001 -0.1401950000000000 1.1054600000000001 Hf
atom 6.3175610000000004 0.0315620000000000 6.3459700000000003 Hf
atom 6.2988000000000000 5.1210469999999999 1.3199970000000001 Hf
atom 6.3323070000000001 5.1658330000000001 6.3680180000000002 Hf
atom 1.2814239999999999 2.5310579999999998 3.7838370000000001 La
atom 1.2721789999999999 2.5956720000000000 8.8431420000000003 Hf
atom 1.2771380000000001 7.6458729999999999 3.8404520000000000 Hf
atom 1.2703390000000001 7.6727020000000001 8.9032859999999996 Hf
atom 6.2671809999999999 2.7292700000000001 3.9838779999999998 Hf
atom 6.2905040000000003 2.5613090000000001 8.8686710000000009 Hf
atom 6.3012670000000002 7.6993749999999999 3.7975840000000001 Hf
atom 6.2702090000000004 7.6575100000000003 8.8740290000000002 Hf
atom 3.8151470000000001 2.6816080000000002 1.1804310000000000 Hf
atom 3.7655059999999998 2.5651459999999999 6.3765650000000003 Hf
atom 3.7621229999999999 7.6546649999999996 1.3069020000000000 Hf
atom 3.8028849999999998 7.6651069999999999 6.3857260000000000 Hf
atom 8.8445560000000008 2.6854879999999999 1.1858280000000001 Hf
atom 8.8497979999999998 2.5493500000000000 6.3525369999999999 Hf
atom 8.8298079999999999 7.6807650000000001 1.3099339999999999 Hf
atom 8.8539379999999994 7.6863789999999996 6.3723599999999996 Hf
atom 3.7602370000000001 -0.0963430000000000 3.9030809999999998 Hf
atom 3.7580659999999999 0.0435820000000000 8.8622460000000007 Hf
atom 3.7701289999999998 5.1394019999999996 3.8061650000000000 Hf
atom 3.7490489999999999 5.1360539999999997 8.8706350000000000 Hf
atom 8.7899390000000004 -0.0933250000000000 3.9094020000000000 Hf
atom 8.8421360000000000 0.0279580000000000 8.8379820000000002 Hf
atom 8.8379259999999995 5.1661640000000002 3.8091610000000000 Hf
atom 8.8000010000000000 5.1579139999999999 8.8576890000000006 Hf
atom -0.0224600000000000 1.5737550000000000 -0.0216940000000000 O
atom -0.0889080000000000 1.2988360000000001 5.2362479999999998 O
atom 0.0591970000000000 6.5824119999999997 0.1456250000000000 O
atom 0.0100830000000000 6.5698210000000001 5.1983370000000004 O
atom 5.1243930000000004 1.4772600000000000 0.1176020000000000 O
atom 5.0068029999999997 1.5442610000000001 5.1446230000000002 O
atom 5.0850099999999996 6.6128179999999999 0.1207160000000000 O
atom 5.0458670000000003 6.6548499999999997 5.1547689999999999 O
atom -0.5555420000000000 1.2266509999999999 2.5575619999999999 O
atom 0.0510630000000000 1.0607549999999999 7.6931190000000003 O
atom 0.0390830000000000 6.2536909999999999 2.6774800000000001 O
atom 0.0290550000000000 6.1946070000000004 7.7234119999999997 O
atom 5.5732999999999997 1.1437150000000000 2.6421990000000002 O
atom 5.0668340000000001 1.0605050000000000 7.6709100000000001 O
atom 5.0590359999999999 6.2321179999999998 2.6422270000000001 O
atom 5.0558790000000000 6.1854620000000002 7.7052149999999999 O
atom -0.0320220000000000 3.8228010000000001 2.3470610000000001 O
atom 0.0048240000000000 3.6317970000000002 7.5249050000000004 O
atom -0.0812300000000000 8.7257429999999996 2.6039680000000001 O
atom 0.0640800000000000 8.7292919999999992 7.5211319999999997 O
atom 5.0827239999999998 3.6603289999999999 2.5097830000000001 O
atom 5.0302730000000002 3.6194869999999999 7.5747949999999999 O
atom 5.0476479999999997 8.7945899999999995 2.4253089999999999 O
atom 5.1127739999999999 8.7300520000000006 7.4877390000000004 O
atom -0.0675700000000000 4.0424650000000000 -0.0783920000000000 O
atom -0.0442220000000000 4.0557129999999999 5.0658570000000003 O
atom -0.0849240000000000 9.0346790000000006 -0.1167870000000000 O
atom 0.1091930000000000 9.0928579999999997 5.0274609999999997 O
atom 4.9817289999999996 4.0737940000000004 -0.0206800000000000 O
atom 5.1017560000000000 4.1366909999999999 5.0250919999999999 O
atom 5.0581750000000003 9.1444069999999993 -0.1521570000000000 O
atom 5.1928010000000002 9.1965269999999997 4.9793370000000001 O
atom 3.0847080000000000 1.3420040000000000 2.5311040000000000 O
atom 2.4842420000000001 1.5110399999999999 7.5212209999999997 O
atom 2.4881160000000002 6.5459240000000003 2.4384570000000001 O
atom 2.4994600000000000 6.6077300000000001 7.5177849999999999 O
atom 7.0263999999999998 1.4457400000000000 2.4463089999999998 O
atom 7.5417310000000004 1.5321100000000001 7.5445450000000003 O
atom 7.5414349999999999 6.5876979999999996 2.4753650000000000 O
atom 7.5459240000000003 6.6381150000000000 7.5377349999999996 O
atom 2.6204120000000000 1.2692200000000000 -0.1475090000000000 O
atom 2.5540929999999999 0.9944520000000000 5.1102169999999996 O
atom 2.5181819999999999 6.2298900000000001 -0.0820700000000000 O
atom 2.4689960000000002 6.2171240000000001 4.9706539999999997 O
atom 7.5983330000000002 1.0445009999999999 -0.0545830000000000 O
atom 7.4802710000000001 1.1114910000000000 4.9713779999999996 O
atom 7.5559260000000004 6.1653180000000001 -0.0367200000000000 O
atom 7.5167469999999996 6.2066200000000000 4.9972399999999997 O
atom 2.4187829999999999 3.7066140000000001 0.0881800000000000 O
atom 2.6105019999999999 3.7642899999999999 5.2326790000000001 O
atom 2.5696099999999999 8.7436120000000006 0.0497710000000000 O
atom 2.5956250000000001 8.7567240000000002 5.1935770000000003 O
atom 7.4081460000000003 3.6242930000000002 0.1366420000000000 O
atom 7.5400429999999998 3.6749820000000000 5.2697050000000001 O
atom 7.4970829999999999 8.6834640000000007 0.0910180000000000 O
atom 7.6193249999999999 8.7455320000000007 5.1365470000000002 O
atom 2.6081120000000002 4.0735120000000000 2.5116489999999998 O
atom 2.4676230000000001 4.0729119999999996 7.7199150000000003 O
atom 2.5592910000000000 8.9763529999999996 2.7680460000000000 O
atom 2.5275910000000001 9.1703039999999998 7.7153799999999997 O
atom 7.5526879999999998 4.0247960000000003 2.6918810000000000 O
atom 7.4922279999999999 4.0931480000000002 7.7541229999999999 O
atom 7.5174529999999997 9.1601009999999992 2.6063010000000002 O
atom 7.5752629999999996 9.2036420000000003 7.6656589999999998 O
