lattice_vector 5.1165985300000001 -0.0034820400000000 0.3636317700000000 
lattice_vector 0.0192814700000000 10.3978247699999997 0.0133990800000000 
lattice_vector 0.8691353000000001 0.0005607900000000 10.5130417299999994 
atom 1.4306490199999999 -0.0269843700000000 1.5318016600000000 La
atom 1.9951427100000001 0.2336216900000000 6.9201850699999996 Hf
atom 1.5755246700000001 5.3768081700000003 1.6498010200000000 Hf
atom 1.9967938800000000 5.4186457600000004 6.9007508399999997 Hf
atom 1.6899733600000000 2.3896284300000001 4.3138514199999998 Hf
atom 2.2684483900000001 2.4317862799999999 9.4344366100000006 Hf
atom 1.7315290600000000 7.5246400400000004 4.3148268600000002 Hf
atom 2.2987926200000000 7.5540593300000003 9.5079657100000006 Hf
atom 3.8325027700000001 2.6639729600000002 1.4248707700000001 La
atom 4.2097042900000003 2.8334644700000000 6.6101902800000003 Hf
atom 3.8431295200000002 7.8912453500000002 1.3783445100000000 Hf
atom 4.2344663200000001 8.0186466799999998 6.6132916300000000 Hf
atom 3.9842933500000002 5.0065114399999997 4.0021051600000002 Hf
atom 4.4907006599999999 4.9771570900000004 9.2217090800000001 Hf
atom 3.8857341999999999 10.1822753899999991 4.0802949300000000 Hf
atom 4.5422732899999998 10.1018227399999994 9.2216424400000001 Hf
atom 0.8406240400000000 2.0767285599999998 0.8642583700000001 O
atom 0.8398364500000000 1.7553198299999999 6.1542256899999996 O
atom 0.5843933800000000 7.0726670399999998 0.9453998700000000 O
atom 0.8680536500000000 6.9572440799999997 6.1644983900000003 O
atom 0.4072780600000000 0.9378036100000000 3.5749078000000001 O
atom 1.1283449100000000 0.8407667700000000 8.7637498100000002 O
atom 0.6424497500000000 6.0496038700000003 3.5547821900000001 O
atom 1.1349113300000000 6.0439547800000000 8.7622669099999992 O
atom 4.8831986199999999 4.5628718299999997 2.1637168199999999 O
atom 5.3558939600000004 4.3832234699999999 7.3338141400000003 O
atom 4.4406985499999996 9.7443699800000001 2.0606796599999999 O
atom 5.3924340600000003 9.5154284199999992 7.3949214899999998 O
atom 5.0501104600000000 3.4437290400000000 4.7558118900000004 O
atom 5.6118177899999999 3.4326828699999998 9.8167421400000006 O
atom 5.1178953900000002 8.6430952899999998 4.7601906500000002 O
atom 5.7774208800000002 8.7131172100000001 10.1008902799999998 O
atom 2.8115368500000000 1.2513612800000000 3.0023344700000001 O
atom 3.4874299400000002 1.3518158899999999 7.9330449900000000 O
atom 3.0257358900000000 6.4822991400000003 2.7442949200000002 O
atom 3.5053444499999999 6.5473736300000001 7.9773195899999996 O
atom 3.1896719299999998 1.2720244300000001 5.4380506899999999 O
atom 3.6826218700000002 1.1417208999999999 10.3937198100000003 O
atom 3.2411422499999998 6.4635247500000004 5.3837827799999998 O
atom 3.7773522200000000 6.4291267500000000 10.6201048700000005 O
atom 2.3031000300000000 4.0557221099999996 0.1430295400000000 O
atom 2.7122562200000000 3.9521727900000001 5.5446174299999997 O
atom 2.5577033999999998 8.9292111300000006 0.1213327900000000 O
atom 2.7323848200000000 9.1489994899999996 5.5795428800000000 O
atom 2.4265493199999999 3.9136672400000001 2.9895033999999998 O
atom 3.0140880499999998 3.8848707600000001 8.0979726000000003 O
atom 2.5619346400000000 8.8545971100000003 3.0062955800000002 O
atom 3.0158125800000000 9.0478734400000000 8.1309018399999999 O
