lattice_vector 10.0482490000000002 0.0205770000000000 -0.0343260000000000 
lattice_vector 0.0557150000000000 10.2112730000000003 -0.0402300000000000 
lattice_vector -0.0204350000000000 -0.0120740000000000 10.4375529999999994 
atom 1.1977169999999999 0.0166940000000000 1.9908490000000001 Si
atom 1.3535029999999999 0.2020120000000000 6.9792269999999998 Hf
atom 1.4498570000000000 5.3439069999999997 1.7445170000000001 Hf
atom 1.4425230000000000 5.3286749999999996 6.9376090000000001 Hf
atom 1.3920859999999999 2.3156690000000002 4.3011990000000004 Hf
atom 1.4494549999999999 2.3177710000000000 9.5736640000000008 Hf
atom 1.4171780000000000 7.4428820000000000 4.3694980000000001 Hf
atom 1.3905479999999999 7.5012559999999997 9.5875210000000006 Hf
atom 3.5922329999999998 2.7287340000000002 1.7297070000000001 Hf
atom 3.6185700000000001 2.7808959999999998 6.9446479999999999 Hf
atom 3.6322160000000001 7.9678420000000001 1.7575330000000000 Hf
atom 3.6746680000000000 7.9004399999999997 6.9765329999999999 Hf
atom 3.6576909999999998 4.8955690000000001 4.3388070000000001 Hf
atom 3.5761539999999998 4.9240139999999997 9.5396909999999995 Hf
atom 3.6329920000000002 10.0266889999999993 4.3176230000000002 Hf
atom 3.6415880000000000 10.0507120000000008 9.5972240000000006 Hf
atom 6.4177720000000003 0.2378000000000000 0.7825680000000000 Hf
atom 6.3852940000000000 0.1878370000000000 6.0034120000000000 Hf
atom 6.4247649999999998 5.1651959999999999 0.8409200000000000 La
atom 6.4390780000000003 5.3181779999999996 6.0216139999999996 Hf
atom 6.4387619999999997 2.3265180000000001 3.4162940000000002 Hf
atom 6.3767750000000003 2.2899799999999999 8.5659580000000002 Hf
atom 6.4235439999999997 7.4509720000000002 3.3859819999999998 Hf
atom 6.4298320000000002 7.4336799999999998 8.6054220000000008 Hf
atom 8.9430899999999998 2.5721319999999999 0.9616630000000000 Hf
atom 8.6681919999999995 2.7538000000000000 6.0297200000000002 Hf
atom 8.6937040000000003 7.8757089999999996 0.7831480000000000 Hf
atom 8.6633289999999992 7.8569259999999996 6.0063519999999997 Hf
atom 8.7225199999999994 4.9026120000000004 3.4300489999999999 Hf
atom 8.7675370000000008 4.9208990000000004 8.6077080000000006 Hf
atom 8.6703969999999995 9.9614650000000005 3.3934489999999999 Hf
atom 8.6887469999999993 10.0203950000000006 8.5907820000000008 Hf
atom 0.6094770000000000 1.4092039999999999 0.9704780000000000 O
atom 0.3234470000000000 1.6258570000000001 6.0054259999999999 O
atom 0.3755520000000000 6.8001469999999999 0.8472820000000000 O
atom 0.3571540000000000 6.7813150000000002 6.0717540000000003 O
atom 0.3597800000000000 0.7674220000000000 3.3896519999999999 O
atom 0.2913800000000000 0.9031420000000000 8.6622100000000000 O
atom 0.4056360000000000 5.9281699999999997 3.4994570000000000 O
atom 0.3997060000000000 5.9876110000000002 8.6746560000000006 O
atom 4.3618499999999996 4.3685049999999999 0.8984510000000000 O
atom 4.6777980000000001 4.2972950000000001 6.0897199999999998 O
atom 4.7063269999999999 9.4479980000000001 0.8524810000000000 O
atom 4.6782130000000004 9.4309449999999995 6.0690679999999997 O
atom 4.7135990000000003 3.3751340000000001 3.4774490000000000 O
atom 4.6922819999999996 3.4006919999999998 8.6974540000000005 O
atom 4.6319629999999998 8.4910139999999998 3.5162909999999998 O
atom 4.7050029999999996 8.5192650000000008 8.6755270000000007 O
atom 2.6462409999999998 1.1304209999999999 2.8386250000000000 O
atom 2.7433700000000001 1.2526189999999999 8.1662060000000007 O
atom 2.8149630000000001 6.4035289999999998 3.0256630000000002 O
atom 2.7683529999999998 6.3972670000000003 8.2158879999999996 O
atom 3.0645539999999998 1.5812720000000000 0.1663060000000000 O
atom 2.7717890000000001 1.3294660000000000 5.5742269999999996 O
atom 2.8184209999999998 6.5655080000000003 0.3857860000000000 O
atom 2.8129840000000002 6.4028640000000001 5.6308499999999997 O
atom 2.2771580000000000 3.7961160000000000 3.0449670000000002 O
atom 2.2501650000000000 3.8051400000000002 8.2353909999999999 O
atom 2.1258159999999999 8.9850829999999995 3.0131459999999999 O
atom 2.2706819999999999 8.9464760000000005 8.3144209999999994 O
atom 2.0576200000000000 3.9351810000000000 0.3641360000000000 O
atom 2.2527149999999998 3.8396319999999999 5.6224330000000000 O
atom 2.1642839999999999 9.2987339999999996 0.5958890000000000 O
atom 2.2755790000000000 8.9531010000000002 5.6499370000000004 O
atom 5.4328339999999997 1.8190059999999999 1.6383950000000000 O
atom 5.3642159999999999 1.7417130000000001 6.8619060000000003 O
atom 5.3779659999999998 6.9917530000000001 1.6903999999999999 O
atom 5.4163290000000002 6.8877579999999998 6.8213739999999996 O
atom 5.3526980000000002 0.8038080000000000 4.2562670000000002 O
atom 5.3968010000000000 0.7807690000000000 9.4599620000000009 O
atom 5.4194959999999996 5.9049730000000000 4.2494139999999998 O
atom 5.3080520000000000 5.9412019999999997 9.3449700000000000 O
atom 9.8216409999999996 4.2201870000000001 1.7412820000000000 O
atom 9.7688530000000000 4.2241619999999998 6.9188010000000002 O
atom 9.8415759999999999 9.3380770000000002 1.7226330000000001 O
atom 9.7494779999999999 9.3267039999999994 6.9296709999999999 O
atom 9.7250730000000001 3.3797250000000001 4.3172420000000002 O
atom 9.6287020000000005 3.3623989999999999 9.6258619999999997 O
atom 9.7268629999999998 8.5102329999999995 4.3198169999999996 O
atom 9.7355049999999999 8.5777880000000000 9.5422809999999991 O
atom 7.7874109999999996 1.3669290000000001 9.9677089999999993 O
atom 7.8034340000000002 1.2461430000000000 4.7229299999999999 O
atom 7.8967950000000000 6.3891720000000003 9.8608919999999998 O
atom 7.8178039999999998 6.3574970000000004 4.7417920000000002 O
atom 7.8235580000000002 1.1860580000000001 2.1121020000000001 O
atom 7.7815099999999999 1.2709330000000001 7.3062060000000004 O
atom 7.9280749999999998 6.4578910000000000 2.1990829999999999 O
atom 7.8285570000000000 6.3808619999999996 7.3122140000000000 O
atom 7.2888219999999997 3.7998490000000000 4.7863429999999996 O
atom 7.3072470000000003 8.9412409999999998 9.9249390000000002 O
atom 7.2815240000000001 8.9077359999999999 4.7074780000000001 O
atom 7.5407050000000000 3.6387980000000000 2.2184279999999998 O
atom 7.3132700000000002 3.8496560000000000 7.4349270000000001 O
atom 7.3321329999999998 8.9541439999999994 2.0942550000000000 O
atom 7.2994930000000000 8.9540439999999997 7.3117760000000001 O
