lattice_vector 10.0347883099999997 0.0160874900000000 0.0667844500000000 
lattice_vector 0.0169552300000000 10.3878925100000004 0.0107059700000000 
lattice_vector -0.0560825400000000 0.0481641200000000 10.0929548800000006 
atom 1.0303709700000001 -0.1379106000000000 0.9102587000000000 Hf
atom 1.2909457900000001 0.2132862900000000 6.2810635000000001 Hf
atom 1.3723244299999999 5.3590806400000002 1.2936070600000000 Hf
atom 1.3150856600000000 5.4108042799999998 6.3114380399999996 Hf
atom 6.4310839199999998 0.1754150000000000 1.3156154700000000 Hf
atom 6.3382972500000001 0.2306665500000000 6.4115503199999999 Hf
atom 6.3651896299999997 5.3787500300000000 1.3313715600000000 Hf
atom 6.3087443600000004 5.4228433599999999 6.3658357900000002 Hf
atom 1.1658787799999999 2.5802615400000000 3.8246823800000000 Hf
atom 1.2914566800000000 2.4849461300000000 8.7960327199999995 Hf
atom 1.3446636100000000 7.6674732900000002 3.7809618700000001 Hf
atom 1.3254319999999999 7.6309273099999997 8.8232397000000002 Hf
atom 6.4352292100000001 2.4604380099999998 3.9264667100000001 Hf
atom 6.3409668999999997 2.4888533900000001 8.8864825399999994 Hf
atom 6.3324059799999999 7.6394698700000001 3.8633315100000001 Hf
atom 6.3129287100000004 7.6287701999999999 8.8717436999999997 Hf
atom 3.7301789099999998 2.6372959200000001 1.2337110099999999 La
atom 3.6544485099999999 2.8139013799999999 6.3121717500000001 Hf
atom 3.6962354600000000 7.9387540500000000 1.2264795700000000 Hf
atom 3.6299848099999998 8.0212839099999993 6.3247531199999996 Hf
atom 8.7581062799999998 2.7680686099999998 1.3465056799999999 Hf
atom 8.6513612500000008 2.8450931599999998 6.4508001799999999 Hf
atom 8.6472465900000000 7.9472371099999997 1.3893872000000000 Hf
atom 8.6676251400000002 7.9917702200000003 6.3591830099999997 Hf
atom 3.6703129699999999 5.0553254399999998 3.8236566000000001 Hf
atom 3.6290155300000002 5.0845558400000002 8.8171468999999991 Hf
atom 3.7468451200000001 10.3620242000000005 3.6944676500000000 La
atom 3.6616711099999999 10.2463626899999998 8.8387053200000008 Hf
atom 8.6642580000000002 5.0933802899999998 3.8715485599999999 Hf
atom 8.6559956200000006 5.0921813699999996 8.9211997499999995 Hf
atom 8.6814577300000000 10.2497112500000007 3.9264426600000002 Hf
atom 8.5812722200000007 10.2327043799999995 8.8628553399999994 Hf
atom 0.6596168700000000 1.7452613600000000 1.9509258899999999 O
atom 0.3173701600000000 1.9620660500000000 6.9979107999999997 O
atom 0.2965700100000000 7.0364424400000001 2.0086827500000002 O
atom 0.2972716400000000 7.1396078000000003 7.0670140200000002 O
atom 5.4419565900000002 1.6626055099999999 2.3185505100000001 O
atom 5.3465747600000002 1.9729661900000000 7.1095715799999999 O
atom 5.3943773899999998 7.1434203199999997 2.0145495000000002 O
atom 5.3291967700000002 7.1359745300000004 7.0649139700000001 O
atom 0.3037675900000000 0.7428220300000000 4.4900884500000000 O
atom 0.1442451400000000 0.8189650200000000 9.4036061400000008 O
atom 0.3193755000000000 5.9321958600000002 4.5281265599999996 O
atom 0.2685281000000000 5.9901286200000001 9.5866729700000004 O
atom 5.4958055699999999 0.8112423400000000 4.7244249900000002 O
atom 5.2674529000000003 0.8335889500000000 9.6571366300000001 O
atom 5.3702113300000001 5.9132841899999997 4.5468952900000001 O
atom 5.3334122099999997 5.9293094699999997 9.6084278199999993 O
atom 4.7468152699999999 4.5746642499999997 2.0932845499999999 O
atom 4.5950192699999999 4.5781185600000001 6.9796882699999996 O
atom 4.6573264700000001 9.6781238300000005 1.6689417000000000 O
atom 4.6470062399999996 9.7476001900000000 7.0439019600000004 O
atom 9.7597841899999995 4.4021037300000003 2.1334805100000001 O
atom 9.6708159800000004 4.5641857400000001 7.1398856899999998 O
atom 9.5687394200000000 9.6746849699999995 2.1160055700000000 O
atom 9.6491522500000002 9.7376034199999992 7.1021007599999999 O
atom 4.6607928699999999 3.3104026800000002 4.5220331199999997 O
atom 4.6667628700000003 3.4271535200000001 9.4101463800000005 O
atom 4.6941217599999998 8.4813791300000005 4.5858270000000001 O
atom 4.6131183499999997 8.4898627500000003 9.4540631699999995 O
atom 9.6175743300000001 3.3851303499999998 4.6545109499999997 O
atom 9.6497281699999995 3.3622989300000001 9.6343420799999997 O
atom 9.6564588600000008 8.5079234400000008 4.5663229200000002 O
atom 9.8227314499999991 8.7298453299999998 9.8510790700000008 O
atom 2.6852919300000000 1.2585383800000001 7.5143031100000002 O
atom 2.7121702100000000 6.4426777099999999 2.5182892899999998 O
atom 2.6562154300000000 6.4692443500000003 7.5588443200000004 O
atom 7.8709505499999999 1.2880808300000000 2.6109267500000000 O
atom 7.6883851700000001 1.2885901799999999 7.6682509999999997 O
atom 7.7185656900000001 6.4259408999999996 2.5825539000000002 O
atom 7.6905429800000000 6.4514192599999998 7.6176274099999999 O
atom 2.5425354900000001 1.5793332600000001 4.9845116000000003 O
atom 2.4714060199999999 1.2203476499999999 10.0296092399999992 O
atom 2.6903990000000002 6.6240907399999998 5.0420270499999997 O
atom 2.6641946700000001 6.5850735499999997 10.0784069699999996 O
atom 7.7993286800000003 1.4375741600000000 5.1722424699999996 O
atom 7.6625806499999998 1.4089960600000000 10.1806051300000000 O
atom 7.7064839000000003 6.6155730200000002 5.0993731100000002 O
atom 7.7073819300000004 6.6337438500000001 10.1410659299999999 O
atom 2.2888474799999998 4.0706112499999998 5.0673259399999999 O
atom 2.1989916699999998 4.0638661400000000 10.0136515700000004 O
atom 2.2027659000000002 9.1528107199999997 5.0675861099999997 O
atom 2.3155611700000001 9.1134075299999999 9.9928063999999992 O
atom 7.3246534800000003 4.0456053299999999 5.1343622199999999 O
atom 7.3223211199999998 4.0042707899999996 10.1970577500000008 O
atom 7.3136852499999998 9.2097418599999994 5.1379605300000000 O
atom 7.2940147800000004 9.1717633200000002 10.1357094300000004 O
atom 2.2616497400000002 3.8845807400000001 2.6037442099999999 O
atom 2.2832278700000002 3.8537754199999998 7.5472854199999997 O
atom 2.2093238500000001 9.0063855499999992 2.3706053200000001 O
atom 2.2705247399999999 9.0684544700000007 7.5559517600000001 O
atom 7.3778870999999997 3.8255235900000000 2.5875952199999999 O
atom 7.2833926299999998 3.8938426200000000 7.6551312100000004 O
atom 7.2596159299999998 9.0521586400000000 2.6065599599999998 O
atom 7.3169437899999998 9.0243604600000005 7.6350662199999997 O
