lattice_vector 10.1747722700000001 -0.0057326500000000 -0.1249515800000000 
lattice_vector 0.0112256200000000 5.2240440299999999 -0.0242292600000000 
lattice_vector -0.0132346800000000 -0.0107411000000000 10.1432138599999995 
atom 1.2359433900000001 0.0148661100000000 1.1315131800000000 La
atom 1.3352563700000000 0.1560721700000000 6.3618945800000004 Hf
atom 6.4791528800000000 0.1769067400000000 1.1850483999999999 Hf
atom 6.3966612700000001 0.1810023800000000 6.3030203100000000 Hf
atom 1.2381149800000000 2.5231715700000001 3.8063927199999998 La
atom 1.3908215500000001 2.4748024599999998 8.7851330500000007 Hf
atom 6.4317194700000000 2.4264647300000002 3.7468410300000001 Hf
atom 6.4601246200000002 2.4272253699999999 8.7973363399999993 Hf
atom 3.7981699099999999 2.7278389900000000 1.1938890900000001 Hf
atom 3.7270478200000001 2.7972081400000000 6.2749224100000003 Hf
atom 8.7114291500000007 2.7882351399999998 1.1777681499999999 Hf
atom 8.7447727600000000 2.7589377100000001 6.2717639800000002 Hf
atom 3.7570243200000002 5.0748399099999997 3.7315602700000001 Hf
atom 3.7793283400000002 5.0466189200000002 8.7861624599999999 Hf
atom 8.6701860400000008 5.0265844099999999 3.7905600000000002 Hf
atom 8.7976826399999997 5.0275653900000004 8.7027319500000004 Hf
atom 0.2796446400000000 2.0014228100000002 1.7402596400000001 O
atom 0.3980097400000000 1.9923437300000000 6.8457121900000004 O
atom 5.5177581499999997 1.9037482600000000 1.8916667899999999 O
atom 5.4313946299999998 1.9202395000000001 7.0122346400000000 O
atom 0.2943920600000000 0.4149891600000000 4.5653639000000004 O
atom 0.3181625200000000 0.8034259100000000 9.1803969199999997 O
atom 5.4556442100000000 0.6916310000000000 4.4646410699999999 O
atom 5.4617622700000004 0.7045561900000000 9.5269369699999995 O
atom 4.8557553100000002 4.4991448700000003 1.9114311900000001 O
atom 4.7483758299999996 4.5206884299999999 7.0052909999999997 O
atom 9.5978497600000008 4.4310193499999997 2.0592135200000001 O
atom 9.7775374799999994 4.4933937600000000 6.8897661200000000 O
atom 4.7510974399999997 3.2855331300000001 4.4688399800000003 O
atom 4.8501272000000002 3.3430429799999999 9.5305737300000004 O
atom 9.3811874599999996 3.1859258600000002 4.3921549100000004 O
atom 9.9239355099999997 3.4509244099999998 9.5457666000000003 O
atom 2.9541843700000001 1.2334193499999999 2.4586554100000000 O
atom 2.7590499799999999 1.2498341900000001 7.5465099000000002 O
atom 7.8266462600000004 1.2368269300000001 2.4613080200000002 O
atom 7.8128840700000000 1.2191865000000000 7.5031816999999998 O
atom 2.8346757600000001 1.3426325600000000 5.0857777500000001 O
atom 2.8057352500000001 1.3749990299999999 9.9862465900000004 O
atom 7.7476907800000001 1.3480541600000000 5.0266804900000004 O
atom 7.8533981400000004 1.3605171300000001 10.0172995399999998 O
atom 2.4855798600000001 4.1215269599999997 5.1001650200000004 O
atom 2.5286561900000000 3.8622285800000000 9.9561139200000000 O
atom 7.2671238599999999 3.9702959500000001 5.0364281200000001 O
atom 7.4661105599999997 3.9854888000000002 10.0403906799999998 O
atom 2.6060378100000001 3.8036798100000002 2.4648042299999999 O
atom 2.3422817800000000 3.8578208799999998 7.5196545400000003 O
atom 7.3057013000000000 3.8600477400000002 2.4602254800000001 O
atom 7.4207112600000000 3.8347854500000000 7.5352462999999998 O
