lattice_vector 9.8855173799999996 -0.0371617700000000 0.0378145200000000 
lattice_vector 0.0292182700000000 10.3703565900000001 -0.0318095600000000 
lattice_vector -0.0806682100000000 0.0300649800000000 9.9628087599999997 
atom 1.3030402200000000 0.4232467000000000 1.0032425700000001 Si
atom 1.2109411100000000 0.1826446800000000 6.2281082699999999 Hf
atom 1.3534220900000000 5.3183422000000000 1.2256698100000001 Hf
atom 1.2702276100000001 5.3815724400000002 6.2041346099999997 Hf
atom 6.3618077700000004 0.1323889800000000 1.4102499300000000 Hf
atom 6.2059908799999999 0.1626028400000000 6.2401801399999997 Hf
atom 6.2801601399999996 5.3184799299999996 1.2920856800000000 Hf
atom 6.2078520700000004 5.3798606199999996 6.2464049599999996 Hf
atom 1.2276430700000001 2.3721423800000001 3.6389135000000001 Hf
atom 1.2192406400000000 2.4988166700000001 8.6812470699999995 Hf
atom 1.3117022599999999 7.6048349399999999 3.7347242000000000 Hf
atom 1.2309882700000001 7.6422453900000002 8.6879547000000006 Hf
atom 6.2560011199999996 2.3981645199999999 3.8352281800000001 Hf
atom 6.1879543699999999 2.3995442100000002 8.7822278100000002 Hf
atom 6.2731983099999997 7.6494840100000001 3.7646956999999999 Hf
atom 6.1735651000000002 7.6296789900000004 8.7553221099999998 Hf
atom 3.6774094300000000 2.7053603000000002 1.2431004000000001 Hf
atom 3.5404315600000000 2.7479893299999998 6.2246367100000004 Hf
atom 3.6455330500000001 7.9219953299999997 1.2634317399999999 Hf
atom 3.5646699700000002 7.9912774100000004 6.2662316400000000 Hf
atom 8.5854233700000009 2.7221501400000001 1.2905342900000001 Hf
atom 8.4605607200000001 2.7584811800000000 6.2792137500000003 Hf
atom 8.6452604700000002 7.8513082499999998 1.2202450899999999 Hf
atom 8.4552454299999997 8.0200368999999991 6.2015005199999997 Hf
atom 3.6015916300000002 4.9889203000000002 3.7690380100000000 Hf
atom 3.5544442300000001 5.0541936700000001 8.7050622600000001 Hf
atom 3.5673404299999998 10.1368042599999999 3.7119596700000002 Hf
atom 3.5494835899999999 10.2713275199999998 8.7622235600000007 Hf
atom 8.5315960400000002 4.9854276799999999 3.7793490400000000 Hf
atom 8.4623423700000000 5.0235421699999998 8.7256575299999994 Hf
atom 9.0256599000000008 10.0634494199999995 3.2527972699999999 Si
atom 8.4900993699999994 10.1993332399999996 8.7684801199999995 Hf
atom 0.4693763600000000 1.8789717100000001 1.6861155000000001 O
atom 0.2669789000000000 1.9291599100000001 6.8922938399999998 O
atom 0.4070689800000000 7.0853549600000001 1.8915551900000001 O
atom 0.3068137700000000 7.1667229499999996 6.8405975300000001 O
atom 5.3533694399999998 1.8524884200000000 2.0167138200000001 O
atom 5.1718150100000004 1.8971447299999999 7.0356563999999997 O
atom 5.3611724699999996 7.0980418199999997 1.9238864700000000 O
atom 5.2160579100000000 7.0886027699999996 6.9722709299999996 O
atom 0.1228180600000000 0.6567637000000000 4.2300726800000001 O
atom 0.3002901000000000 0.6865593000000000 9.4645998599999999 O
atom 0.3136186700000000 5.9013873600000002 4.4078278500000003 O
atom 0.2670988700000000 5.8973395399999999 9.3881151299999992 O
atom 5.1865578399999999 0.6936397600000000 4.4804411999999996 O
atom 5.1786816299999998 0.7193036600000000 9.5844838899999996 O
atom 5.2938474299999996 5.8947023099999996 4.4186804100000003 O
atom 5.2250987699999998 5.8808647900000004 9.4452978900000009 O
atom 4.6118066600000001 4.4496375300000004 1.9623730500000001 O
atom 4.5019885000000004 4.5132109600000003 6.9035433299999998 O
atom 4.7772924300000001 9.5811158200000008 2.0568035700000000 O
atom 4.5230072100000003 9.7083957699999992 6.9627198200000002 O
atom 9.5797745899999995 4.4196460899999996 1.9951784500000000 O
atom 9.4550105000000002 4.5205275000000000 6.9369050699999999 O
atom 9.9276395700000002 9.7669720699999996 1.8313020400000000 O
atom 9.4561025300000008 9.7032450899999994 6.9339914699999996 O
atom 4.5763549399999999 3.2691925500000001 4.4834457800000003 O
atom 4.5005895200000001 3.2970091099999999 9.4334300500000001 O
atom 4.5512473199999999 8.4397850400000003 4.4990705799999997 O
atom 4.4469963300000002 8.4990816000000002 9.3888693399999994 O
atom 9.4851373999999993 3.2229472399999999 4.4400522400000000 O
atom 9.4136026000000008 3.2648016700000002 9.4013015099999997 O
atom 9.4605211300000001 8.6235466499999998 4.2168526999999996 O
atom 9.4404240999999995 8.4463502800000008 9.3921517699999999 O
atom 2.4929157100000001 0.9289119700000000 2.3340071099999999 O
atom 2.5651565199999999 1.2349955500000001 7.4574543499999999 O
atom 2.6773550500000001 6.2784294400000000 2.4687813300000001 O
atom 2.5902276199999998 6.4316930599999997 7.4705257100000004 O
atom 7.8916458100000000 1.0518326499999999 2.6669509400000000 O
atom 7.5376328199999998 1.2219709299999999 7.5796664399999996 O
atom 7.6477440799999998 6.3718287499999997 2.4899771099999999 O
atom 7.5507345399999997 6.4463129700000001 7.4787411800000001 O
atom 2.5251239499999998 1.3758628600000000 4.9064662900000000 O
atom 2.4815177500000001 1.4527495200000000 9.9731124500000004 O
atom 2.6603980800000002 6.5598705900000001 4.9812495700000001 O
atom 2.5777393700000002 6.6380024700000000 9.9439646699999997 O
atom 7.4182757600000002 1.4741332199999999 5.1567883999999999 O
atom 7.5418301599999999 1.3525740200000000 10.0688765900000003 O
atom 7.6147895999999999 6.5551678000000004 4.9761376100000003 O
atom 7.5503687399999997 6.5591352199999999 9.9741683099999996 O
atom 2.1986961100000002 3.9664545599999999 4.9466743199999996 O
atom 2.2074741400000000 4.0147760300000002 9.9320721499999998 O
atom 2.1836308799999999 9.1582547000000005 5.0192750999999998 O
atom 2.1556359800000000 9.4293823799999998 10.1881188700000003 O
atom 7.1769155400000004 4.0090084399999997 5.0116093900000003 O
atom 7.1393287200000000 3.9565526900000001 10.0049600000000005 O
atom 7.0469305400000000 9.0537862499999999 5.0645297400000002 O
atom 7.1308002400000001 9.1412116599999997 10.0378870300000003 O
atom 2.3219641000000002 3.6863543900000000 2.4663034499999998 O
atom 2.1987255700000001 3.8342979900000000 7.4461135699999996 O
atom 2.4886888200000001 8.7486971699999998 2.6295605700000002 O
atom 2.1777617000000000 9.0618763100000006 7.5354006399999998 O
atom 7.2263645700000003 3.7391422400000001 2.5263465699999998 O
atom 7.1019828399999998 3.8250204499999998 7.5070496100000002 O
atom 7.6216101700000003 9.0604155899999999 2.5853880899999999 O
atom 7.1643648999999998 9.0108326999999999 7.5411628400000001 O
