lattice_vector 10.1156980000000001 -0.0072280000000000 0.0020250000000000 
lattice_vector 0.0000380000000000 10.2415920000000007 0.0049450000000000 
lattice_vector -0.0025790000000000 -0.0101360000000000 10.1157020000000006 
atom 1.2473040000000000 -0.0027650000000000 1.2660460000000000 La
atom 1.2818480000000001 -0.0070460000000000 6.3315359999999998 Hf
atom 1.2957780000000001 5.1190379999999998 1.2757210000000001 Hf
atom 1.2712669999999999 5.1144829999999999 6.3458690000000004 Hf
atom 6.3067539999999997 -0.0070310000000000 1.2757390000000000 Hf
atom 6.3292039999999998 -0.0105570000000000 6.3559500000000000 Hf
atom 6.3316879999999998 5.1133910000000000 1.2526409999999999 Hf
atom 6.3219469999999998 5.1094320000000000 6.3086750000000000 La
atom 1.2836080000000001 2.5689080000000000 3.8317700000000001 Hf
atom 1.2779469999999999 2.5787369999999998 8.8454160000000002 Hf
atom 1.2628219999999999 7.6604140000000003 3.8191540000000002 Hf
atom 1.2676000000000001 7.6473069999999996 8.8330660000000005 Hf
atom 6.2742599999999999 2.4565540000000001 3.8526959999999999 Hf
atom 6.3323700000000001 2.4723229999999998 8.8477490000000003 Hf
atom 6.3689330000000002 7.7759169999999997 3.8506719999999999 Hf
atom 6.3044739999999999 7.7280519999999999 8.8424870000000002 Hf
atom 3.7787009999999999 2.6167980000000002 1.2506180000000000 Hf
atom 3.7690910000000000 2.5272749999999999 6.3302120000000004 Hf
atom 3.7866430000000002 7.6023930000000002 1.2812440000000000 Hf
atom 3.7844650000000000 7.7001350000000004 6.3422460000000003 Hf
atom 8.9028740000000006 2.6560609999999998 1.3149919999999999 Hf
atom 8.8717410000000001 2.5318160000000001 6.3250719999999996 Hf
atom 8.9070719999999994 7.5788799999999998 1.2232099999999999 Hf
atom 8.8862780000000008 7.6815720000000001 6.3473160000000002 Hf
atom 3.7636330000000000 -0.0455550000000000 3.8332760000000001 Hf
atom 3.7789039999999998 -0.0113300000000000 8.8471410000000006 Hf
atom 3.7530670000000002 5.1377340000000000 3.8332449999999998 Hf
atom 3.7861060000000002 5.1098410000000003 8.8428220000000000 Hf
atom 8.8995970000000000 0.0022690000000000 3.8611680000000002 Hf
atom 8.8848909999999997 0.0082590000000000 8.8151840000000004 Hf
atom 8.9168230000000008 5.1219400000000004 3.8472209999999998 Hf
atom 8.8862419999999993 5.0664850000000001 8.8279409999999991 Hf
atom -0.0719120000000000 1.5581550000000000 -0.0630630000000000 O
atom 0.0966920000000000 1.4897650000000000 5.1366069999999997 O
atom 0.1710420000000000 6.5713140000000001 0.0822990000000000 O
atom 0.0763130000000000 6.6106410000000002 5.1592650000000004 O
atom 5.1632059999999997 1.5472530000000000 0.1717310000000000 O
atom 5.1352900000000004 1.4415359999999999 5.2324460000000004 O
atom 5.2255539999999998 6.6675409999999999 0.1084510000000000 O
atom 4.9922009999999997 6.6700590000000002 4.9894059999999998 O
atom -0.1655660000000000 1.2384450000000000 2.6585610000000002 O
atom -0.0432690000000000 1.0511990000000000 7.5730670000000000 O
atom -0.0662930000000000 6.1872100000000003 2.5526800000000001 O
atom -0.0034970000000000 6.1638029999999997 7.6467400000000003 O
atom 5.0732799999999996 0.9555330000000000 2.6834910000000001 O
atom 5.0473290000000004 1.0437669999999999 7.7003950000000003 O
atom 4.9339510000000004 6.0463290000000001 2.4892859999999999 O
atom 4.9287390000000002 6.3388989999999996 7.7297330000000004 O
atom 0.1784540000000000 3.6667950000000000 2.4767210000000000 O
atom 0.0854600000000000 3.6065440000000000 7.5096499999999997 O
atom -0.0978400000000000 8.6927219999999998 2.6041940000000001 O
atom 0.1061210000000000 8.7351390000000002 7.5143060000000004 O
atom 5.2806110000000004 3.5068739999999998 2.3835099999999998 O
atom 5.0067779999999997 3.5541399999999999 7.6313779999999998 O
atom 5.1405200000000004 8.6389340000000008 2.4183710000000000 O
atom 5.1392629999999997 8.7707169999999994 7.4846320000000004 O
atom -0.0522120000000000 4.0649670000000002 -0.0041760000000000 O
atom 0.0107440000000000 4.0526229999999996 5.0335609999999997 O
atom -0.1829850000000000 9.0020950000000006 -0.1222310000000000 O
atom -0.0283670000000000 9.1735740000000003 5.0737480000000001 O
atom 4.9770500000000002 4.1071510000000000 -0.0097250000000000 O
atom 4.9309060000000002 3.8723489999999998 4.8763829999999997 O
atom 5.0454260000000000 9.2284129999999998 -0.0753780000000000 O
atom 5.0501870000000002 9.1766150000000000 5.0112150000000000 O
atom 2.5891440000000001 1.5403549999999999 2.5874450000000002 O
atom 2.4349850000000002 1.5020620000000000 7.5045950000000001 O
atom 2.4108170000000002 6.5763109999999996 2.4730850000000002 O
atom 2.4432420000000001 6.6229630000000004 7.4987000000000004 O
atom 7.4574319999999998 1.6401760000000001 2.3610169999999999 O
atom 7.5242399999999998 1.4475380000000000 7.4711280000000002 O
atom 7.4152199999999997 6.7608439999999996 2.4042560000000002 O
atom 7.6418200000000001 6.6524749999999999 7.6516979999999997 O
atom 2.6689210000000001 1.2284640000000000 -0.1259580000000000 O
atom 2.5840869999999998 1.0448020000000000 5.0572739999999996 O
atom 2.6391610000000001 6.1742039999999996 -0.0053020000000000 O
atom 2.5129480000000002 6.1734629999999999 5.0206720000000002 O
atom 7.5440040000000002 0.9282720000000000 -0.1206700000000000 O
atom 7.6056039999999996 1.0581090000000000 4.9936170000000004 O
atom 7.7374349999999996 6.0791160000000000 0.0190940000000000 O
atom 7.7147230000000002 6.3511670000000002 4.8965150000000000 O
atom 2.4214950000000002 3.6599170000000001 0.0856270000000000 O
atom 2.4518659999999999 3.6158260000000002 5.1680830000000002 O
atom 2.5707179999999998 8.6842880000000005 -0.0437990000000000 O
atom 2.4482420000000000 8.7287219999999994 5.1504430000000001 O
atom 7.4717770000000003 3.5206979999999999 0.0856010000000000 O
atom 7.6574190000000000 3.5640909999999999 4.9638299999999997 O
atom 7.4389599999999998 8.6299600000000005 0.2288230000000000 O
atom 7.5303149999999999 8.7792250000000003 5.2441170000000001 O
atom 2.6541920000000001 4.0489790000000001 2.5513150000000002 O
atom 2.5304310000000001 4.0660829999999999 7.6575730000000002 O
atom 2.6449349999999998 9.0057170000000006 2.6685699999999999 O
atom 2.5946389999999999 9.1869320000000005 7.5957990000000004 O
atom 7.7849959999999996 4.2261709999999999 2.4536799999999999 O
atom 7.7195369999999999 3.8762639999999999 7.7065590000000004 O
atom 7.5079079999999996 9.3459710000000005 2.7339240000000000 O
atom 7.6046069999999997 9.1613520000000008 7.7197810000000002 O
