lattice_vector 10.0975733699999992 0.0381130400000000 0.8486452100000000 
lattice_vector 0.0597403700000000 10.2586481700000007 -0.0108072300000000 
lattice_vector 0.8281412300000000 -0.0296719900000000 10.4422963499999994 
atom 1.3480347200000000 0.1216712700000000 1.8371515100000000 Si
atom 1.9087649099999999 0.1945904100000000 6.8546820000000004 Hf
atom 1.7881365400000000 5.4500821300000002 1.6012647600000001 Hf
atom 1.9597520900000001 5.3032952900000003 6.8294198100000001 Hf
atom 6.5721216599999996 0.2496768000000000 2.0875687500000000 Hf
atom 6.9512243900000001 0.2226742800000000 7.2896200499999999 Hf
atom 6.5733597499999998 5.3670720699999999 2.0239990600000000 Hf
atom 6.9783034400000004 5.3512186000000002 7.3037585099999998 Hf
atom 1.7280660699999999 2.2895003599999999 4.1566872500000001 Hf
atom 2.1943338400000001 2.2924086500000000 9.4732162800000008 Hf
atom 1.8113403800000001 7.4977003900000003 4.2581620600000001 Hf
atom 2.1309414000000002 7.4299018700000001 9.4407135100000001 Hf
atom 6.8174612799999998 2.3683678200000000 4.6701809299999999 Hf
atom 7.2028602199999998 2.3715679900000000 9.8953437900000001 Hf
atom 6.7490611300000003 7.5133228499999998 4.6732241999999999 Hf
atom 7.2080290400000004 7.4814183600000002 9.9078154900000008 Hf
atom 3.7342304099999999 2.7530806399999999 1.3506916800000000 Hf
atom 4.1449705899999998 2.7679891200000002 6.5805796799999996 Hf
atom 3.7587167500000001 8.0576478300000005 1.3833942100000001 Hf
atom 4.1667023500000004 7.9164773799999999 6.6512862300000002 Hf
atom 8.8269399400000008 2.6620693800000002 1.8059249100000001 Hf
atom 9.2112143100000008 2.7459733200000001 7.0422669100000004 Hf
atom 8.8432717800000002 7.9744335199999998 1.8173223700000001 Hf
atom 9.2026482299999994 7.8993244799999998 7.0660204699999998 Hf
atom 3.9883777800000000 4.9066165599999998 3.9962494799999999 Hf
atom 4.3822791700000003 4.9084654499999996 9.1992192700000004 Hf
atom 3.9734843400000002 10.0606140100000001 3.9647502000000001 Hf
atom 4.3971247499999997 10.1140780499999998 9.2414217599999997 Hf
atom 9.0866916999999994 5.0400950299999998 4.4616461599999999 La
atom 9.4381767399999994 4.8957156099999999 9.6768134799999999 Hf
atom 9.0391459100000002 10.0227071700000003 4.4585805100000000 Hf
atom 9.4600523800000005 10.0431999300000001 9.6297520199999997 Hf
atom 0.5887233200000000 1.5029793400000000 0.9393003700000000 O
atom 0.8439019400000000 1.6288801900000001 6.0205711199999996 O
atom 0.4341886600000000 6.7475395400000000 0.8373390500000000 O
atom 0.8163927000000000 6.7528499200000001 6.0193794599999997 O
atom 5.4961814699999998 1.7397769100000000 1.2656678100000001 O
atom 5.8603613799999996 1.6919865500000000 6.4597617300000003 O
atom 5.4909273000000001 6.9017388400000002 1.2506147599999999 O
atom 5.8143054500000000 6.8142386999999998 6.4721354099999999 O
atom 0.6858339700000000 0.6819500900000000 3.3885959099999998 O
atom 1.0075799800000000 0.8661002600000000 8.6674127199999997 O
atom 0.9778846600000000 5.9220236699999997 3.3903244199999998 O
atom 1.0574710500000000 5.9655770800000001 8.6472466899999993 O
atom 5.6436081199999997 0.9033740800000000 3.8588289100000002 O
atom 6.1106880099999996 0.8634420300000000 9.0943929400000005 O
atom 5.7440727899999997 5.9293538300000002 3.9002740100000000 O
atom 6.0811767600000000 6.0262340200000004 9.0778563200000004 O
atom 4.8472839800000003 4.3068956500000004 2.1608679099999999 O
atom 5.2467849299999996 4.2622704899999997 7.4134572299999997 O
atom 4.9294542300000002 9.4233525999999994 2.2190175299999999 O
atom 5.2817407999999997 9.4148896299999993 7.4122731000000002 O
atom 10.3422811699999997 4.2271292300000001 7.8563641100000003 O
atom 10.0610022899999993 9.4201498699999995 2.6209754699999999 O
atom 10.3561462500000001 9.3853472100000008 7.8506375300000002 O
atom 5.0815675100000002 3.4252309400000001 4.7931482599999997 O
atom 5.5502058200000004 3.5006924599999998 10.0381162100000001 O
atom 5.0386375299999999 8.5657630999999999 4.7923996100000004 O
atom 5.4574292900000003 8.5911618099999991 10.0284943099999992 O
atom 10.0736362300000000 3.1798130599999999 5.1788139199999996 O
atom 10.6258061500000007 3.4821981499999999 10.6363707600000001 O
atom 10.0963065800000003 8.4705352600000001 5.2136145999999997 O
atom 10.5538581899999997 8.5608636800000006 10.4562175300000000 O
atom 2.8081382000000001 1.1765751700000000 2.4992453200000000 O
atom 3.3662704699999999 1.2845724999999999 7.8682938900000003 O
atom 3.1944410400000001 6.5355059300000002 2.7067523900000001 O
atom 3.3911173899999998 6.4269158099999997 7.9456573300000004 O
atom 8.0758834499999992 1.2714618600000001 3.1894511500000000 O
atom 8.4595246100000008 1.3192032700000000 8.3922773500000005 O
atom 7.9476561600000002 6.5903268600000002 3.0794746700000002 O
atom 8.4824764300000002 6.4350640300000004 8.4236020200000006 O
atom 3.2034596500000001 1.2517374400000001 5.2577712400000003 O
atom 3.8290995400000001 1.4987316700000000 10.3210827300000005 O
atom 3.2256583800000000 6.3614763999999999 5.3525216400000000 O
atom 3.6708612700000001 6.4933658699999999 10.5365347899999993 O
atom 8.2410991300000003 1.2191190599999999 5.7873987299999996 O
atom 8.6987084200000009 1.2506402999999999 11.0214389700000002 O
atom 8.1186049100000002 6.4968469799999999 5.9032246400000004 O
atom 8.6927158900000006 6.3759863399999999 10.9782964300000003 O
atom 2.3171742700000002 3.9796899500000000 0.2689664800000000 O
atom 2.6822622900000002 3.8600525100000000 5.4700684600000002 O
atom 2.2793270400000001 9.4370475599999999 0.5090029900000000 O
atom 2.7152868699999999 9.0133449700000003 5.5301780999999997 O
atom 7.3921899900000003 3.8893655699999998 0.7029242200000000 O
atom 7.6734144400000002 3.8210815800000000 6.0325796699999996 O
atom 7.3719210700000000 9.0626716599999995 0.7199176500000000 O
atom 7.7539345900000001 9.0336921100000005 5.9449671400000001 O
atom 2.5379961099999999 3.7636838400000001 2.8667081300000001 O
atom 2.9067591799999999 3.7703020000000000 8.1166549799999999 O
atom 2.4406544499999998 8.9824470900000009 2.8969965000000002 O
atom 2.9310234700000000 8.9165541800000003 8.2042315499999994 O
atom 7.5964689800000000 3.7137475400000000 3.1851668300000000 O
atom 7.9768544600000002 3.8192390800000000 8.5772624700000009 O
atom 7.6149430000000002 8.9927292899999998 3.3383799399999998 O
atom 7.9748955700000002 8.9366251800000001 8.5595124400000007 O
