lattice_vector 9.8670750500000004 -0.0259109000000000 0.0582185000000000 
lattice_vector 0.0230959500000000 10.3896636000000004 -0.0113648500000000 
lattice_vector 0.0908631100000000 -0.0116439000000000 9.9644209600000000 
atom 1.1838644700000001 0.3610159200000000 1.0888140900000001 Si
atom 1.3898611100000000 0.2291922800000000 6.3018770599999998 Hf
atom 1.3360215099999999 5.2894109000000000 1.2496634300000000 Hf
atom 1.3998958200000000 5.4114565800000003 6.1620885699999999 Hf
atom 6.2440292399999997 0.1229870600000000 1.3116707700000001 Hf
atom 6.2928323400000004 0.0869086900000000 6.2169348500000003 Hf
atom 6.2892490499999996 5.3825941300000002 1.2632395199999999 Hf
atom 6.3269627000000002 5.3776198199999996 6.2639963300000003 Hf
atom 1.3453114399999999 2.3614889400000001 3.6468926000000002 Hf
atom 1.3982748800000000 2.4739812099999998 8.7227238899999993 Hf
atom 1.2776152000000001 7.3787298999999997 3.6362840599999999 Si
atom 1.3941127900000001 7.6009215699999997 8.7569529799999994 Hf
atom 6.3229550799999998 2.3623250699999998 3.8071067699999999 Hf
atom 6.3315377000000002 2.3868377000000001 8.7057050900000004 Hf
atom 6.3339985199999997 7.6246340600000000 3.7556952699999999 Hf
atom 6.2799226499999996 7.6607120300000000 8.7378826699999994 Hf
atom 3.6977130599999999 2.7065111000000002 1.1670779300000000 Hf
atom 3.6820477999999999 2.7787527600000002 6.2229305200000002 Hf
atom 3.5176633599999998 7.9224251299999997 1.4139040400000000 Hf
atom 3.6548661500000001 8.0169153600000005 6.2680630400000004 Hf
atom 8.5224304499999999 2.7298382299999999 1.2478899299999999 Hf
atom 8.6004286499999996 2.7366265300000001 6.2480203599999999 Hf
atom 8.6836368099999994 7.9289672800000002 1.2507046500000001 Hf
atom 8.6964997200000003 7.9261483699999999 6.2213911000000000 Hf
atom 3.7238729899999998 4.9855908099999997 3.6947968599999998 Hf
atom 3.7029980899999999 5.0584551700000002 8.7014167199999992 Hf
atom 3.6015084300000000 10.1826323300000006 3.7486938599999999 Hf
atom 3.6389656300000000 10.2016080900000006 8.8779222099999995 Hf
atom 8.5811132600000004 4.9839308600000001 3.7607928799999999 Hf
atom 8.6089951700000000 5.0369802799999999 8.7245434599999996 Hf
atom 8.7795388600000006 10.1658551500000005 3.6867319200000002 Hf
atom 8.6367920900000001 10.1984714099999998 8.7321396000000000 Hf
atom 0.3708799500000000 1.8359286500000001 1.7863183700000000 O
atom 0.3810435700000000 1.9417787799999999 6.9908971500000003 O
atom 0.4326718900000000 7.1079795700000004 2.0636029800000002 O
atom 0.4149137200000000 7.0790086099999998 7.0055792500000003 O
atom 5.2333436799999999 1.8238163400000000 2.0685200799999999 O
atom 5.3645282999999999 1.8823039500000001 6.9115346899999999 O
atom 5.2499044799999997 7.0438319199999997 2.0464115800000000 O
atom 5.3358881900000004 7.0809492900000004 6.9743419199999996 O
atom 0.3930696100000000 0.7091513100000000 4.5193987199999999 O
atom 0.4288677100000000 0.6585545300000000 9.5029494000000003 O
atom 0.4345809700000000 5.9227689100000003 4.2923947299999998 O
atom 0.3743755300000000 5.9051294800000003 9.5137085300000006 O
atom 5.3138534599999998 0.6550602700000000 4.4768522400000004 O
atom 5.2590070000000004 0.7576972600000000 9.5792693700000004 O
atom 5.3092381900000003 5.9074035699999996 4.4923635400000004 O
atom 5.3761505200000004 5.8808226000000001 9.4366593499999993 O
atom 4.6228997800000000 4.4529095600000002 1.9009188100000001 O
atom 4.6574902399999996 4.4938136300000000 6.9334318200000000 O
atom 4.6277497600000004 9.5908089499999996 2.0282709600000000 O
atom 4.7246477599999999 9.6675435099999998 7.1381587599999996 O
atom 9.5518391299999994 4.4060166900000004 1.9940934200000000 O
atom 9.5663272999999993 4.5269153199999996 6.8931386400000001 O
atom 9.8082237400000007 9.7473988899999995 1.8714167799999999 O
atom 9.6279793100000006 9.6616039499999999 6.9629174699999998 O
atom 4.6801580600000001 3.2941443800000001 4.4514491500000002 O
atom 4.6458072699999997 3.2801485700000002 9.3692370199999999 O
atom 4.7870183199999996 8.5326593400000004 4.5975496800000002 O
atom 4.5878810300000001 8.4784556799999997 9.5336307799999993 O
atom 9.5861087800000000 3.2560666500000002 4.4471147300000000 O
atom 9.5754477799999993 3.2835433500000000 9.4222534000000007 O
atom 9.8954064800000001 8.3616907699999992 4.4054893699999997 O
atom 9.5984089299999997 8.4647670799999997 9.4247811899999991 O
atom 2.3560456300000001 0.8053079700000000 2.4154278200000001 O
atom 2.7686616200000000 1.2474935800000000 7.5179720500000000 O
atom 2.6068596700000000 6.2328740199999997 2.5258213600000001 O
atom 2.7482305100000000 6.4163421500000002 7.4429549799999997 O
atom 7.6476790499999998 1.1510113700000000 2.5059684000000000 O
atom 7.6388971300000001 1.1597641000000001 7.4832974900000000 O
atom 7.6640173300000001 6.3664212999999998 2.4865917899999999 O
atom 7.6741367599999997 6.4119371599999999 7.4833698399999999 O
atom 2.7239000400000002 1.5003775600000000 4.8986694200000001 O
atom 2.5976445899999998 1.3828993900000000 10.0509331900000003 O
atom 2.4829969500000000 6.8446786800000003 4.9244044899999997 O
atom 2.7405205399999999 6.5934877399999996 9.9900823800000005 O
atom 7.6852894999999997 1.3453059999999999 4.9956034999999996 O
atom 7.6481675800000000 1.3541291499999999 9.9729977900000009 O
atom 7.6780609699999998 6.5616129599999997 4.9821875999999996 O
atom 7.6755690400000001 6.6098955999999998 9.9779828399999992 O
atom 2.3577948300000000 4.0598039899999998 4.9260457999999998 O
atom 2.3664332199999998 3.9952611600000001 9.9188157100000005 O
atom 2.5742319000000000 9.4254328399999991 5.2619938599999996 O
atom 2.2556752599999998 9.3499675900000003 10.3315010600000008 O
atom 7.2555289399999996 3.9594431999999999 5.0074721000000002 O
atom 7.2751905399999997 3.9628818799999999 9.9711651099999994 O
atom 7.4541929900000001 9.1561579500000008 4.9351538300000000 O
atom 7.2732948200000003 9.1837735400000007 9.9475157000000003 O
atom 2.3625897999999999 3.6418424200000001 2.4231354800000000 O
atom 2.3099893100000002 3.8440103400000001 7.4342401799999998 O
atom 2.3645627199999999 8.5647505099999997 2.9735497000000000 O
atom 2.3271283399999998 9.0352359300000007 7.6610918400000001 O
atom 7.2077683600000002 3.7732090299999999 2.5082398700000001 O
atom 7.2717385300000004 3.7953099699999999 7.4909222700000004 O
atom 7.3698523500000004 8.9556679500000005 2.4574247300000001 O
atom 7.3229602299999996 8.9544898100000001 7.4460421099999996 O
