lattice_vector 10.1342054099999999 -0.0129119300000000 0.7320572300000000 
lattice_vector -0.0260761800000000 10.1980020400000004 -0.0007343400000000 
lattice_vector 0.8600098600000000 -0.0718087900000000 10.5075849600000009 
atom 1.3058319700000001 0.2208659200000000 1.2583174699999999 Si
atom 1.8893462299999999 0.1429320300000000 6.9107549300000004 Hf
atom 1.5330852200000000 5.2597101200000003 1.6181585800000000 Hf
atom 1.9064945200000001 5.2437982900000000 6.9071113300000002 Hf
atom 6.6830386500000003 0.0604992900000000 1.7960263500000000 Hf
atom 6.9061653700000001 0.1788610500000000 7.2026238600000001 Hf
atom 6.6319097500000002 5.3697590799999997 1.9876528899999999 Hf
atom 6.9353567600000003 5.2343014200000004 7.2060126200000001 Hf
atom 1.8204454600000000 2.3358916399999998 4.2664998900000004 Hf
atom 2.1521682800000002 2.2863932999999999 9.5460822099999998 Hf
atom 1.6991922699999999 7.3255763700000003 4.3005516400000001 Hf
atom 2.1273387700000002 7.3470848100000001 9.5146452999999998 Hf
atom 6.4045776500000002 2.3904888000000000 4.3654955600000003 La
atom 7.2106531299999999 2.2784878700000002 9.8390082000000003 Hf
atom 6.8340458699999997 7.5089927999999997 4.5982786899999999 Hf
atom 7.1811009200000004 7.3561564600000002 9.8526406299999998 Hf
atom 3.8590536599999998 2.6833313500000000 1.4956567700000001 Hf
atom 4.1000138899999996 2.7309510100000001 6.7266858200000001 Hf
atom 3.7355820600000000 7.9011255499999997 1.4464148800000001 Hf
atom 4.1611724499999996 7.8069669299999997 6.6592080700000000 Hf
atom 8.7841425999999991 2.7594154799999999 1.6571238699999999 Hf
atom 9.1600859799999999 2.6446446600000000 6.9053101400000001 Hf
atom 8.8894219999999997 7.8884705400000001 1.7267478800000000 Hf
atom 9.1686760399999994 7.7564936800000002 6.9547571799999997 Hf
atom 3.9811955900000000 4.9462221599999996 3.9843937800000000 Hf
atom 4.3970835700000004 4.8066936199999999 9.3285113000000006 Hf
atom 3.7837578000000001 9.9104892600000003 4.0486636100000002 Hf
atom 4.3462238700000002 9.9419673700000004 9.3100894200000006 Hf
atom 9.0431022700000003 4.8246166800000001 4.3360312399999996 Hf
atom 9.4220345099999996 4.7887053499999999 9.5621297399999996 Hf
atom 9.3183150900000005 10.2483814100000004 4.4520664500000002 La
atom 9.4243740299999992 9.9022519700000000 9.5149584699999998 Hf
atom 0.2932441900000000 1.4402340000000000 0.6558787700000001 O
atom 0.5872238700000000 1.2863324000000000 5.6920486500000003 O
atom 0.3874656700000000 6.7275386700000004 0.8134927500000000 O
atom 0.7626492300000000 6.6411845200000004 6.0953255200000003 O
atom 5.5099685699999998 1.5597285500000000 1.1206782200000001 O
atom 5.5164622300000001 1.3773770999999999 6.3195057300000004 O
atom 5.4177939400000001 6.7582271799999996 1.1478771900000000 O
atom 5.8243735699999997 6.6771526000000003 6.3562560200000000 O
atom 1.5628881800000001 0.8765729900000000 2.8087631000000002 O
atom 0.9267129600000000 0.9668428800000000 8.5279984199999994 O
atom 0.6643792100000000 5.8260673599999997 3.4571962200000002 O
atom 0.9982611800000000 5.9173449800000002 8.6908941199999994 O
atom 5.9846973300000004 0.9389159800000000 8.9962299699999999 O
atom 5.6426498399999998 6.1278726600000004 3.7129596100000000 O
atom 6.0218938299999998 5.9911143200000003 9.0067891800000002 O
atom 5.0677525699999997 4.0668952300000001 2.4099534999999999 O
atom 5.3749191900000000 3.9700521000000002 7.7003354000000002 O
atom 4.9203247100000000 9.3582536800000007 2.3546933700000001 O
atom 5.2713203999999996 9.1483763400000004 7.6135254699999999 O
atom 10.0309701300000000 4.0766805300000000 2.5320990800000001 O
atom 10.3740526000000006 4.0457905900000002 7.7957068700000001 O
atom 10.1396460800000003 9.3603323500000002 2.3869472100000002 O
atom 10.3341022999999996 9.1786824700000000 7.7901833900000002 O
atom 5.0221688499999999 3.8608115000000001 5.2536231899999999 O
atom 5.5758876500000003 3.4617603300000002 10.2916077099999992 O
atom 5.1353748299999999 8.7217033399999995 4.9298166500000002 O
atom 5.5116753799999998 8.5785293899999999 10.2162251099999999 O
atom 10.1070633700000005 3.1837635999999998 5.0381455199999996 O
atom 10.5985264099999998 3.3742891199999998 10.4359933799999993 O
atom 10.1401282500000001 8.3195907099999999 5.1791734199999997 O
atom 10.5962308000000007 8.4810058000000001 10.4052967299999999 O
atom 4.1205272600000002 1.6027780000000000 3.3055123300000000 O
atom 3.3553025900000000 1.2548965200000000 8.1133934500000002 O
atom 2.9996659100000000 6.3277813099999998 2.6858206199999999 O
atom 3.3902889699999998 6.3481186300000001 7.9938338000000000 O
atom 7.9070356100000003 1.2824515999999999 2.8614509600000000 O
atom 8.4104902700000004 1.2101255500000001 8.2848687800000000 O
atom 8.1119479699999992 6.4205310999999998 3.0626240199999999 O
atom 8.4175885699999995 6.2917783299999996 8.2968553099999998 O
atom 3.0416085700000002 1.1649087100000000 5.4963291099999996 O
atom 3.5279498299999998 1.1498796600000001 10.8350370999999992 O
atom 3.1760527999999999 6.2731707600000002 5.3813151499999998 O
atom 3.6328538799999999 6.3415973000000001 10.6180879299999997 O
atom 7.9802176100000004 1.3088103900000001 5.7965506600000003 O
atom 8.6924384299999993 1.1587025799999999 10.8221323999999992 O
atom 8.2229096100000003 6.3241331499999998 5.6453337699999997 O
atom 8.6848578500000002 6.2861474199999998 10.9263545400000002 O
atom 2.3052955499999999 3.8369533200000001 0.3041012700000000 O
atom 2.5785298700000001 3.7475523100000001 5.5731373099999999 O
atom 2.1744056899999999 9.1200345600000006 0.4264065400000000 O
atom 2.6543443000000000 8.8580581200000008 5.6099876300000000 O
atom 7.3500631399999996 3.8674305800000002 0.5947912400000001 O
atom 7.8549892899999998 3.9066206200000000 5.8859981599999998 O
atom 7.3970480099999998 8.9160982700000009 0.5501478400000001 O
atom 7.7168936300000004 8.9064334200000008 5.9553218899999996 O
atom 2.5631949500000002 3.7340463800000001 2.8978993499999999 O
atom 2.9031751200000002 3.7592585999999999 8.2188304900000002 O
atom 2.5927167500000001 8.6980837700000002 3.0311779300000001 O
atom 2.8703058900000000 8.8506716300000008 8.2367449199999996 O
atom 7.6771058700000001 3.8886503900000000 3.1291803400000000 O
atom 7.9676284400000004 3.7032122900000002 8.4931430999999993 O
atom 7.5725956400000003 8.8788706899999994 3.1607941799999999 O
atom 7.9256831800000000 8.8035831000000009 8.5177627400000002 O
