lattice_vector 10.0548369999999991 -0.0022860000000000 0.0191150000000000 
lattice_vector 0.0017320000000000 10.4037570000000006 0.0123520000000000 
lattice_vector -0.0251620000000000 -0.0122600000000000 10.1051169999999999 
atom 1.2298549999999999 0.0805370000000000 1.2103029999999999 La
atom 1.3369629999999999 0.1717990000000000 6.3166219999999997 Hf
atom 1.2956399999999999 5.3455149999999998 1.2314259999999999 Hf
atom 1.3424710000000000 5.3644530000000001 6.3178039999999998 Hf
atom 6.3630860000000000 0.1600420000000000 1.2864329999999999 Hf
atom 6.3580940000000004 0.1675950000000000 6.3475219999999997 Hf
atom 6.3865550000000004 5.3694639999999998 1.2538579999999999 Hf
atom 6.4066739999999998 5.3602080000000001 6.4106779999999999 Hf
atom 1.3606590000000001 2.4447290000000002 3.8212809999999999 Hf
atom 1.3307640000000001 2.4625270000000001 8.7814569999999996 Hf
atom 1.2997780000000001 7.6552780000000000 3.8075709999999998 Hf
atom 1.3588340000000001 7.6126079999999998 8.8512909999999998 Hf
atom 6.3892350000000002 2.3994920000000000 3.8087949999999999 Hf
atom 6.3641540000000001 2.4022559999999999 8.8515590000000000 Hf
atom 6.3977149999999998 7.6409269999999996 3.8794680000000001 Hf
atom 6.3688130000000003 7.6220210000000002 8.8618869999999994 Hf
atom 3.6508460000000000 2.7254839999999998 1.2268120000000000 Hf
atom 3.6611240000000000 2.7484190000000002 6.3343939999999996 Hf
atom 3.6914300000000000 7.9361059999999997 1.2771939999999999 Hf
atom 3.6623649999999999 7.9789510000000003 6.3430640000000000 Hf
atom 8.6508529999999997 2.7912560000000002 1.3029999999999999 Hf
atom 8.7107349999999997 2.7816679999999998 6.3190200000000001 Hf
atom 8.6316039999999994 7.9630450000000002 1.3233870000000001 Hf
atom 8.7222019999999993 7.9628170000000003 6.3808600000000002 Hf
atom 3.7695970000000001 5.1199190000000003 3.7386520000000001 La
atom 3.6767660000000002 5.0119939999999996 8.8572749999999996 Hf
atom 3.6662629999999998 10.2359910000000003 3.7988070000000000 Hf
atom 3.6957849999999999 10.2292860000000001 8.8364460000000005 Hf
atom 8.6894810000000007 5.0400280000000004 3.8301080000000001 Hf
atom 8.7005890000000008 5.0059719999999999 8.8800910000000002 Hf
atom 8.6654289999999996 10.2324889999999993 3.8949340000000001 Hf
atom 8.6670449999999999 10.2202859999999998 8.8458760000000005 Hf
atom 0.2374920000000000 2.0328119999999998 2.0803199999999999 O
atom 0.3907660000000000 1.9673160000000001 6.9095430000000002 O
atom 0.2645870000000000 7.1038360000000003 1.9995000000000001 O
atom 0.3337330000000000 7.0982909999999997 7.0750000000000002 O
atom 5.3830380000000000 1.8840920000000001 1.9763790000000001 O
atom 5.3680589999999997 1.8707160000000000 7.0568369999999998 O
atom 5.2758789999999998 6.9834410000000000 2.1337280000000001 O
atom 5.3671709999999999 7.1078830000000002 7.0801499999999997 O
atom 0.3311980000000000 0.6924670000000001 4.4846069999999996 O
atom 0.2803260000000000 0.7856100000000000 9.2625569999999993 O
atom 0.3449650000000000 5.8732990000000003 4.5013009999999998 O
atom 0.3140250000000000 5.9228440000000004 9.5513239999999993 O
atom 5.3996480000000000 0.6326540000000000 4.5108150000000000 O
atom 5.3863519999999996 0.6670180000000000 9.5586439999999993 O
atom 5.6014309999999998 5.9351060000000002 4.6562939999999999 O
atom 5.3784200000000002 5.8936089999999997 9.5552069999999993 O
atom 4.7062830000000000 4.4094850000000001 1.6910240000000001 O
atom 4.6807619999999996 4.5037960000000004 7.0138990000000003 O
atom 4.6651730000000002 9.6943289999999998 1.9724090000000001 O
atom 4.6756110000000000 9.6976410000000008 7.0570940000000002 O
atom 9.6168180000000003 4.5636840000000003 1.9725170000000001 O
atom 9.7042310000000001 4.5069670000000004 7.0835749999999997 O
atom 9.4760969999999993 9.6158129999999993 2.1658179999999998 O
atom 9.6785119999999996 9.7116579999999999 7.0444459999999998 O
atom 4.7327830000000004 3.1433190000000000 4.5984499999999997 O
atom 4.6416620000000002 3.2424830000000000 9.4489940000000008 O
atom 4.6692619999999998 8.4676109999999998 4.5502549999999999 O
atom 4.7411339999999997 8.5017899999999997 9.6060780000000001 O
atom 9.6668869999999991 3.3098480000000001 4.5100080000000000 O
atom 9.7039519999999992 3.3162270000000000 9.6186209999999992 O
atom 9.6936780000000002 8.5067439999999994 4.5969340000000001 O
atom 9.7766620000000000 8.5796589999999995 9.6969809999999992 O
atom 2.7955489999999998 1.3038369999999999 2.5819779999999999 O
atom 2.7065310000000000 1.2059110000000000 7.5448630000000003 O
atom 2.5381119999999999 6.4846349999999999 2.4119929999999998 O
atom 2.7134040000000001 6.4083589999999999 7.5808239999999998 O
atom 7.7146489999999996 1.2023040000000000 2.5556510000000001 O
atom 7.7348090000000003 1.2145470000000000 7.5800749999999999 O
atom 7.6990420000000004 6.4420760000000001 2.5629249999999999 O
atom 7.7515380000000000 6.4180219999999997 7.6246409999999996 O
atom 2.7163949999999999 1.3508849999999999 5.0615079999999999 O
atom 2.7346059999999999 1.4084330000000000 9.9853470000000009 O
atom 2.5721650000000000 6.7047590000000001 5.1231949999999999 O
atom 2.7080419999999998 6.5305689999999998 10.0766729999999995 O
atom 7.7167469999999998 1.3829870000000000 5.0869850000000003 O
atom 7.7346630000000003 1.3605600000000000 10.1233029999999999 O
atom 7.8438540000000003 6.5878319999999997 5.0973780000000000 O
atom 7.7146309999999998 6.5605599999999997 10.1227450000000001 O
atom 2.2192810000000001 3.8910339999999999 5.1108500000000001 O
atom 2.2858600000000000 3.9734050000000001 10.0642720000000008 O
atom 2.3061590000000001 9.2314299999999996 5.0544570000000002 O
atom 2.4360219999999999 9.0555160000000008 10.0088910000000002 O
atom 7.3517820000000000 3.9841660000000001 5.0909050000000002 O
atom 7.3043969999999998 3.9630960000000002 10.1056380000000008 O
atom 7.3257539999999999 9.1653369999999992 5.1100529999999997 O
atom 7.3385790000000002 9.1581880000000009 10.1312879999999996 O
atom 2.2129780000000001 3.7792260000000000 2.4239199999999999 O
atom 2.3300519999999998 3.8437570000000001 7.5715120000000002 O
atom 2.4262600000000001 8.9257530000000003 2.6050970000000002 O
atom 2.2952349999999999 9.0195550000000004 7.5555789999999998 O
atom 7.2914289999999999 3.8332150000000000 2.5536940000000001 O
atom 7.3602600000000002 3.7950110000000001 7.6095949999999997 O
atom 7.2038880000000001 9.0129940000000008 2.5542980000000002 O
atom 7.3342470000000004 9.0142039999999994 7.6071929999999996 O
