lattice_vector 10.0361969400000000 0.0592088100000000 0.8167879000000000 
lattice_vector 0.0558252100000000 10.1749753700000003 -0.0209642000000000 
lattice_vector 0.8825627500000000 -0.0816259600000000 10.4433009699999992 
atom 1.2764509100000001 0.2096670800000000 1.7088161200000000 Si
atom 1.7177418000000000 0.1687081300000000 6.9306302899999999 Si
atom 1.5745741700000000 5.2966313500000002 1.6237642800000001 Hf
atom 2.0159318300000000 5.2554625899999996 6.8452793800000000 Hf
atom 6.5384046600000003 0.2597692500000000 2.0487205999999998 Hf
atom 6.9797018900000003 0.2189335200000000 7.2705002299999997 Hf
atom 6.5395816900000003 5.3274512800000000 2.0421086700000002 Hf
atom 6.9810858500000004 5.2866967200000001 7.2637729799999997 Hf
atom 1.7552349500000000 2.2421466400000001 4.1035783300000004 Hf
atom 2.1965398199999999 2.2013399699999998 9.3253795900000007 Hf
atom 1.7505862599999999 7.3646517500000002 4.2540555900000001 Hf
atom 2.1917547900000001 7.3233184099999997 9.4753570000000007 Hf
atom 6.7957151299999996 2.3444545699999999 4.6577639800000004 Hf
atom 7.2370887300000000 2.3037189300000001 9.8793551900000001 Hf
atom 6.7562192500000000 7.4267523000000004 4.6814179899999999 Hf
atom 7.1975693800000000 7.3859606800000002 9.9029233100000003 Hf
atom 3.6848095299999999 2.7340349599999998 1.2921863600000001 Hf
atom 4.1262613899999998 2.6931084500000000 6.5139024200000000 Hf
atom 3.6904074800000002 7.9472545800000001 1.4426182900000000 Hf
atom 4.1319224900000000 7.9062538199999999 6.6643886800000001 Hf
atom 8.8296726000000003 2.7485279800000000 1.8090762499999999 Hf
atom 9.2709797700000003 2.7076592399999999 7.0306976499999996 Hf
atom 8.7747880400000007 7.8850465900000000 1.8081698300000000 Hf
atom 9.2161353800000008 7.8442446199999996 7.0298292699999996 Hf
atom 3.9678245200000002 4.8618334799999996 3.9774616500000000 Hf
atom 4.4091365900000001 4.8209332399999996 9.1990632300000001 Hf
atom 3.9802416799999998 9.9857483800000004 3.9800073600000001 Hf
atom 4.4214888400000003 9.9449113100000002 9.2016683599999993 Hf
atom 8.9879796100000000 4.8688103900000002 4.4217953100000003 Hf
atom 9.4291969800000004 4.8278984400000002 9.6436051500000008 Hf
atom 8.9943192399999994 9.9547336600000005 4.3976497400000003 Hf
atom 9.4358173300000008 9.9138804900000004 9.6194489300000008 Hf
atom 0.5537045700000000 1.4524106500000000 0.7639471100000000 O
atom 0.9950308800000000 1.4113070700000001 5.9854164399999998 O
atom 0.4307426200000000 6.7435755000000004 0.8512201900000000 O
atom 0.8721615500000000 6.7027747000000000 6.0731134100000004 O
atom 5.4246853100000001 1.6857881400000001 1.2086452599999999 O
atom 5.8659813800000000 1.6450721699999999 6.4305067500000002 O
atom 5.4290532699999998 6.8158459499999999 1.2468677399999999 O
atom 5.8702588100000002 6.7749788500000001 6.4686212400000000 O
atom 0.6250303100000000 0.7753570500000000 3.2701320900000002 O
atom 1.0664536000000000 0.7345953500000000 8.4921217900000006 O
atom 0.6702542400000000 5.8981624400000001 3.4593202800000000 O
atom 1.1115723300000000 5.8569930699999997 8.6808010499999995 O
atom 5.6903711499999998 0.8808873600000000 3.8324053299999998 O
atom 6.1317174200000002 0.8400454700000000 9.0542257300000006 O
atom 5.6612362400000000 5.9807401799999997 3.8375419399999999 O
atom 6.1025153699999999 5.9399091000000004 9.0591747599999994 O
atom 4.8551064300000002 4.2034600900000001 2.1929929300000000 O
atom 5.2966218300000003 4.1626496499999996 7.4147008999999997 O
atom 4.9114533500000004 9.3163973200000001 2.2285436999999999 O
atom 5.3527867400000000 9.2756564200000007 7.4501567000000000 O
atom 9.9417605600000005 4.1861014399999998 2.6448070800000001 O
atom 10.3830608299999998 4.1450550399999999 7.8664955799999996 O
atom 9.9924336500000006 9.3623425000000005 2.5800438600000000 O
atom 10.4337079999999993 9.3214386000000005 7.8017302099999997 O
atom 5.1574434100000000 3.4973957499999999 4.8372726300000002 O
atom 5.5989822599999997 3.4568419800000001 10.0591099699999997 O
atom 5.0201045000000004 8.5259837800000007 4.8545987400000001 O
atom 5.4615653200000001 8.4853372500000006 10.0763090700000006 O
atom 10.1173851300000006 3.3820912600000002 5.2495605599999999 O
atom 10.5587607699999992 3.3413032700000000 10.4712983899999994 O
atom 10.0927934100000005 8.5035965000000004 5.2271352400000000 O
atom 10.5340961300000000 8.4625043499999997 10.4486865699999996 O
atom 2.7248908200000002 1.1357835500000000 2.3487590200000001 O
atom 3.1665048800000002 1.0946843799999999 7.5703323600000001 O
atom 3.0071497900000002 6.3711828500000003 2.7214454600000000 O
atom 3.4484875300000000 6.3300238999999996 7.9429457200000000 O
atom 8.0481035300000006 1.3166619100000001 3.1305012400000001 O
atom 8.4897285300000007 1.2757355500000001 8.3521870099999997 O
atom 8.0392048400000000 6.4052479699999996 3.1531736600000002 O
atom 8.4808536700000001 6.3642617200000000 8.3748286899999993 O
atom 3.4077162500000000 1.5032205100000000 4.9288174800000002 O
atom 3.8494069899999999 1.4627906500000001 10.1500938499999993 O
atom 3.2385250700000001 6.3885101100000004 5.3469874700000002 O
atom 3.6798882000000002 6.3479684799999996 10.5686234199999998 O
atom 8.2656588499999994 1.2299617899999999 5.7523174800000003 O
atom 8.7070175600000006 1.1892609599999999 10.9740016199999992 O
atom 8.2431351799999995 6.3279020199999998 5.7599724300000004 O
atom 8.6844552700000008 6.2872087399999996 10.9817430900000002 O
atom 2.2625933100000002 3.9260765000000002 0.2318906800000000 O
atom 2.7037552499999999 3.8848808600000000 5.4533317500000003 O
atom 2.2406515300000001 9.3362946699999991 0.5527945800000000 O
atom 2.6815273099999999 9.2948880799999998 5.7743708600000003 O
atom 7.3521790300000003 3.8720262800000000 0.7303677600000000 O
atom 7.7935965200000004 3.8312539399999999 5.9520941799999996 O
atom 7.3013006499999999 8.9753567899999993 0.7018072900000000 O
atom 7.7426646200000002 8.9346127600000003 5.9235599700000003 O
atom 2.5291728199999999 3.7111086900000001 2.8560516499999999 O
atom 2.9705464199999998 3.6698724600000001 8.0776715699999997 O
atom 2.5378476299999999 8.8117348100000008 3.0465602100000000 O
atom 2.9794207099999999 8.7704166000000008 8.2683695499999992 O
atom 7.5533280999999999 3.7851428199999999 3.3112599600000001 O
atom 7.9947977699999999 3.7444209800000001 8.5328525499999994 O
atom 7.5752156800000003 8.8789660900000005 3.3120724099999999 O
atom 8.0167571300000002 8.8381961100000002 8.5337042299999997 O
