lattice_vector 10.0282372399999993 0.0703999500000000 0.7991414600000000 
lattice_vector 0.1025607900000000 10.1524896699999996 -0.0165249400000000 
lattice_vector 0.8508282800000000 -0.0080242100000000 10.4506516499999993 
atom 1.3500192700000000 0.1120447300000000 1.8055779500000000 Si
atom 1.9194379100000001 0.2246655700000000 6.8427362900000004 Hf
atom 1.5456499299999999 5.3050799299999998 1.6091700499999999 Hf
atom 1.8264667900000000 5.1851428400000001 7.0221730200000003 Si
atom 6.5207963800000002 0.2665947900000000 2.0484812099999998 Hf
atom 6.9306147600000001 0.2457377900000000 7.2516408300000004 Hf
atom 6.5566515599999997 5.3258614700000004 2.0183446599999999 Hf
atom 6.9974272400000004 5.3387869200000004 7.2656327999999997 Hf
atom 1.6810589000000000 2.2781647999999999 4.1187272300000002 Hf
atom 2.2097489600000002 2.2751942000000001 9.4657909700000005 Hf
atom 1.8355325400000000 7.3561398899999997 4.2316354799999996 Hf
atom 2.1577031500000001 7.3505645099999999 9.3360397200000005 Hf
atom 6.7302300500000003 2.3718358500000001 4.6617965899999998 Hf
atom 7.1958736600000002 2.3701736699999998 9.8858323400000003 Hf
atom 6.8216085000000000 7.4504927600000004 4.6521968300000003 Hf
atom 7.2070927200000003 7.4438348100000002 9.8786225900000009 Hf
atom 3.7097761600000001 2.7590469899999999 1.3566285800000000 Hf
atom 4.0853663500000001 2.8692123199999999 6.5911495400000000 Hf
atom 3.7116703499999999 7.9492812099999997 1.3571800999999999 Hf
atom 4.1863383100000000 7.8312310700000003 6.5737237400000001 Hf
atom 8.8349411799999995 2.7160756199999998 1.8335621600000001 Hf
atom 9.1986519199999996 2.8155765100000001 7.0125234200000000 Hf
atom 8.8243633300000006 7.8956892600000002 1.7788353100000001 Hf
atom 9.3114692899999998 7.7882870100000003 7.0505163700000004 Hf
atom 3.9773178400000000 4.9583679600000004 3.9966717699999998 Hf
atom 4.3709450700000003 4.8955697200000001 9.1835456999999998 Hf
atom 3.9969979900000001 9.9764443899999993 3.9499102200000000 Hf
atom 4.4540601999999998 10.0305363100000005 9.2136138400000007 Hf
atom 8.9732809200000005 4.9157117799999996 4.3817846999999999 Hf
atom 9.4079573500000002 4.8589873600000004 9.6680082400000007 Hf
atom 9.0336122200000002 9.9393031300000008 4.4343455499999997 Hf
atom 9.4496227800000003 9.9877823600000006 9.5988589199999996 Hf
atom 0.5962669400000000 1.4338517900000001 0.8877238200000001 O
atom 0.8104638600000000 1.5967554600000000 5.9449241199999996 O
atom 0.4363216800000000 6.6770877000000004 0.7114422800000000 O
atom 1.0725549299999999 6.5064195399999996 6.1048065999999999 O
atom 5.4372291400000003 1.7060826800000000 1.2031982200000000 O
atom 5.8204491500000000 1.7179849000000000 6.4379039999999996 O
atom 5.4464109199999999 6.7981012300000003 1.2042027700000000 O
atom 5.9135963199999999 6.7781415300000001 6.4202362800000001 O
atom 0.6389896300000000 0.7612447200000000 3.3406451000000001 O
atom 1.0313204700000000 0.8640003800000000 8.6366471499999999 O
atom 0.6573647200000000 5.9445535800000000 3.4031663700000001 O
atom 1.1158656800000000 5.8334718900000002 8.5577963799999992 O
atom 5.5682602299999999 0.9846413500000000 3.7819730900000001 O
atom 6.1223142700000004 0.8843611400000000 9.0634736000000000 O
atom 5.7480484199999999 5.9647974100000001 3.8298668299999998 O
atom 6.0450994900000001 6.0564855800000004 8.9991609399999994 O
atom 4.8630036600000004 4.2423323999999996 2.1957252299999999 O
atom 5.3036819499999996 4.2065666000000004 7.4549026899999999 O
atom 4.9292170000000004 9.2871997299999993 2.2210474900000001 O
atom 5.3396804800000002 9.3145834900000004 7.4125511099999999 O
atom 9.9406368999999994 4.1812972300000002 2.6386276500000001 O
atom 10.4242242199999993 4.2345307300000004 7.8490095499999999 O
atom 10.0497276299999996 9.3146006200000002 2.6153544800000001 O
atom 10.4172549500000002 9.2532211899999997 7.8559394899999999 O
atom 5.0186967500000002 3.4813859800000002 4.8358967599999998 O
atom 5.5686506500000004 3.5502660399999999 10.0617007500000000 O
atom 5.1941379300000001 8.6302810700000006 4.8277653100000002 O
atom 5.4952255399999999 8.5530323399999997 10.0524846799999992 O
atom 10.0667009800000002 3.4524182600000000 5.2101928300000004 O
atom 10.5464118700000000 3.4253487800000002 10.5298618899999994 O
atom 10.1720292699999995 8.5056915199999992 5.2960559600000003 O
atom 10.5431830800000004 8.5245060499999994 10.4271685800000000 O
atom 2.7743249600000000 1.1736404700000000 2.4703224399999999 O
atom 3.3699185400000000 1.3210210000000000 7.8427643900000001 O
atom 2.9959066700000001 6.4018640400000004 2.6092963899999999 O
atom 3.2505565900000000 6.2456139100000003 7.6871935300000001 O
atom 8.0030417600000003 1.3065288200000000 3.1578848399999999 O
atom 8.4504398500000004 1.3484568299999999 8.3382439799999997 O
atom 8.0763043700000008 6.4287194300000001 3.1048388199999999 O
atom 8.4799600599999998 6.3785399299999996 8.3749829099999999 O
atom 3.1821668700000001 1.3878912000000001 5.2094707700000003 O
atom 3.8683730700000001 1.5160050300000001 10.3025532799999997 O
atom 3.4938869700000001 6.5965912600000003 5.0686792599999997 O
atom 3.6585032000000002 6.4594184600000002 10.4267425700000000 O
atom 8.2119552299999992 1.2726319699999999 5.7398504800000003 O
atom 8.6662960099999999 1.2619224300000000 10.9931835699999993 O
atom 8.2921897999999992 6.3422926899999998 5.7593994100000003 O
atom 8.6886354000000008 6.3445561599999998 10.9570222099999999 O
atom 2.2979698900000001 3.9315787599999998 0.2762953700000000 O
atom 2.6709018200000001 4.2559692900000003 5.7174520500000003 O
atom 2.2968207500000002 9.3359990600000007 0.4832032900000000 O
atom 2.7746846399999998 9.0040769199999993 5.4928578000000003 O
atom 7.3525515500000003 3.8521990499999998 0.7276040900000000 O
atom 7.7179364699999997 3.8849222900000000 5.9259297100000001 O
atom 7.3435645999999997 8.9651231599999992 0.6921628200000000 O
atom 7.8291251199999996 8.9245485900000006 5.9444457999999996 O
atom 2.5371554500000002 3.7434796299999999 2.9499987100000000 O
atom 2.8301267800000001 3.8141741599999999 8.1241673999999993 O
atom 2.4551999000000002 8.8952100999999999 2.8895859399999999 O
atom 3.0138195300000001 8.8154142899999997 8.1668425500000001 O
atom 7.5451500899999999 3.7846634199999998 3.3039919000000002 O
atom 7.9989356500000000 3.8154741500000000 8.5430235400000001 O
atom 7.6246361499999997 8.8955953900000004 3.3093132000000001 O
atom 8.0217229999999997 8.8567576199999998 8.5208610100000008 O
