lattice_vector 10.0619789199999996 0.0289969500000000 0.7167932500000000 
lattice_vector 0.0581174000000000 10.3358578500000000 0.0582105200000000 
lattice_vector 0.7969802100000000 0.0208387300000000 10.4465187200000003 
atom 1.1508075300000000 0.3662817600000000 2.1882177500000002 Si
atom 1.8675197200000000 0.2229580700000000 6.7656400799999998 Hf
atom 1.5056098899999999 5.3271276800000003 1.6653768200000001 Hf
atom 1.9492649500000001 5.3922424400000004 6.8840392899999996 Hf
atom 6.5747323599999996 0.2792705900000000 1.9956456400000000 Hf
atom 6.9944422399999997 0.2658040500000000 7.1871747700000004 Hf
atom 6.5984946300000002 5.3880075500000002 2.0066574899999998 Hf
atom 6.9243083399999996 5.4047464200000004 7.2347599799999998 Hf
atom 1.6781364400000001 2.4692084699999999 4.2699933000000003 Hf
atom 2.1522550900000001 2.3161956699999999 9.5163390900000007 Hf
atom 1.6454790500000001 7.5379980000000000 4.3092294600000001 Hf
atom 2.2480439400000001 7.5109114200000002 9.4232634500000003 Hf
atom 6.7448275600000001 2.4176601099999999 4.6302202899999996 Hf
atom 7.1917715700000002 2.4168858499999999 9.8449963199999999 Hf
atom 6.7360662099999997 7.5478841200000000 4.5953791800000001 Hf
atom 6.9638780400000000 7.7260258999999998 9.7912501200000008 La
atom 3.7043495100000001 2.7371548799999998 1.3562871100000000 Hf
atom 4.1150651600000003 2.8328637799999998 6.5537070100000001 Hf
atom 3.6391013000000001 7.9763786899999998 1.5463758800000000 La
atom 4.1191548600000001 7.9983366800000004 6.5759806500000000 Hf
atom 8.8113837900000007 2.7852200300000001 1.7597050000000001 Hf
atom 9.1589703399999998 2.8860723099999999 6.9903170399999999 Hf
atom 8.8782850599999996 8.0157800199999993 1.7470778199999999 Hf
atom 9.1554290700000003 7.9918340600000004 6.9844888100000002 Hf
atom 3.9485529900000000 4.9686371600000001 3.9899080699999998 Hf
atom 4.3133706299999997 4.8746676799999999 9.2008647799999999 Hf
atom 3.9555415200000001 10.2093663699999997 3.9730779799999998 Hf
atom 4.3956641899999997 10.3213545799999995 9.0266839999999995 Hf
atom 8.9063048899999995 5.0191639700000001 4.3599812499999997 Hf
atom 9.3840498500000002 5.0163220800000001 9.6121756200000004 Hf
atom 8.8684636399999999 10.1315093899999997 4.4379380499999996 Hf
atom 9.4744895000000007 10.1844794699999994 9.6047320599999999 Hf
atom 0.5531458500000000 1.5800787500000000 1.0656058399999999 O
atom 0.8294604600000000 1.8268680300000000 6.1071931499999996 O
atom 0.6716204500000000 7.1089590200000004 0.9683597100000000 O
atom 0.8490003699999999 6.9230037400000004 6.1176779100000003 O
atom 5.5362971500000002 1.8561076000000001 1.2698890800000000 O
atom 5.8746343699999999 1.8328069899999999 6.5288105500000002 O
atom 5.6494914400000003 7.0089950900000000 1.4747402800000000 O
atom 5.8918354700000002 7.0127883600000001 6.5085577499999996 O
atom 0.4824845200000000 0.8997426900000000 3.6189016899999999 O
atom 1.0569083900000000 0.8559765800000000 8.6761935200000000 O
atom 0.5447146000000000 6.0332182300000001 3.5041098399999999 O
atom 1.0985415199999999 6.0306679000000001 8.7380454800000003 O
atom 5.6849780900000004 0.8413153100000000 3.9277067600000000 O
atom 6.1977793700000001 0.6820501300000000 9.1466228800000007 O
atom 5.7335689500000004 5.9166455899999999 3.9464255000000001 O
atom 6.0529659899999997 5.8200907199999996 9.0815561099999993 O
atom 4.7741983699999997 4.3805714900000003 2.0901250299999998 O
atom 5.1475064599999998 4.3927541699999999 7.2546664500000002 O
atom 4.8343613799999998 9.7867697099999997 2.1467447100000001 O
atom 5.2916171399999996 9.5525135999999993 7.2906533400000004 O
atom 9.8220593199999993 4.3797635300000000 2.4907200199999999 O
atom 10.2704398399999999 4.3797008599999998 7.7657720299999999 O
atom 9.9623568500000008 9.6600221000000008 2.6167507099999998 O
atom 10.3142652199999993 9.5310889799999998 7.7112605700000003 O
atom 4.9674293399999998 3.3617421400000000 4.6958709299999999 O
atom 5.3682173400000002 3.3048394200000000 9.9058103000000006 O
atom 4.9452334200000001 8.5451496999999996 4.6349062800000000 O
atom 10.0082086599999993 3.5003272800000000 5.1265686600000002 O
atom 10.4976401900000003 3.4337701300000001 10.4171956800000007 O
atom 9.9963961300000008 8.6184964599999994 5.1494736799999998 O
atom 10.6017898899999992 8.6659754000000007 10.3789445600000008 O
atom 2.6573918399999998 1.3157067499999999 2.6141934999999998 O
atom 3.3266482499999999 1.3733694299999999 7.8318446499999999 O
atom 2.8297755699999998 6.4030032800000001 2.9172589100000001 O
atom 3.4236149899999999 6.5153061499999998 7.9337375000000003 O
atom 7.9985307900000002 1.3705274999999999 3.1201784400000001 O
atom 8.4297882499999996 1.4248406899999999 8.3172111399999995 O
atom 8.0369248399999993 6.5520303499999999 3.1149218200000002 O
atom 8.4558628000000002 6.4998525500000000 8.2805235300000000 O
atom 3.1549005399999999 1.3015108099999999 5.2463816799999998 O
atom 3.6756399300000000 1.2158681899999999 10.4265712100000005 O
atom 3.1928893199999999 6.4421754800000004 5.3874238800000001 O
atom 3.4919776699999998 6.2000093700000001 10.5422591200000006 O
atom 8.1978054900000004 1.2827642900000000 5.7264776900000003 O
atom 8.6665797599999994 1.3365126199999999 10.9228683699999998 O
atom 8.1877133200000003 6.4579370500000000 5.7160305600000001 O
atom 8.7982612099999997 6.4390260499999998 11.0076339099999991 O
atom 2.2494073100000000 3.7980761500000000 0.3237988200000000 O
atom 2.6472180500000002 3.9651925900000000 5.4875943600000001 O
atom 3.6054604100000001 8.5066740099999993 -0.6122097100000000 O
atom 2.6813815600000002 9.1299393700000007 5.4414478600000002 O
atom 7.3306299299999997 3.9290356000000002 0.6386859000000000 O
atom 7.6697426899999996 3.9570627900000002 5.8842521000000003 O
atom 7.4894710099999999 9.2294857799999992 0.7144407699999999 O
atom 7.6559797200000004 9.1144806900000006 5.8712410500000001 O
atom 2.4839876699999999 3.8184622199999998 2.9015310799999998 O
atom 2.8471145700000000 3.7984498900000001 8.1199769600000007 O
atom 2.1849257000000000 9.3129737400000003 2.8804769299999999 O
atom 2.8308749199999999 9.0550190199999996 8.0270350100000005 O
atom 7.5160641600000000 3.8264009099999998 3.2569902000000002 O
atom 7.9141867299999999 3.8825985799999998 8.5001943200000003 O
atom 7.5596749399999998 9.0163945299999995 3.2690427299999998 O
atom 8.0732686000000005 9.1545378199999998 8.3966090500000004 O
