lattice_vector 10.0463453400000002 0.0210786100000000 0.0410752300000000 
lattice_vector 0.0210648300000000 5.2069671000000000 -0.0000555900000000 
lattice_vector 0.0005337200000000 -0.0574759400000000 10.0606523200000009 
atom 1.2876066600000000 0.0454828000000000 1.1484538500000001 La
atom 1.3266707300000000 0.1127553800000000 6.2712503899999996 Hf
atom 6.4082659900000003 0.1516057900000000 1.3465659200000000 Hf
atom 6.3766236799999998 0.1573789800000000 6.3120185199999996 Hf
atom 1.3814851500000001 2.3756704599999998 3.7726421900000000 Hf
atom 1.2861944000000001 2.3723762200000000 8.6731064300000007 Hf
atom 6.3680109299999996 2.4116448799999999 3.8454936000000002 Hf
atom 6.3786847499999997 2.4127240300000001 8.8698999799999996 Hf
atom 3.7970922800000002 2.6959313699999998 1.2907865599999999 Hf
atom 3.6699897400000001 2.7275132000000002 6.3007204999999997 Hf
atom 8.6700945399999991 2.7788397400000000 1.3688676799999999 Hf
atom 8.6996294200000008 2.7648207100000000 6.2978067299999996 Hf
atom 3.7044055500000002 4.9986435399999998 3.7765035199999999 Hf
atom 3.8448366599999999 5.1172063200000002 8.7031765900000000 Hf
atom 8.7137729700000008 5.0136369900000002 3.8514068400000001 Hf
atom 8.6716166999999995 4.9939778300000004 8.8234972500000008 Hf
atom 0.3216571600000000 2.0094817900000002 2.0327451600000002 O
atom 0.3895441900000000 1.9122716000000000 6.8438423999999998 O
atom 5.4461850600000004 1.8920190200000000 2.0149963600000000 O
atom 5.3171444699999997 1.8271255500000001 7.1110007700000004 O
atom 0.3761474500000000 0.6242708200000000 4.4434453400000002 O
atom 0.2873197100000000 0.7205087200000000 9.2015324500000002 O
atom 5.3810480099999998 0.6532171100000000 4.5220089500000000 O
atom 5.3905729500000001 0.7200639300000000 9.6252222599999993 O
atom 4.7229234199999999 4.4915608899999997 1.9814751500000001 O
atom 4.7147799600000004 4.4531991000000000 6.9685120200000004 O
atom 9.4575521600000005 4.5392249600000003 2.0545037200000000 O
atom 9.6852534699999993 4.4836345099999999 7.0242478699999999 O
atom 4.6813801300000000 3.2513390700000002 4.5345344200000000 O
atom 4.6647003399999996 3.3419395700000001 9.5065343299999991 O
atom 9.7013612299999998 3.2769392399999999 4.5238963300000004 O
atom 9.8503606900000005 3.3956971199999999 9.6860968700000001 O
atom 2.8359281300000001 1.2139302000000001 2.5389766699999998 O
atom 2.6919137700000002 1.1709122500000000 7.4767454000000004 O
atom 7.7264616799999999 1.2280076600000001 2.5946798000000002 O
atom 7.7210258899999999 1.2152322400000000 7.5826446399999998 O
atom 2.7193958500000002 1.3240562300000001 5.0336930500000001 O
atom 2.7028430299999999 1.5533799800000001 9.9443931600000006 O
atom 7.7196521300000001 1.3629565200000000 5.0888791299999996 O
atom 7.7619013199999998 1.3323828600000001 10.1000342900000000 O
atom 2.3217511100000001 3.9366850400000000 5.0484517300000000 O
atom 7.3436836999999997 3.9562358400000002 5.0871910400000004 O
atom 7.3472969399999997 3.9184406599999999 10.0990836200000000 O
atom 2.4595927199999998 3.6869272099999999 2.5314152200000000 O
atom 2.3618340099999999 3.8195402999999999 7.6207879800000002 O
atom 7.2511333599999999 3.8074954299999999 2.5947317700000001 O
atom 7.3334378200000003 3.8001281400000000 7.5850059700000001 O
