lattice_vector 9.9811104099999994 -0.0756424000000000 0.0773879500000000 
lattice_vector -0.0114580600000000 10.4502817599999993 -0.0017383000000000 
lattice_vector 0.0273286800000000 -0.0032272000000000 9.9956260100000005 
atom 1.0296824700000000 0.6253200000000000 1.2614830400000001 Si
atom 1.3659066600000001 0.1611519300000000 6.2730505799999996 Hf
atom 1.3141490899999999 5.3741703300000001 1.2420484300000001 Hf
atom 1.3492387600000000 5.3541844699999999 6.2156731199999999 Hf
atom 6.3808606499999998 0.1281893500000000 1.3218383800000000 Hf
atom 6.3039801300000002 0.1009215300000000 6.2719566000000002 Hf
atom 6.3923125299999999 5.3766326199999996 1.3337653800000000 Hf
atom 6.3390484599999999 5.3453915500000004 6.2902146800000001 Hf
atom 1.3499502400000001 2.3887515700000002 3.7692991299999998 Hf
atom 1.3149927400000001 2.5221953300000002 8.7628035200000003 Hf
atom 1.3592548300000000 7.6338541600000003 3.7470308499999998 Hf
atom 1.2711154700000000 7.5617205800000002 8.6653825500000004 Hf
atom 6.3049180199999997 2.3613506300000000 3.8301366500000000 Hf
atom 6.3843208200000001 2.3805756599999999 8.7830615099999996 Hf
atom 6.3824978000000003 7.6282936100000001 3.8232570400000001 Hf
atom 6.3621815799999997 7.6205940300000004 8.8071567999999996 Hf
atom 3.7320869499999998 2.8455125200000002 1.2205069099999999 Hf
atom 3.6538409600000001 2.7395611000000000 6.2862694799999996 Hf
atom 3.7543066399999998 7.8168859800000003 1.3299966400000001 Hf
atom 3.6717374000000000 7.9920197399999999 6.2653444299999999 Hf
atom 8.5686922899999995 2.7811250400000000 1.3235182999999999 Hf
atom 8.6546952699999995 2.6865353700000001 6.3009347800000004 Hf
atom 8.7459250199999996 7.9918505299999998 1.2924543399999999 Hf
atom 8.6498222400000007 7.9662928300000004 6.2975641500000004 Hf
atom 3.6829937600000000 4.9978305900000004 3.7895358400000001 Hf
atom 3.7056970100000002 5.0897734600000000 8.7235894700000003 Hf
atom 3.6057001600000000 10.1807602100000008 3.6802117499999998 Hf
atom 3.6003978000000001 10.3177762099999999 8.9750602799999992 La
atom 8.6511602399999994 4.9843456200000000 3.8334737099999998 Hf
atom 8.6369400400000007 4.9917621299999997 8.7817211000000004 Hf
atom 8.6933649400000004 10.2459333099999998 3.8082453699999999 Hf
atom 8.6848553600000002 10.2497438699999996 8.8009527199999997 Hf
atom 0.2803952300000000 1.9804799099999999 1.9302163500000000 O
atom 0.2527183000000000 1.8536240700000000 7.0844568499999996 O
atom 0.3911752600000000 7.1567778400000002 1.9255055400000001 O
atom 0.3244255800000000 7.0845638800000001 6.8871144800000001 O
atom 5.2600851000000004 1.8461718100000000 2.0525375499999998 O
atom 5.3186513000000000 1.8412109400000001 7.0141813700000002 O
atom 5.4326901500000000 7.0826677099999999 2.0566865800000000 O
atom 5.3252040699999998 7.0565522800000000 7.0285910899999999 O
atom 0.3093824700000000 0.7401428000000000 4.5729924300000002 O
atom 0.3984540400000000 0.6678250600000000 9.6284926300000002 O
atom 0.3683175600000000 5.8822862400000000 4.4246076700000003 O
atom 0.3263385900000000 5.8951039600000001 9.4468606400000006 O
atom 5.3422809200000003 0.6174999400000000 4.4554456900000003 O
atom 5.5491358200000001 0.7204488500000000 9.5871660300000006 O
atom 5.3763664799999997 5.8700365000000003 4.4905095199999998 O
atom 5.3791451500000003 5.8473451900000004 9.5380668400000008 O
atom 4.6755972999999997 4.5219443000000004 1.9750479500000000 O
atom 4.6515200500000002 4.4736270700000000 6.9628857899999996 O
atom 4.6652390600000002 9.6998479399999997 1.9049376700000000 O
atom 4.6479795700000004 9.6562292000000003 6.8855604000000001 O
atom 9.6203395399999998 4.4631087999999997 2.0425807100000002 O
atom 9.6504972799999997 4.4213999700000004 7.0200738200000004 O
atom 9.8649249300000008 9.8464042799999998 1.9845089300000001 O
atom 9.6460279700000005 9.6617936400000008 7.0280535600000000 O
atom 4.6483242200000001 3.2683699300000000 4.4962823299999997 O
atom 4.6279057100000003 3.2468398900000000 9.4142933499999994 O
atom 4.6661986200000003 8.4702566299999997 4.4588024900000001 O
atom 4.7075471200000001 8.3759731399999993 9.5653839200000004 O
atom 9.6408440399999993 3.2155681999999999 4.5155309800000003 O
atom 9.6415553900000006 3.2843118599999999 9.5533942100000004 O
atom 9.6450833300000003 8.4751566399999998 4.4829641699999998 O
atom 9.6915894300000005 8.4942881099999994 9.4916512399999995 O
atom 2.2561061400000000 0.8304884000000000 2.5291879000000002 O
atom 2.5994908400000001 1.3166073400000000 7.4789071900000001 O
atom 2.6954681100000002 6.2561527999999997 2.4810823900000001 O
atom 2.6858228899999999 6.4018721400000000 7.4681532900000001 O
atom 7.6892011900000004 1.1960752699999999 2.5571334600000002 O
atom 7.6578067499999998 1.1432535300000000 7.5421748600000003 O
atom 7.7566050300000002 6.4049113599999998 2.5676287599999998 O
atom 7.6899459800000001 6.3819245699999998 7.5474074099999999 O
atom 2.7362977900000001 1.3580533699999999 4.9608095199999998 O
atom 2.4180147800000000 1.5572474800000000 10.2671006899999995 O
atom 2.7216165700000001 6.5706872499999998 4.9799400499999997 O
atom 2.6534879199999999 6.7031246600000003 9.9775218100000007 O
atom 7.6795658600000003 1.3239528700000001 5.0409541100000004 O
atom 7.8161550699999998 1.3714185699999999 10.0390727599999998 O
atom 7.7042094700000003 6.5555735000000004 5.0637364500000004 O
atom 7.7363046899999999 6.5956481499999997 10.0662522200000009 O
atom 2.2952135700000000 3.9474709099999998 4.9921675099999998 O
atom 2.3669168799999998 4.1084398599999998 9.9705312100000008 O
atom 2.2830286499999999 9.2037242399999997 5.0118107299999997 O
atom 7.2931644200000001 3.9338203799999998 5.0505084900000004 O
atom 7.2877135199999996 3.9578845800000000 10.0377621399999999 O
atom 7.3240293500000000 9.1810847199999994 5.0353753200000000 O
atom 7.3662330999999996 9.2077421000000008 10.0430902399999997 O
atom 2.3411988699999999 3.6917848100000001 2.4879769700000001 O
atom 2.2957310999999998 3.8467361499999999 7.4931838600000003 O
atom 2.5156989400000001 8.7560536500000001 2.5600199300000002 O
atom 2.2220300700000002 8.9973801299999998 7.5233404899999998 O
atom 7.2439624000000000 3.8002752900000001 2.5604566900000001 O
atom 7.3121274800000000 3.7720819699999999 7.5251977200000004 O
atom 7.4171877999999998 9.0150159199999997 2.5356342000000001 O
atom 7.2942572700000001 8.9980563599999996 7.5407006000000001 O
