lattice_vector 10.1883824500000006 0.0382508800000000 0.7780551900000000 
lattice_vector 0.0566752100000000 10.2384990600000005 -0.0556014300000000 
lattice_vector 0.8752776300000000 -0.0327034300000000 10.5148972999999994 
atom 1.2890277699999999 0.2383969400000000 1.7443864899999999 Si
atom 1.9198061700000000 0.1678023000000000 6.8946549099999999 Hf
atom 1.5084748800000001 5.3658157500000003 1.6345972799999999 Hf
atom 1.9873655200000000 5.2690645900000002 6.8449180700000003 Hf
atom 6.6188035500000000 0.2531789800000000 2.0619546600000001 Hf
atom 7.0898931300000001 0.1693992200000000 7.3094486300000003 Hf
atom 6.5996402900000000 5.3533585800000001 1.9504934700000001 Hf
atom 7.4373023399999996 5.4733728499999996 7.2045168400000001 Hf
atom 1.7391964799999999 2.3088672200000002 4.1565300799999996 Hf
atom 2.2305810400000001 2.3128221299999998 9.4995789700000000 Hf
atom 1.8406896100000001 7.4033304099999997 4.2663548799999997 Hf
atom 2.0794016599999998 7.4576680900000003 9.4487797800000006 Hf
atom 6.9392640600000002 2.3621237900000001 4.6125729900000003 Hf
atom 7.3136731399999997 2.3215781899999999 9.9168022100000002 Hf
atom 6.8752411799999997 7.4413068300000003 4.5955665500000000 Hf
atom 7.2867971300000001 7.5316810600000004 9.9153815699999992 Hf
atom 3.7365056700000001 2.7019461300000001 1.3310486500000001 Hf
atom 4.2517112099999999 2.6851814200000002 6.6276184300000001 La
atom 3.7138055900000002 8.0030785499999997 1.4080535300000001 Hf
atom 4.2725213499999999 7.8728946600000000 6.6280980800000000 Hf
atom 8.9317377699999998 2.7516287199999998 1.7642039899999999 Hf
atom 9.3327282799999995 2.7381776599999998 6.9889055999999998 Hf
atom 8.8905670499999996 7.9401159600000000 1.7481673000000000 Hf
atom 9.4234980400000001 7.9489464700000001 6.9732034499999997 Hf
atom 4.0261057999999998 4.8829931799999997 3.9302687800000000 Hf
atom 4.5107741600000004 5.1121384900000004 9.4291316599999995 La
atom 4.0498320300000001 9.9618331399999995 3.9502452400000001 Hf
atom 4.4565101100000000 10.0754824099999993 9.2738707300000005 Hf
atom 9.1297587900000003 4.8988412099999996 4.3239086000000002 Hf
atom 9.5636249200000005 4.8734230199999997 9.6604431999999996 Hf
atom 9.1624069099999996 10.0019845099999998 4.3501731399999999 Hf
atom 9.5617604299999996 10.0694400500000008 9.6214647699999993 Hf
atom 0.5490689399999999 1.4947032899999999 0.8352705000000000 O
atom 0.8523512800000000 1.6238404300000000 6.0055869900000003 O
atom 0.2691562500000000 6.7020754399999998 0.7482940800000000 O
atom 0.9020915900000001 6.7600478800000001 6.0350012299999998 O
atom 5.5182565200000004 1.6592419899999999 1.2110148000000001 O
atom 6.2702725199999998 1.7790680000000001 6.4914433200000001 O
atom 5.3834831100000002 6.7274402100000001 1.0432989800000001 O
atom 5.9789187000000004 6.6224010900000003 6.3584714399999998 O
atom 0.6392379500000001 0.7941433100000000 3.2969441300000000 O
atom 0.9801602500000000 0.9111190200000000 8.6750257099999999 O
atom 0.6382365200000000 5.9882376300000004 3.4261348200000001 O
atom 1.0630193400000001 5.9542399100000001 8.6790047900000005 O
atom 5.6906946999999999 0.9420941900000001 3.8604636499999998 O
atom 6.2081769199999997 0.8118315200000000 9.1014649900000002 O
atom 5.7104056999999999 6.0837394500000004 3.6920673399999999 O
atom 6.4223305100000001 6.1041656399999997 8.8286507400000005 O
atom 4.9149973899999999 4.2292458599999998 2.1098401899999999 O
atom 5.0150597000000001 9.3207440600000009 2.2111496200000000 O
atom 5.3898520799999998 9.3627586899999997 7.4151674300000003 O
atom 10.0595433900000000 4.1956818800000004 2.6033432500000000 O
atom 10.4365714999999994 4.2120957900000002 7.8372259199999998 O
atom 10.1545851999999996 9.3993864499999997 2.5301429000000000 O
atom 10.5042331000000004 9.3431179199999992 7.8646686199999998 O
atom 5.3171165199999999 3.5984123700000001 4.7719903600000002 O
atom 5.6552253200000004 3.3374773599999998 10.0429407800000003 O
atom 5.2073697900000004 8.5759349100000009 4.8347147799999997 O
atom 5.4873573899999997 8.5373537699999993 10.0893319300000002 O
atom 10.2121267899999992 3.4075175099999999 5.1608007599999999 O
atom 10.6898182700000000 3.4330140299999998 10.5317066199999996 O
atom 10.3334942900000009 8.6135425699999999 5.2104275900000001 O
atom 10.6311056199999996 8.5990951399999993 10.4742902299999994 O
atom 2.7884977599999998 1.1496303800000001 2.4624506700000000 O
atom 3.3181926700000002 1.1476146599999999 8.0013456400000003 O
atom 3.0277157500000000 6.3946775400000000 2.6987910799999999 O
atom 3.3609083499999999 6.4896564699999999 7.8791068299999996 O
atom 8.1304811899999994 1.3052018100000000 3.1125090399999999 O
atom 8.5663849600000006 1.3169745200000000 8.3664688300000005 O
atom 8.1108635800000002 6.4350113000000002 3.0671343000000002 O
atom 8.8012935300000006 6.4623141100000003 8.2978407599999997 O
atom 3.1473892000000001 1.1682178900000000 5.2087224900000004 O
atom 3.8749643900000001 1.4847025000000000 10.3555472200000001 O
atom 3.3256755800000000 6.3442717000000002 5.3168255899999997 O
atom 3.4683255100000001 6.6475124799999996 10.7246568799999995 O
atom 8.4738827299999997 1.2334944000000001 5.6900936599999996 O
atom 8.7903465300000008 1.2336838800000001 11.0403863700000002 O
atom 8.4477032699999999 6.4292891499999998 5.6694861799999998 O
atom 8.7219804500000002 6.3764776799999998 10.9535465900000002 O
atom 2.2387921000000000 3.9011039400000000 0.3859233700000000 O
atom 2.6610360100000001 3.9207301999999999 5.3881792600000002 O
atom 2.2811617599999998 9.4526805100000004 0.5584822400000000 O
atom 2.8175497400000000 8.9354567100000004 5.5862055899999996 O
atom 7.4509190399999996 3.8771176100000000 0.6578810500000000 O
atom 7.9015035400000002 3.9274484500000000 5.8853308100000001 O
atom 7.3911416399999998 9.0364619099999999 0.6624673700000000 O
atom 7.8933635200000003 8.9782402700000006 5.8958813599999997 O
atom 2.5868020600000001 3.7179075500000001 2.8876786999999999 O
atom 2.8927536599999999 3.8156313100000001 8.1747236399999998 O
atom 2.6053527399999998 8.8449035400000007 3.0018165300000001 O
atom 2.9976503000000001 8.8976213899999994 8.2497069399999994 O
atom 7.6692691599999998 3.8007041099999999 3.2362158200000000 O
atom 8.0403449800000004 3.8368210500000002 8.5112056900000006 O
atom 7.7113130200000004 8.9271173000000008 3.2804143200000002 O
atom 8.1128658799999993 8.9188673800000000 8.5346097899999993 O
