lattice_vector 9.9538749600000003 -0.0383580700000000 0.0247223700000000 
lattice_vector 0.0134064700000000 10.4156007699999993 -0.0287779400000000 
lattice_vector -0.0384608100000000 0.0034820600000000 10.0212435000000006 
atom 1.2009128600000001 0.3114552100000000 1.0158335800000000 Si
atom 1.2456348600000000 0.1412266700000000 6.3605302300000002 Hf
atom 1.3610884700000001 5.3240879899999998 1.2442605400000000 Hf
atom 1.3168036400000001 5.3961245299999998 6.2552983700000002 Hf
atom 6.3550493100000001 0.1583031400000000 1.2806548000000000 Hf
atom 6.2347017600000001 0.1361723700000000 6.2687194200000000 Hf
atom 6.3618325000000002 5.3748769899999997 1.2753433300000001 Hf
atom 6.2751261600000001 5.4023915799999997 6.2910186000000001 Hf
atom 1.2242776700000000 2.4663806600000000 3.6449883700000001 La
atom 1.2703830500000000 2.4753172200000000 8.7510680599999997 Hf
atom 1.3132584800000000 7.5946735399999996 3.7454034200000001 Hf
atom 1.2757990800000001 7.6537093299999999 8.7838218700000006 Hf
atom 6.2940733399999997 2.4091247899999999 3.7958314799999999 Hf
atom 6.2833374199999996 2.4091935499999999 8.7724328499999995 Hf
atom 6.3308163899999998 7.6390602000000003 3.7510530399999999 Hf
atom 6.2503616600000003 7.6575262700000000 8.7899260600000009 Hf
atom 3.7164335300000002 2.7454696200000002 1.1547497799999999 Hf
atom 3.6575046200000001 2.8368624300000000 6.2935215400000004 Hf
atom 3.6701111000000002 7.9197552000000000 1.2550910099999999 Hf
atom 3.6213543800000001 8.0384881900000007 6.2798973100000000 Hf
atom 8.6249550199999998 2.7556528800000000 1.2232350500000000 Hf
atom 8.5401425199999998 2.7603020400000000 6.3274531400000003 Hf
atom 8.7282899000000000 7.9740784800000002 1.2383621700000000 Hf
atom 8.5932266300000002 7.9515386699999997 6.2784285200000003 Hf
atom 3.6890087600000001 5.0254128199999997 3.7257286399999998 Hf
atom 3.6034104899999999 5.0864003799999997 8.7574349500000004 Hf
atom 3.6586560299999999 10.1456236999999998 3.6055115999999998 Hf
atom 3.5665435099999998 10.2786183500000003 8.8193519299999998 Hf
atom 8.5549603100000002 4.9914315399999998 3.8221976000000000 Hf
atom 8.5801175000000001 5.0508851300000002 8.7696650100000006 Hf
atom 8.6554380500000008 10.2142368200000000 3.7731232600000002 Hf
atom 8.5795565200000006 10.2131406200000008 8.7615506799999991 Hf
atom 0.3954176100000000 1.7969952100000000 1.4747263600000000 O
atom 0.2804313000000000 1.9211943000000000 6.9906404000000002 O
atom 0.3724960800000000 7.0621677800000002 1.9397549599999999 O
atom 0.3271836500000000 7.1422494700000003 6.9698774800000001 O
atom 5.2868949699999996 1.8308998700000001 2.0209621000000002 O
atom 5.3241476499999996 1.9249793799999999 6.9755831300000004 O
atom 5.3492658000000004 7.0817987200000001 1.9910550700000000 O
atom 5.2754296700000003 7.1167353400000000 6.9974894499999998 O
atom 0.2945905500000000 0.5889041600000000 4.6176568299999996 O
atom 0.3984203100000000 0.5849948500000000 9.3979358000000008 O
atom 0.3385041300000000 5.8460734299999997 4.4522806800000003 O
atom 0.3068717300000000 5.9046122499999996 9.4809421500000006 O
atom 5.2313857900000000 0.6966801900000000 4.5121627499999999 O
atom 5.2482744300000004 0.7346222200000000 9.5553442600000000 O
atom 5.3336938500000004 5.9051179200000004 4.4636240000000003 O
atom 5.2860025400000001 5.9245574100000002 9.5025916600000002 O
atom 4.7391278600000000 4.4526836300000001 1.9486486000000001 O
atom 4.5873572300000003 4.5295194600000004 6.9710247699999996 O
atom 4.7680929499999998 9.6135607499999995 1.9532894000000001 O
atom 4.5988551099999997 9.7387617300000002 7.0397362799999996 O
atom 9.7219025600000002 4.3309335100000004 2.1018194299999999 O
atom 9.5565780199999999 4.5137180399999997 6.9822366400000000 O
atom 9.9127211899999992 9.7433024199999991 1.8203240400000000 O
atom 9.5431627500000005 9.6666348499999994 6.9933106699999996 O
atom 4.5561608400000004 3.2151496100000001 4.4398594400000002 O
atom 4.6025936200000004 3.3229739500000002 9.4285320099999996 O
atom 4.6993669000000002 8.5077150800000005 4.5370911300000003 O
atom 4.5234891299999997 8.5332861700000002 9.4554009499999996 O
atom 9.3561819100000001 3.2833245799999999 4.5770974999999998 O
atom 9.5307243499999998 3.2872105700000001 9.4271776599999999 O
atom 9.5939844300000008 8.4372625499999998 4.4520422699999997 O
atom 9.5270428299999992 8.4499447900000000 9.4281193900000009 O
atom 2.4589459699999998 0.8105006000000000 2.2908959900000001 O
atom 2.6916958400000000 1.2547007200000000 7.3999302800000004 O
atom 2.6930850500000001 6.2957284800000002 2.4655471100000002 O
atom 2.6523219099999999 6.4538551200000001 7.5074599600000003 O
atom 7.7211879300000001 1.2056647199999999 2.5159447199999998 O
atom 7.5968373800000002 1.1747891600000000 7.5366866300000002 O
atom 7.7124411700000000 6.4005888200000003 2.5030719399999999 O
atom 7.6232031600000001 6.4398397799999998 7.5278191500000000 O
atom 2.5999323400000001 1.4264102700000001 9.9573429400000002 O
atom 2.6704737500000002 6.6636751600000004 5.0013383800000000 O
atom 2.6328203999999999 6.6265732399999999 9.9999966899999997 O
atom 7.6125337899999996 1.3374197400000001 5.0284747500000000 O
atom 7.6400279900000001 1.3561998099999999 10.0170652600000007 O
atom 7.6437730799999999 6.5673082899999997 5.0235673399999996 O
atom 7.6421344600000003 6.6104785300000000 10.0266070599999999 O
atom 2.3766534600000000 4.0894352800000000 5.0400927299999996 O
atom 2.2620183200000001 4.0200863000000000 9.9441818000000008 O
atom 2.3564891000000001 9.3478110700000006 5.0669272300000001 O
atom 2.1647211700000000 9.3822609000000003 10.2335612000000005 O
atom 7.1034214200000001 3.9681192900000002 5.0483741400000000 O
atom 7.2472482400000002 3.9751928599999999 10.0382493299999993 O
atom 7.2861907400000003 9.1881544000000002 4.9897505500000001 O
atom 7.2184632999999998 9.1912341400000006 10.0034867399999996 O
atom 2.4679601799999999 3.8144494999999998 2.3459899800000001 O
atom 2.2421884099999998 3.8428669800000002 7.4976004100000004 O
atom 2.5391811700000000 8.7163615900000000 2.6656270499999999 O
atom 2.2450800200000001 9.0520316500000000 7.5992002400000001 O
atom 7.2864768800000004 3.7942404600000001 2.5229642700000001 O
atom 7.2050721700000002 3.8397536400000001 7.5484304599999996 O
atom 7.4167717399999997 9.0119325600000000 2.4756895800000001 O
atom 7.2215204000000002 9.0053546600000001 7.4997943700000000 O
