lattice_vector 9.9754235500000004 0.0055312000000000 0.0911178900000000 
lattice_vector -0.0150697800000000 10.3949217899999997 -0.0836629500000000 
lattice_vector 0.0103172700000000 -0.0873681800000000 10.0191736700000007 
atom 1.1438840900000000 0.3278973500000000 1.1125229200000000 Si
atom 1.3489431900000000 0.1355470700000000 6.2856175700000003 Hf
atom 1.3069726800000001 5.3115784100000001 1.1626001600000000 Hf
atom 1.3548621999999999 5.3156206900000003 6.2307173899999997 Hf
atom 6.3360422400000003 0.2251148100000000 1.3751662300000000 Hf
atom 6.3155190000000001 0.0898592600000000 6.2751675400000000 Hf
atom 6.3646080800000000 5.4094755799999996 1.2942787200000001 Hf
atom 6.2965588900000000 5.3114460200000000 6.2357662100000004 Hf
atom 1.3543742999999999 2.2861395999999998 3.6423013300000000 Hf
atom 1.3230385800000000 2.4213126100000002 8.7835076200000000 Hf
atom 1.3495124700000001 7.5196517700000003 3.7436825200000001 Hf
atom 1.2931786999999999 7.6542460700000001 8.7572159200000002 Hf
atom 6.3303445299999996 2.3848284700000000 3.8650777700000001 Hf
atom 6.3918065600000000 2.4085427400000001 8.7704179000000000 Hf
atom 6.3596460099999996 7.6088040200000000 3.7786726100000001 Hf
atom 6.4190468799999998 7.5403030400000004 8.7112447999999993 Hf
atom 3.8758728900000001 2.7720351800000000 1.0704732500000000 Hf
atom 3.6272437399999999 2.7229287400000000 6.2790765300000002 Hf
atom 3.6647401500000001 7.8125765400000002 1.2870389700000000 Hf
atom 3.6473291799999998 7.9337058200000001 6.2294248899999998 Hf
atom 8.6348111700000008 2.7739616499999999 1.3059590999999999 Hf
atom 8.6854661400000008 2.7053305100000000 6.2755995699999998 Hf
atom 8.7370593200000002 7.9820202499999997 1.2662940600000001 Hf
atom 8.6900467599999995 7.9308251199999997 6.2347066800000004 Hf
atom 3.6688944499999998 4.9040246800000000 3.7381373400000002 Hf
atom 3.6570784199999999 5.0856031499999999 8.7132856000000007 Hf
atom 3.6168102100000001 10.1489885199999996 3.6215923999999999 Hf
atom 3.6716124400000001 10.2297917900000002 8.8889806100000008 La
atom 8.6513867700000002 4.9777880799999998 3.8074568400000000 Hf
atom 8.6605440999999992 4.9875751599999996 8.7739060299999991 Hf
atom 8.6991946999999996 10.2223708599999998 3.7174993700000001 Hf
atom 8.6179300500000000 10.1874614399999999 8.7408761800000008 Hf
atom 0.3125542900000000 1.8065689700000001 1.8333635200000000 O
atom 0.2657008100000000 1.8275716099999999 7.0701782599999996 O
atom 0.3645112700000000 7.0747612400000000 1.9171324700000001 O
atom 0.3258075000000000 7.0401055499999998 6.9324636000000002 O
atom 5.1552608199999996 1.7958134800000001 2.2886492399999998 O
atom 5.2632677799999996 1.7837012800000001 7.1086223700000000 O
atom 5.3633501600000004 7.0875127100000004 2.0316048400000000 O
atom 5.3052514000000004 6.9930404299999998 7.0147736399999996 O
atom 0.3097364400000000 0.6782074700000000 4.5673839300000001 O
atom 0.3455345700000000 0.5857895600000000 9.5666720299999994 O
atom 0.3361313100000000 5.8193014099999996 4.4548268400000000 O
atom 0.3310334100000000 5.8597788000000000 9.4375938599999998 O
atom 5.3505621999999997 0.6239357300000000 4.5381642700000002 O
atom 5.2594297499999998 1.1162090600000001 9.9392526599999993 O
atom 5.3586266800000004 5.8475685700000000 4.4403348300000003 O
atom 5.2434606099999996 6.0499599399999999 9.5983897500000008 O
atom 4.7238451599999998 4.4632082999999998 1.9514757700000001 O
atom 4.6212155299999997 4.4623002400000003 6.9543808599999997 O
atom 4.6334326199999998 9.6322992200000002 1.7355427000000001 O
atom 4.7310872899999996 9.5207590999999994 6.9364245400000000 O
atom 9.6773623200000003 4.4417414800000001 2.0499140499999999 O
atom 9.6382498900000009 4.4484556499999997 7.0036563599999999 O
atom 9.8018470000000004 9.7645365200000001 1.8681542000000000 O
atom 9.6371183899999995 9.6592304200000001 6.9863360300000004 O
atom 4.6981852100000001 3.2840819400000001 4.5837698099999997 O
atom 4.7179753599999996 3.4317654000000002 9.3836487999999996 O
atom 4.6914531000000004 8.4689224599999999 4.4596072099999997 O
atom 9.6416360099999991 3.2097937900000000 4.4664422699999999 O
atom 9.6339549000000009 3.2832426099999998 9.5591105800000005 O
atom 9.6510146900000002 8.4712302000000008 4.4402483799999999 O
atom 9.4847196799999995 8.4192463199999992 9.4347724799999995 O
atom 2.2230112900000001 0.6442466400000000 2.4890223100000002 O
atom 2.6109821700000002 1.2632548100000001 7.4891868800000001 O
atom 2.6616614500000000 6.1526855600000001 2.4220896700000001 O
atom 2.6606343699999999 6.4084979799999999 7.4638506800000002 O
atom 7.6861955300000000 1.2268536299999999 2.5672491599999998 O
atom 7.6346258799999998 1.1456793999999999 7.5600753899999997 O
atom 7.7370178599999999 6.3871925300000001 2.5158882700000000 O
atom 7.6623433099999998 6.3482670700000003 7.5210599399999998 O
atom 2.7392072500000002 1.3342269899999999 4.9218734299999998 O
atom 2.4371021800000001 1.4514418700000000 10.2452523800000002 O
atom 2.7274994200000000 6.4922561300000003 4.9533630300000002 O
atom 2.6413369000000002 6.5940694700000000 9.9480447400000003 O
atom 7.6895432699999997 1.3341611000000000 5.0600834499999996 O
atom 7.7130595900000003 1.3154856399999999 10.0577567999999999 O
atom 7.6818440800000003 6.5431668299999997 5.0281531599999996 O
atom 7.6954351599999997 6.5357908900000004 10.0289502400000003 O
atom 2.2776855800000000 3.8994672900000000 4.9607039700000000 O
atom 2.3744391100000000 3.9916434000000001 9.9451654600000001 O
atom 2.3020703899999999 9.1452287000000005 4.9930281299999999 O
atom 2.0115369200000002 9.1944778500000002 10.2679244599999997 O
atom 7.3204730600000003 3.9421764200000000 5.0290694599999997 O
atom 7.2969999100000003 3.9494162400000001 10.0228228000000001 O
atom 7.3443489199999998 9.1586022600000003 4.9478840000000002 O
atom 7.0775144900000004 9.1762601499999992 9.9087355600000002 O
atom 2.4632275199999998 3.5271108899999999 2.4367991600000001 O
atom 2.2720895200000002 3.8073239100000000 7.4913494600000003 O
atom 2.6030717900000000 8.6010179999999998 2.6793239299999998 O
atom 2.2277195299999999 8.9469578900000002 7.4643683599999999 O
atom 7.2724363399999996 3.7857121999999999 2.5247635800000001 O
atom 7.3029876700000003 3.7696217999999999 7.4986555600000004 O
atom 7.3724547600000001 8.9987811900000008 2.4482752699999999 O
atom 7.3179695699999998 8.9331104400000001 7.4427791799999996 O
