lattice_vector 10.0852004799999992 0.0437260400000000 0.8112198800000000 
lattice_vector 0.0586913300000000 10.2533432100000006 0.0083569800000000 
lattice_vector 0.8099151700000000 -0.0457793200000000 10.4281076400000003 
atom 1.4071916000000000 0.1421277900000000 1.7686855500000001 Si
atom 1.8623203200000000 0.2032550400000000 6.8199803699999997 Hf
atom 1.5722765400000001 5.3613441899999996 1.6523311100000000 Hf
atom 1.9658246500000001 5.2763622400000001 6.8523915899999999 Hf
atom 6.5797317499999997 0.2599166300000000 2.0272534900000001 Hf
atom 6.9323414200000002 0.2548668000000000 7.3177369499999996 Hf
atom 6.5770079199999998 5.3414935600000000 2.0297149000000001 Hf
atom 6.9740533300000003 5.3455133500000001 7.2907558999999997 Hf
atom 1.7197739200000000 2.3511757200000001 4.1681544500000003 Hf
atom 2.1834092300000001 2.2653234000000002 9.4390398999999992 Hf
atom 1.7379318900000000 7.4752834999999997 4.2610704899999998 Hf
atom 2.1450100600000002 7.4202922999999998 9.4453993999999994 Hf
atom 6.7730446700000000 2.3482779200000001 4.6418752699999999 Hf
atom 7.2135123099999996 2.3707508499999999 9.8976994900000008 Hf
atom 6.7669665500000002 7.6060427300000004 4.6232936300000000 La
atom 7.1729135299999998 7.4685481700000000 9.8954910999999992 Hf
atom 3.7169375900000001 2.7637907600000000 1.3245572699999999 Hf
atom 4.1368728299999997 2.7655647200000000 6.5733268200000001 Hf
atom 3.7275964500000001 7.9984511800000000 1.4047379400000000 Hf
atom 4.1037116200000003 7.9021743899999999 6.6539821799999999 Hf
atom 8.9059179400000001 2.7675753200000002 1.8243564400000001 Hf
atom 9.1822743300000003 2.7956154000000000 7.0056450000000003 Hf
atom 8.8647452199999996 7.9574012200000004 1.7699608400000000 Hf
atom 9.2527364799999994 7.8362130700000003 7.0964009299999997 Hf
atom 3.9702932899999999 4.8996016600000001 3.9647471599999999 Hf
atom 4.3698416900000003 4.8970621799999998 9.2173543999999996 Hf
atom 3.9197835300000001 10.0659956099999999 3.9386473999999998 Hf
atom 4.3883830399999999 10.0855963099999997 9.2256769799999994 Hf
atom 8.9821480099999995 4.9451813199999997 4.3955938400000001 Hf
atom 9.4197446599999992 4.8904704499999996 9.6545642800000007 Hf
atom 9.1383199000000008 10.1185761400000001 4.3380155900000004 Hf
atom 9.4244943299999999 10.0458733799999997 9.6064980099999993 Hf
atom 0.6443112700000000 1.5107091699999999 0.8980475800000000 O
atom 0.7911660000000000 1.6543187200000000 5.9676170600000003 O
atom 0.4951830900000000 6.8588261900000003 0.8547245400000000 O
atom 0.8869613000000000 6.8203082000000004 6.1168258499999997 O
atom 5.4978967799999996 1.7733364000000000 1.2766938200000000 O
atom 5.8851801899999998 1.7486757100000001 6.4818353100000001 O
atom 5.5035422199999999 6.9257802000000002 1.3136069600000000 O
atom 5.8199751900000001 6.8491449199999996 6.6477405200000002 O
atom 0.7245184099999999 0.7649514200000000 3.3399362699999999 O
atom 1.0045495200000001 0.8244070800000000 8.6477876200000008 O
atom 0.6628047100000000 5.9376752000000002 3.4936994499999998 O
atom 1.0588731600000001 5.9284974000000004 8.6927247899999998 O
atom 5.6839908699999997 0.7938019400000000 3.8809239099999999 O
atom 6.1321144199999997 0.8175884100000000 9.1073695200000007 O
atom 5.7330851100000002 5.7870347000000004 3.8686273999999998 O
atom 6.1094795099999999 5.9343939199999998 9.1421277500000002 O
atom 4.8108972100000003 4.3202372100000002 2.0993384499999999 O
atom 5.2320266100000001 4.2722535099999996 7.3757777000000004 O
atom 4.9210362400000003 9.4073773299999992 2.2017999800000001 O
atom 5.2809824599999997 9.4285155500000002 7.3472399399999997 O
atom 9.9744499999999992 4.2677891299999997 2.6067281200000001 O
atom 10.3079369799999991 4.2554476100000000 7.8123641800000003 O
atom 10.1270231800000001 9.4628510800000001 2.5576914099999999 O
atom 10.2911881199999993 9.4136759300000001 7.8087454899999997 O
atom 5.0111016199999998 3.3360526400000001 4.7286649699999996 O
atom 5.5239846000000004 3.4455778800000001 9.9916018799999993 O
atom 4.7420933200000004 8.4979204500000005 4.7870234500000004 O
atom 5.3983590200000000 8.5155402000000002 9.9997298600000004 O
atom 10.0485484399999994 3.3792907300000001 5.1531356900000000 O
atom 10.5557845300000004 3.3903736900000001 10.4687556300000004 O
atom 9.9368893800000002 8.4929963399999995 5.2082790200000000 O
atom 10.5214800000000004 8.5370439600000001 10.3894048600000009 O
atom 2.8310462099999998 1.1760486600000000 2.4611525799999998 O
atom 3.3545823499999998 1.2710218799999999 7.8319394200000003 O
atom 3.0065598499999999 6.4911774900000001 2.7555099300000001 O
atom 3.3782247700000001 6.4055420999999999 7.9628445200000000 O
atom 8.0599836600000003 1.3718889299999999 3.1500437400000001 O
atom 8.4488331700000003 1.3488145700000000 8.3619316399999999 O
atom 8.1611993300000005 6.4159050100000004 3.0492374299999998 O
atom 8.4583238299999994 6.4323118299999997 8.4272818500000000 O
atom 3.1660819400000002 1.2572057599999999 5.2316482500000001 O
atom 3.8365019299999998 1.4654416400000001 10.2776384200000006 O
atom 3.1854192800000001 6.3340520700000003 5.3524433100000000 O
atom 3.6355671699999998 6.4257811699999996 10.5610255599999991 O
atom 8.2012941599999998 1.1104159400000000 5.7573627900000002 O
atom 8.6831377599999993 1.2299560500000000 10.9850470900000001 O
atom 8.3233745399999997 6.2968721299999997 5.8793280499999998 O
atom 8.6643880099999997 6.3676493199999999 10.9629456399999992 O
atom 2.2948806500000001 3.9695050099999998 0.2670662900000000 O
atom 2.6606664100000001 3.8514704100000001 5.4742541500000002 O
atom 2.3180378600000000 9.4241928599999998 0.4870947500000000 O
atom 2.5343150799999998 9.0070790899999995 5.5376387800000000 O
atom 7.4040198899999998 3.8918811199999999 0.7241773000000000 O
atom 7.7063960500000004 3.8462804899999998 5.9134013599999999 O
atom 7.3427252599999999 9.0589826200000001 0.6567319800000000 O
atom 2.5123034199999998 3.7595847000000000 2.8732869800000000 O
atom 2.9037383499999998 3.7571848200000000 8.1017362500000001 O
atom 2.4051250199999998 8.9728631500000002 2.8853974099999999 O
atom 2.9231716799999998 8.9094316100000004 8.1822705500000001 O
atom 7.5728707799999997 3.7961196400000001 3.2892961100000000 O
atom 7.9526365600000002 3.8135104300000000 8.5399563399999998 O
atom 7.7776453999999999 9.0978481000000002 3.1787105699999998 O
atom 7.9318781500000002 8.9130244100000002 8.4682136700000008 O
