lattice_vector 5.0255325600000003 0.0303166500000000 -0.0483413600000000 
lattice_vector 0.0044823600000000 10.3931504799999992 -0.0362639500000000 
lattice_vector -0.0273616800000000 -0.0557610000000000 10.0872956100000000 
atom 1.2343734300000000 0.0433997200000000 1.1750821199999999 La
atom 1.2900267700000001 0.1560815400000000 6.2677491700000001 Hf
atom 1.3281698300000000 5.3567230600000002 1.2388081799999999 Hf
atom 1.3292003500000000 5.3479157500000003 6.2634241599999996 Hf
atom 1.3301950000000000 2.4280356599999999 3.7333954000000000 Hf
atom 1.3970275999999999 2.4931753200000002 8.7114609099999996 Hf
atom 1.3099052799999999 7.5971183599999996 3.7880471500000001 Hf
atom 1.3665848300000001 7.5616503000000002 8.7923660399999992 Hf
atom 3.6435559700000000 2.7805675999999999 1.2328352899999999 Hf
atom 3.6843086999999999 2.7570142999999998 6.2073339699999996 Hf
atom 3.6596215000000001 7.9297959699999998 1.2571136900000000 Hf
atom 3.6792734700000000 7.9404387800000000 6.2200214300000001 Hf
atom 3.6606822299999999 5.0245859700000004 3.7214360499999999 Hf
atom 3.6993152999999999 4.9862270500000001 8.7880183400000007 Hf
atom 3.6113488800000000 10.2246085799999999 3.7448072300000002 Hf
atom 3.5809572400000000 10.1695131399999994 8.6573093300000004 Hf
atom 0.2970106200000000 2.0103387399999999 1.9988443199999999 O
atom 0.3205913900000000 1.8701900400000000 7.0270583999999996 O
atom 0.3506616500000000 7.0804307099999999 1.9628085799999999 O
atom 0.3498187000000000 7.0718933300000000 6.9997617099999996 O
atom 0.3007085100000000 0.6859723000000000 4.4823254199999996 O
atom 0.3172559800000000 5.8601717100000004 4.4953170399999998 O
atom 0.3167407100000000 5.8972962700000000 9.5237919400000006 O
atom 4.6290427200000002 4.5579442099999996 1.8882743799999999 O
atom 4.7152850900000001 4.4763394999999999 6.9921159700000004 O
atom 4.4262703500000002 9.6682795499999994 1.9890863200000000 O
atom 4.6427312399999998 9.6910954399999998 6.9193478500000003 O
atom 4.6575329300000003 3.3141263500000000 4.4502140600000004 O
atom 4.7130996300000003 3.2174791100000002 9.4798790400000001 O
atom 4.6558345599999997 8.4909643399999997 4.4636537599999997 O
atom 4.9067156299999999 8.7365352900000008 9.5556931899999995 O
atom 2.7655719300000001 1.3238956300000000 2.5403224400000002 O
atom 2.6935782700000002 1.2118000400000000 7.4506368700000003 O
atom 2.6862246399999998 6.3875705199999997 2.4715214099999998 O
atom 2.7259605499999999 6.3734662499999999 7.5117125299999996 O
atom 2.6402407000000001 1.3804929100000001 5.0150772600000000 O
atom 2.7512537300000002 1.3442920599999999 9.9076874700000008 O
atom 2.6903334900000000 6.5596458899999996 4.9916923200000003 O
atom 2.7060122199999999 6.4813154700000002 10.0354053000000008 O
atom 2.3033185800000000 3.9835540300000001 4.9829908100000004 O
atom 2.3143578800000002 3.9514799500000000 10.0101978099999993 O
atom 2.2783253000000001 9.1585400200000002 5.0048510200000003 O
atom 2.4978398400000001 8.9709488799999999 9.9102357300000001 O
atom 2.2721224200000001 3.8472328199999999 2.4633022300000000 O
atom 2.3533381200000001 3.8003488999999999 7.4810909800000003 O
atom 2.2889125500000000 8.8732337500000007 2.5421230300000000 O
atom 2.3017745299999999 8.9831064800000000 7.4730926799999997 O
