lattice_vector 10.0335382000000006 0.0624536500000000 0.7968515200000000 
lattice_vector 0.0685609400000000 10.1639541500000004 -0.0593385300000000 
lattice_vector 0.8797008400000000 -0.0272522700000000 10.4586956600000001 
atom 1.2914230300000000 0.1993411200000000 1.7511498000000001 Si
atom 1.9304164200000000 0.1969542700000000 6.8458572699999998 Hf
atom 1.5548502399999999 5.3320043400000001 1.6073193200000000 Hf
atom 2.0050425600000001 5.2696409299999996 6.8331914800000000 Hf
atom 6.5371038300000004 0.2810299000000000 2.0353139300000000 Hf
atom 6.9877677499999997 0.2185661100000000 7.2612351700000000 Hf
atom 6.3408898200000001 5.3146865300000004 2.1170551400000002 Si
atom 6.9814875000000001 5.3101129100000000 7.2150479100000000 Hf
atom 1.7294430700000001 2.2821152300000001 4.1530219600000002 Hf
atom 2.1972768399999998 2.2949678699999998 9.4716610400000008 Hf
atom 1.7944182700000000 7.3696890399999999 4.2230876500000001 Hf
atom 2.2094729300000000 7.4197960600000004 9.4361541300000003 Hf
atom 6.7770387599999999 2.3183456800000002 4.6516728599999997 Hf
atom 7.1915934500000001 2.3683493100000002 9.8640693800000001 Hf
atom 6.7808052500000002 7.3946510600000002 4.5216061800000000 Hf
atom 7.2484687499999998 7.4084783600000002 9.8395768900000000 Hf
atom 3.7153877700000000 2.7585720800000000 1.3204095800000000 Hf
atom 4.1532385200000004 2.7445470300000001 6.5905454499999996 Hf
atom 3.7488467299999999 7.8904950500000002 1.3920548300000000 Hf
atom 4.2245128000000003 7.8500689799999996 6.5946439699999999 Hf
atom 8.7327931200000002 2.8383524300000000 1.8217189600000001 Hf
atom 9.2071905500000000 2.7996688299999999 7.0236189900000001 Hf
atom 8.7665480700000007 7.8718622299999996 1.6896218999999999 Hf
atom 9.2043879099999995 7.8578626399999996 6.9592889299999996 Hf
atom 3.9688461799999999 4.8343941800000003 3.9721796100000000 Hf
atom 4.4047302500000001 4.8957400099999999 9.2039149800000004 Hf
atom 3.9728748999999999 9.9247110599999999 3.9019574200000000 Hf
atom 4.4504329000000000 10.0059517400000004 9.2298161400000005 Hf
atom 8.9556198200000008 4.8739034999999999 4.3303485999999998 Hf
atom 9.4332504000000004 4.9555469099999998 9.6591019399999993 Hf
atom 9.0196443199999994 9.9473293100000006 4.3411384799999997 Hf
atom 9.4562336499999997 10.0091734799999994 9.5729127700000003 Hf
atom 0.5715333200000000 1.4910136400000000 0.8524211500000000 O
atom 0.8287385600000000 1.5948871499999999 5.9449143700000002 O
atom 0.4453640500000000 6.7480895199999997 0.7727171000000000 O
atom 0.8741176500000000 6.6989309600000002 6.0107024600000001 O
atom 5.4277147799999996 1.6973848000000000 1.2010225999999999 O
atom 5.8566824999999998 1.6480496499999999 6.4394141200000004 O
atom 5.6218803399999997 6.6055934399999998 1.2201529000000000 O
atom 5.8795476500000001 6.7074933899999998 6.3132671499999997 O
atom 0.6504045400000000 0.7761635600000000 3.3207637999999999 O
atom 1.0285463800000001 0.9151943000000000 8.6064851000000004 O
atom 0.6199815300000000 5.9626187699999997 3.3765094400000000 O
atom 1.1472331600000001 5.9451341900000001 8.6393469500000002 O
atom 5.6020455100000000 0.9115215200000000 3.8047378300000001 O
atom 6.1298303100000000 0.8937028900000000 9.0674253700000005 O
atom 5.7017644699999996 5.8892115499999997 3.6881934900000002 O
atom 6.0794579600000000 6.0283154999999997 8.9752772499999995 O
atom 4.9726242000000003 4.2461787500000003 2.1745646199999999 O
atom 5.2998061700000001 4.1800970800000004 7.4339449699999998 O
atom 4.9743632299999998 9.2369355800000008 2.1913015499999999 O
atom 5.3614463199999998 9.2723422099999997 7.4240998899999999 O
atom 9.9580739200000004 4.1857781799999998 2.6200516700000001 O
atom 10.3438364299999996 4.2218296700000000 7.8532650600000000 O
atom 10.0242022199999994 9.3583639800000000 2.5444410999999998 O
atom 10.3512690799999998 9.2932001599999996 7.8029084099999997 O
atom 5.0920515999999996 3.4295096599999999 4.8281560199999998 O
atom 5.5752494600000002 3.5275890200000002 10.0732905299999995 O
atom 5.1008218500000000 8.4967810700000008 4.7587706499999998 O
atom 5.5034364699999996 8.5009173400000009 10.0894490399999999 O
atom 10.0839202300000004 3.4468854000000002 5.1882773699999998 O
atom 10.4858123699999997 3.4501515999999999 10.5187331000000004 O
atom 10.1430230300000002 8.5425762400000007 5.1972591899999996 O
atom 10.6264334599999994 8.6409465599999997 10.4425370799999992 O
atom 2.7870396199999998 1.1472627700000000 2.4606287099999999 O
atom 3.3971291400000001 1.2698813499999999 7.8646984900000003 O
atom 3.0351895299999998 6.3540821999999997 2.6940096200000001 O
atom 3.4675027900000002 6.3927332999999997 7.9067464100000002 O
atom 8.0175794899999993 1.3011293300000000 3.1220773400000001 O
atom 8.4499738200000003 1.3420997500000000 8.3351126200000003 O
atom 7.8385250800000001 6.2604786499999996 2.8300464999999999 O
atom 8.4483906700000002 6.3833885300000004 8.2337333000000008 O
atom 3.1978024199999999 1.2432681400000001 5.2298023400000000 O
atom 3.8550132800000001 1.4952649400000000 10.3132652199999999 O
atom 3.2640495899999999 6.2900522600000004 5.3074366599999996 O
atom 3.6933761800000000 6.4170977799999998 10.5444488900000000 O
atom 8.2466403699999997 1.2390403699999999 5.7356949000000004 O
atom 8.6758369200000001 1.3668296099999999 10.9726381499999999 O
atom 8.2490337799999995 6.3562453600000000 5.5990776000000002 O
atom 8.9058835199999997 6.6089854800000003 10.6824068400000005 O
atom 2.2729291699999998 3.9443368200000002 0.2569261500000000 O
atom 2.6895452000000000 3.8147779800000001 5.4769038300000004 O
atom 2.2946158099999998 9.3168847400000008 0.4960224600000000 O
atom 2.7602688299999998 8.9071698900000005 5.5021220000000000 O
atom 7.2775277500000000 4.2679904700000000 0.9267930400000000 O
atom 7.7427799799999999 3.8562532900000002 5.9314969299999998 O
atom 7.3240350899999997 9.0578415499999991 0.6255311600000000 O
atom 7.7402090799999996 8.9277135899999998 5.8454332500000001 O
atom 2.5783211599999998 3.7195952800000001 2.8715452400000001 O
atom 2.9435087599999998 3.7598166800000001 8.1227322199999996 O
atom 2.5313009599999998 8.7975934900000006 2.9035684399999999 O
atom 2.9922235900000000 8.8714836199999993 8.1635089700000005 O
atom 7.5180319500000001 3.7432654200000002 3.3342484200000002 O
atom 7.9750014800000004 3.8209708500000001 8.5928432600000004 O
atom 7.6289436600000000 8.8323574699999998 3.2403418500000001 O
atom 7.9949411100000001 8.8732784200000001 8.4914801799999999 O
