lattice_vector 9.9819304500000001 -0.0632604700000000 -0.0007710000000000 
lattice_vector -0.2089195000000000 10.2819104899999996 0.0711852000000000 
lattice_vector -0.0318585900000000 0.1967478800000000 9.9803374399999996 
atom 1.3462925400000001 -0.0549308800000000 1.3930766600000000 Si
atom 1.1460899200000001 0.2272050800000000 6.4555279499999996 Hf
atom 1.1279621500000001 5.0891207300000003 1.2325571399999999 Hf
atom 1.0898709200000001 5.1335300500000001 6.1130925200000004 Hf
atom 6.4100171200000000 0.0388135400000000 1.2025412799999999 Hf
atom 6.2620242599999996 0.3224732200000000 6.3794071600000004 Hf
atom 6.0106279799999998 5.0998553199999996 1.3261611000000000 Hf
atom 5.8504854799999997 5.2045809600000004 6.0713024700000000 Hf
atom 1.2347496200000001 2.5309589600000000 3.6356448499999998 Hf
atom 0.9811836000000000 2.9217813300000000 8.6451104200000000 Hf
atom 1.2090677900000000 7.6739648599999999 3.7506232800000001 Hf
atom 1.2627990200000001 7.7152795699999999 8.6224007799999995 Hf
atom 6.3445210799999998 2.4437120200000000 3.5655418900000000 Hf
atom 6.0539811500000003 2.8759992200000002 8.6538479499999994 Hf
atom 6.1751404699999997 7.9364479699999997 3.9835233900000002 Hf
atom 6.1509079499999997 8.0189961899999993 8.8926991999999991 Hf
atom 3.6701077099999999 2.5162381100000002 1.2155339999999999 Hf
atom 3.6016115100000001 2.5304859600000000 6.1738011799999999 Hf
atom 3.6351950099999999 7.6587441800000002 1.3222395400000000 Hf
atom 3.7833471599999999 7.9691286699999999 6.3359621400000004 Hf
atom 8.6354172800000004 2.6946657400000000 1.0488365200000000 Hf
atom 8.6721572499999997 2.6250807699999998 6.0133266200000000 Hf
atom 8.6591558800000001 7.5437399899999997 1.3756182500000000 Hf
atom 8.8023651800000007 7.7689924899999996 6.2845418200000003 Hf
atom 3.7868262000000001 -0.0169691300000000 3.7581577099999999 Hf
atom 3.6754594599999999 0.1234567500000000 8.8550296799999995 Hf
atom 3.4854900799999999 5.1159592800000002 3.6796258599999998 Si
atom 3.6576070700000001 5.3415328000000004 8.5962959500000000 Hf
atom 8.8869798899999992 -0.1016212100000000 3.7804436699999999 Hf
atom 8.9110385099999991 0.1035913500000000 8.9997509499999992 Hf
atom 8.4009770100000001 5.2696602600000002 3.8603590099999998 Hf
atom 8.4598457600000003 5.4949023199999996 8.7249251500000007 Hf
atom -0.0901320900000000 1.5952803099999999 -0.0519873100000000 O
atom -0.0113929400000000 1.4937536100000000 4.9232288300000002 O
atom -0.0914345600000000 6.7924041500000003 -0.0061519100000000 O
atom -0.0692044900000000 6.6354246400000001 5.0054156399999998 O
atom 4.8538134299999998 1.4935628999999999 -0.0670276300000000 O
atom 4.9966522900000001 1.7170176800000001 4.9561274800000001 O
atom 4.9342635699999997 6.6368236500000002 0.1559675000000000 O
atom 4.9040995100000000 6.8043419900000002 5.0983448999999998 O
atom 0.4547757600000000 0.7649929600000001 2.5289945999999999 O
atom -0.2577860200000000 1.3461090200000001 7.4468818700000003 O
atom -0.3641125500000000 5.9702612899999998 2.3929387200000001 O
atom -0.0509180200000000 6.3739415800000003 7.4642920300000002 O
atom 5.2353929700000004 0.8969007200000000 2.5555976100000000 O
atom 4.8024000700000000 1.2465479399999999 7.4711388400000001 O
atom 4.4321277500000003 5.9136542099999998 2.5749932000000002 O
atom 4.9887232700000004 6.4812144700000003 7.5658879499999996 O
atom 0.1886866400000000 3.4059296200000002 2.1996806000000002 O
atom -0.2466530100000000 3.8755174299999999 7.3004094400000001 O
atom -0.4801053800000000 8.4983251899999992 2.9692458899999998 O
atom -0.1913611700000000 9.0428527699999997 7.8232861800000002 O
atom 5.1467882100000004 3.4284983300000000 2.2767522300000000 O
atom 4.7418689299999999 3.8390981100000001 7.3192341299999999 O
atom 4.6350326600000002 8.6043250899999997 2.7723262800000001 O
atom 4.8087607800000001 9.0344385299999992 7.7045982899999998 O
atom -0.1797438700000000 4.2031775500000004 -0.1567137200000000 O
atom -0.2782604500000000 4.0893088300000002 4.7684640299999996 O
atom 0.0360612200000000 9.3781988500000004 0.5560752900000000 O
atom 0.0507301500000000 9.2358217699999994 5.2382347200000003 O
atom 4.7780254099999997 4.0769975699999996 -0.0853307400000000 O
atom 4.4010244299999997 4.2940194800000002 4.7949901700000002 O
atom 4.9191087900000001 9.2210649300000007 0.1977358000000000 O
atom 4.9742151699999999 9.4140941900000001 5.1533463700000004 O
atom 2.8686960500000001 1.6708537800000001 2.8627901499999999 O
atom 2.3305936300000001 1.6174815499999999 7.7552594099999999 O
atom 1.9967441399999999 6.8017376199999999 2.1299688799999998 O
atom 2.4067404400000001 6.7266926099999997 7.1838389200000003 O
atom 7.7993656500000004 1.4592015500000000 2.4392133500000002 O
atom 7.1658578100000003 2.0568519799999998 7.2191300800000002 O
atom 7.0864106800000002 6.6262493100000004 2.6538127399999998 O
atom 7.5994484199999999 7.2051489499999999 7.7948037100000001 O
atom 2.4432383400000002 0.7445936600000000 0.4389644800000000 O
atom 2.6078169400000002 0.8687521700000000 5.2331033800000002 O
atom 2.3212360799999998 6.0003920099999997 -0.2253196700000000 O
atom 2.3361380999999999 5.9329924900000002 4.5566107300000001 O
atom 7.4289154100000001 1.1749200799999999 -0.1404136900000000 O
atom 7.5156956199999998 1.1358870700000001 4.9005808100000001 O
atom 7.3816576600000001 6.2270618100000004 0.1875862300000000 O
atom 7.3905759299999998 6.3937285700000004 5.2463364199999996 O
atom 2.2112238000000000 3.4299973300000000 0.1989060200000000 O
atom 1.9986257900000000 3.3894340100000000 5.3157151899999997 O
atom 2.5673333700000001 8.5362974999999999 -0.1706416300000000 O
atom 2.6296474399999998 8.5819658400000005 4.7887959400000000 O
atom 7.2561503199999997 3.7281985199999998 0.0052639700000000 O
atom 7.1203772000000001 3.8011364699999999 5.0045333300000001 O
atom 7.5007058100000004 8.8217740599999992 0.2139922900000000 O
atom 7.5038060299999998 8.9247994599999991 5.2018211200000000 O
atom 2.5252842300000000 4.1807994700000002 2.6907353700000001 O
atom 2.2446523699999998 4.2739773400000001 7.6229003799999999 O
atom 2.1356695100000000 9.3178834300000002 2.4396034000000002 O
atom 2.3254499599999998 9.3094192000000007 7.4246489899999997 O
atom 7.5234040999999996 4.0390900500000004 2.4857306200000000 O
atom 7.0884279399999999 4.6055504699999998 7.5901865099999997 O
atom 7.1832821400000002 9.2849312699999995 2.7041203399999998 O
atom 7.1946570400000001 9.7492191699999999 7.8372778099999998 O
