lattice_vector 10.1831890000000005 -0.0283390000000000 0.8597490000000000 
lattice_vector -0.0234970000000000 10.3451199999999996 0.0035940000000000 
lattice_vector 0.8490170000000000 -0.0107810000000000 10.4614360000000008 
atom 1.4948830000000000 0.1272080000000000 1.6118939999999999 La
atom 1.9807470000000000 0.2005910000000000 6.8856089999999996 Hf
atom 1.5241060000000000 5.3763030000000001 1.6256830000000000 Hf
atom 1.9459500000000001 5.3559250000000000 6.8826630000000000 Hf
atom 6.6479939999999997 0.1918840000000000 2.0847080000000000 Hf
atom 7.0110190000000001 0.1078830000000000 7.2723589999999998 La
atom 6.6132099999999996 5.3471060000000001 2.0817169999999998 Hf
atom 7.0402329999999997 5.3566649999999996 7.2862489999999998 Hf
atom 1.7605329999999999 2.3577300000000001 4.2877950000000000 Hf
atom 2.1463980000000000 2.4020340000000000 9.4772189999999998 Hf
atom 1.7696890000000001 7.5068229999999998 4.2500640000000001 Hf
atom 2.1485919999999998 7.4993499999999997 9.4897779999999994 Hf
atom 6.8134550000000003 2.3933460000000002 4.6763040000000000 Hf
atom 7.2765849999999999 2.3381550000000000 9.9483049999999995 Hf
atom 6.8157889999999997 7.4904979999999997 4.6888139999999998 Hf
atom 7.2857719999999997 7.4873870000000000 9.9107439999999993 Hf
atom 3.7554759999999998 2.7843490000000002 1.4061600000000001 Hf
atom 4.1615110000000000 2.8076629999999998 6.6145540000000000 Hf
atom 3.8187359999999999 7.9272419999999997 1.3933890000000000 Hf
atom 4.1173880000000000 7.9130170000000000 6.6210659999999999 Hf
atom 8.8287669999999991 2.7988339999999998 1.8136450000000000 Hf
atom 9.2716720000000006 2.7648579999999998 7.0666890000000002 Hf
atom 8.7844960000000007 7.9045259999999997 1.8203339999999999 Hf
atom 9.3346789999999995 7.9075689999999996 7.0538230000000004 Hf
atom 3.9406840000000001 4.9331860000000001 3.9845549999999998 Hf
atom 4.4020060000000001 4.9289440000000004 9.2507339999999996 Hf
atom 3.9849960000000002 10.1149869999999993 4.0411739999999998 Hf
atom 4.3386839999999998 10.1066749999999992 9.2775440000000007 Hf
atom 9.0691600000000001 4.9201870000000003 4.4497439999999999 Hf
atom 9.4567399999999999 4.9136699999999998 9.6451809999999991 Hf
atom 9.0058330000000009 10.0980489999999996 4.4766810000000001 Hf
atom 9.5010300000000001 10.0954850000000000 9.7016770000000001 Hf
atom 0.4019850000000000 1.9473170000000000 0.8267500000000000 O
atom 0.8694360000000000 1.7729159999999999 6.1510020000000001 O
atom 0.4183000000000000 6.9431159999999998 0.8864960000000000 O
atom 0.8755460000000000 6.8945270000000001 6.0929929999999999 O
atom 5.5364240000000002 1.7639590000000001 1.3500010000000000 O
atom 5.9179310000000003 1.9276230000000001 6.4873120000000002 O
atom 5.5425000000000004 6.8854680000000004 1.2921220000000000 O
atom 5.9343199999999996 6.9228829999999997 6.5464549999999999 O
atom 0.5638710000000000 0.8772900000000000 3.6410170000000002 O
atom 1.1050920000000000 0.8026160000000000 8.7592180000000006 O
atom 0.6289510000000000 6.0178450000000003 3.4714999999999998 O
atom 1.0270770000000000 5.9951629999999998 8.6970349999999996 O
atom 5.7721739999999997 0.7939140000000000 3.9582769999999998 O
atom 6.0798310000000004 0.8581890000000000 9.3012379999999997 O
atom 5.6941420000000003 5.9864780000000000 3.8960480000000000 O
atom 6.1447649999999996 5.9986959999999998 9.1317850000000007 O
atom 4.8579679999999996 4.3213229999999996 2.1625570000000001 O
atom 5.2552450000000004 4.3593169999999999 7.3950430000000003 O
atom 4.8612900000000003 9.5138250000000006 2.1647560000000001 O
atom 4.9931299999999998 9.4841329999999999 7.4504409999999996 O
atom 9.9222169999999998 4.3507480000000003 2.5940210000000001 O
atom 10.3738580000000002 4.3020730000000000 7.8230199999999996 O
atom 9.6592690000000001 9.4769179999999995 2.6485770000000000 O
atom 10.3771039999999992 9.4943760000000008 7.8250430000000000 O
atom 5.0326360000000001 3.4189790000000002 4.7305890000000002 O
atom 5.5337810000000003 3.4458030000000002 10.0455819999999996 O
atom 5.0969959999999999 8.5941759999999991 4.8441159999999996 O
atom 5.6049740000000003 8.6151180000000007 10.0151629999999994 O
atom 10.2006879999999995 3.4366930000000000 5.2445230000000000 O
atom 10.5487789999999997 3.3992860000000000 10.3908699999999996 O
atom 10.2719140000000007 8.6058690000000002 5.2134960000000001 O
atom 10.6130689999999994 8.5744150000000001 10.5044810000000002 O
atom 3.1082410000000000 1.3929530000000001 2.8644729999999998 O
atom 3.4228220000000000 1.3433670000000000 7.9804610000000000 O
atom 3.0054650000000001 6.4453680000000002 2.7159559999999998 O
atom 3.4063509999999999 6.4822020000000000 7.9859159999999996 O
atom 8.0897659999999991 1.3348190000000000 3.1796899999999999 O
atom 8.6244960000000006 1.3733390000000001 8.5250450000000004 O
atom 8.0734790000000007 6.4733850000000004 3.1850350000000001 O
atom 8.5215099999999993 6.4258069999999998 8.3765909999999995 O
atom 3.2199520000000001 1.2252090000000000 5.4001239999999999 O
atom 3.6930209999999999 1.3217090000000000 10.5219830000000005 O
atom 3.2123379999999999 6.3863909999999997 5.3543219999999998 O
atom 3.6388680000000000 6.3715310000000001 10.5910989999999998 O
atom 8.3602080000000001 1.3131290000000000 5.7210099999999997 O
atom 8.7360930000000003 1.2057640000000001 11.0606930000000006 O
atom 8.3061849999999993 6.3628999999999998 5.7900970000000003 O
atom 8.7283819999999999 6.3670920000000004 11.0148329999999994 O
atom 2.2895189999999999 3.9239549999999999 0.2804730000000000 O
atom 2.6897920000000002 3.9170859999999998 5.5139690000000003 O
atom 2.4253760000000000 8.9290830000000003 0.1869090000000000 O
atom 2.7074590000000001 9.0723380000000002 5.5316710000000002 O
atom 7.3570669999999998 3.9083440000000000 0.7130420000000000 O
atom 7.8055029999999999 3.9044509999999999 5.9408609999999999 O
atom 7.3744880000000004 9.0635729999999999 0.7306600000000000 O
atom 7.9415019999999998 8.9095879999999994 5.8474700000000004 O
atom 2.4627279999999998 3.8332899999999999 2.8859560000000002 O
atom 2.9093840000000002 3.8508100000000001 8.1369340000000001 O
atom 2.6527409999999998 8.8727400000000003 2.9702639999999998 O
atom 2.7698510000000001 8.9779400000000003 8.1467419999999997 O
atom 7.5764139999999998 3.8420740000000002 3.3360690000000002 O
atom 7.9788100000000002 3.8135900000000000 8.5465529999999994 O
atom 7.4370110000000000 8.9689530000000008 3.3457129999999999 O
atom 8.1687399999999997 8.8532309999999992 8.6308360000000004 O
