lattice_vector 10.0616006700000007 -0.0039962200000000 -0.1937911200000000 
lattice_vector 0.0201313100000000 10.2704418900000007 0.0752599400000000 
lattice_vector -0.1044639000000000 -0.0164566600000000 10.4360551000000008 
atom 1.0423878799999999 0.2748064200000000 2.2183838900000001 Si
atom 1.1295644400000000 0.0156911000000000 6.7208959699999999 La
atom 1.3865203200000000 5.3770517599999996 1.7562416199999999 Hf
atom 1.3854086500000000 5.3135142399999999 7.0106891999999998 Hf
atom 1.3378009900000001 2.4695283200000002 4.3411380599999996 Hf
atom 1.3534150899999999 2.1911760100000000 9.5959193200000001 Hf
atom 1.4154790500000001 7.5269276600000001 4.3675082600000001 Hf
atom 1.3443956300000000 7.4914352199999996 9.5613923700000001 Hf
atom 3.5685453599999999 2.7487253900000002 1.6785547000000001 Hf
atom 3.5256886199999999 2.6994492499999998 6.9397522100000000 Hf
atom 3.5653815099999999 7.9637040700000004 1.6692548899999999 Hf
atom 3.6301194899999998 7.8731163000000004 6.9130696699999996 Hf
atom 3.5944470100000001 4.9155749300000000 4.3296532200000000 Hf
atom 3.5174234700000002 4.8566109900000001 9.5796240200000007 Hf
atom 3.6436861800000000 10.1207304800000006 4.2768347799999997 Hf
atom 3.5565166399999999 10.0279372700000007 9.5465743199999995 Hf
atom 6.3710119000000001 0.2195710900000000 0.7581822800000000 Hf
atom 6.3690433899999999 0.1988742400000000 5.9518021900000004 Hf
atom 6.4156832399999999 5.3459841199999998 0.7452750900000000 Hf
atom 6.3125094900000001 5.2605168000000004 5.9855795299999999 Hf
atom 6.3859442299999998 2.3728113099999999 3.3331160600000000 Hf
atom 6.3216853500000001 2.3591954999999998 8.5672481600000001 Hf
atom 6.3328343499999997 7.4805825800000001 3.3494274800000001 Hf
atom 6.3336819999999996 7.4456421900000000 8.6413653400000001 Hf
atom 8.7527612200000000 2.7445761300000000 0.7732975100000000 Hf
atom 8.6015883599999992 2.8097141400000001 5.9138375800000000 Hf
atom 8.7160887500000008 7.9139423400000002 0.7519120100000000 Hf
atom 8.6536208899999991 7.6983393400000004 6.0989027399999998 La
atom 8.6074589800000005 4.9432160300000003 3.3071286099999999 Hf
atom 8.6276476899999999 4.8510044600000004 8.6050782500000000 Hf
atom 8.5523339499999995 10.0304742299999994 3.4306800499999999 Hf
atom 8.4572218199999991 10.1543686999999991 8.8063756099999999 Hf
atom 0.5331247500000000 1.5070728499999999 1.0830706999999999 O
atom 0.3267732200000000 1.9761986700000000 6.1263796900000003 O
atom 0.3938525100000000 6.9397551399999999 0.9314374900000000 O
atom 0.7130647100000000 7.1102117800000002 6.3234135800000004 O
atom 0.2667526000000000 0.8518209799999999 3.6014428700000001 O
atom 0.1627385400000000 0.7481466200000000 8.7745727999999996 O
atom 0.2735031700000000 6.0382317499999996 3.5838142500000001 O
atom 0.3018695600000000 5.8897110399999999 8.7900003400000006 O
atom 4.6897937699999996 4.2539921800000000 0.8213144000000000 O
atom 4.6107690000000003 4.2269102700000003 6.0344814400000004 O
atom 4.7223151600000000 9.4128544000000005 0.8404696000000000 O
atom 4.6942670299999998 9.4302743899999992 6.0469343200000001 O
atom 4.6250841400000002 3.3683979100000001 3.4244368999999999 O
atom 4.6174099300000000 3.4000795400000001 8.6267182299999998 O
atom 4.6027969899999999 8.5718227000000002 3.3897391099999998 O
atom 4.6675923199999998 8.5467064900000000 8.6324817700000001 O
atom 2.5032118600000000 1.2536755500000001 2.8364297299999999 O
atom 2.6689779900000001 1.2095883900000000 8.1523450999999998 O
atom 2.7188654500000000 6.4898364500000003 3.0093592400000002 O
atom 2.7597435300000002 6.3342130200000000 8.2499620799999995 O
atom 3.0265594199999999 1.4265794999999999 0.2054688200000000 O
atom 2.7755958199999999 1.3514775600000000 5.4477540600000003 O
atom 2.7705997400000002 6.3852285699999998 0.4153963700000000 O
atom 2.8202828100000001 6.3579311499999998 5.6036970200000003 O
atom 2.2108809100000002 3.8906732000000002 3.0393297900000000 O
atom 2.1598277000000001 3.7531346800000001 8.2732631899999998 O
atom 2.0784495800000000 9.1699831599999992 2.8842235500000002 O
atom 2.2464608699999999 8.8402337299999996 8.2168359500000001 O
atom 2.1927748299999998 3.8715626799999998 0.4422363900000000 O
atom 2.1827755400000002 3.8785802600000001 5.6531115300000003 O
atom 2.3586146200000000 8.9398588100000005 0.2981033600000000 O
atom 2.4718978599999999 8.9046632999999993 5.4526594399999997 O
atom 5.3424576899999998 1.7130370500000001 1.6411749000000000 O
atom 5.3177959399999999 1.7040775699999999 6.8456107199999998 O
atom 5.3280647600000002 6.8541985399999996 1.6350504200000000 O
atom 5.3620738799999996 6.8679319500000000 6.8429278000000000 O
atom 5.3677741200000000 0.8520211700000000 4.2074478800000001 O
atom 5.3554963999999998 0.7782310700000000 9.4123570900000004 O
atom 5.2933865800000000 5.9737386299999997 4.2537379000000000 O
atom 5.2754255199999998 5.9492462100000001 9.4931038099999991 O
atom 9.7068621499999992 4.3300198500000002 1.5532453500000001 O
atom 9.5802745100000006 4.4630752999999999 6.7109868900000000 O
atom 9.7901900699999995 9.4926171299999993 1.7002989799999999 O
atom 9.6135458499999995 3.4111242800000001 4.1019725100000004 O
atom 9.6501440600000006 3.2639656300000000 9.4688439599999992 O
atom 9.8584880699999999 8.7879616600000006 4.3984543900000004 O
atom 9.5853484600000005 8.4882770900000004 9.2534762100000005 O
atom 7.6960738500000003 1.2824929100000000 9.9649531600000003 O
atom 7.7919244299999999 1.2544306700000001 4.6772854700000002 O
atom 7.7615090100000002 6.3766391300000000 9.9482426799999999 O
atom 7.6759567999999998 6.3013040199999999 4.6271323400000002 O
atom 7.8044535300000000 1.2999012200000000 2.0751268700000001 O
atom 7.8093987599999997 1.2694523200000001 7.2758326100000001 O
atom 7.7865315500000003 6.4677683000000004 2.0503102000000002 O
atom 7.5595366500000001 6.2132874999999999 7.4529132799999998 O
atom 7.2346241300000003 3.8040915300000000 9.9184219900000006 O
atom 7.2050695899999999 3.8203003500000001 4.6575526900000002 O
atom 7.1994048900000003 8.9438661199999991 10.0126667699999992 O
atom 7.1829685400000001 8.9801124500000000 4.6512506199999999 O
atom 7.2905468400000002 3.8504975300000002 2.0426320400000000 O
atom 7.2442945200000004 3.7658134699999999 7.2774618300000000 O
atom 7.3256595700000000 8.9839684000000002 2.1024324399999998 O
atom 7.3035687600000001 9.0852307799999998 7.4302175500000001 O
