lattice_vector 10.1397525999999996 0.0108287800000000 0.7801213299999999 
lattice_vector 0.0357330300000000 10.3124346100000004 0.0131257000000000 
lattice_vector 0.8145972100000000 0.0035838600000000 10.4401127400000000 
atom 1.4603290799999999 0.0429555200000000 1.5401116100000001 La
atom 1.9376741200000001 0.2079458500000000 6.8516946699999997 Hf
atom 1.5550816400000000 5.4095177000000003 1.6405165300000000 Hf
atom 1.9369987900000001 5.4096122600000003 6.8326367200000000 Hf
atom 6.5391052800000002 0.1646473600000000 2.0344730599999998 Hf
atom 7.0190856200000002 0.2451072700000000 7.2684121399999997 Hf
atom 6.6489189199999998 5.3055852600000000 2.0411316199999998 Hf
atom 7.0529406799999999 5.3851532600000001 7.2565889400000003 Hf
atom 1.7105049299999999 2.3755111499999999 4.2372120600000001 Hf
atom 2.3058551500000002 2.4588959600000000 9.2485170700000001 Hf
atom 1.7615024900000000 7.5271026599999997 4.2589404399999999 Hf
atom 2.1829372000000000 7.5112267099999999 9.4501617299999996 Hf
atom 6.7633458299999996 2.3713498400000002 4.6594384299999998 Hf
atom 7.2215862499999997 2.3702600899999999 9.8829839899999996 Hf
atom 6.7758342899999997 7.4962268099999996 4.6523282799999999 Hf
atom 7.3066468699999998 7.5010111400000001 9.8570165400000000 Hf
atom 3.7462814999999998 2.7871965200000002 1.3836298100000000 Hf
atom 4.1884417300000001 2.8260994500000001 6.5291818499999996 Hf
atom 3.8671405499999998 7.8813466600000002 1.3551379699999999 Hf
atom 4.1894496900000000 7.9618405399999999 6.5975629700000002 Hf
atom 9.0067934100000002 2.6309603099999999 1.8927535799999999 La
atom 9.2330970099999998 2.8200473900000000 7.0009078100000002 Hf
atom 8.8060488400000008 7.9232036600000004 1.7909134600000001 Hf
atom 9.2561495399999991 7.9923365100000003 6.9949536200000004 Hf
atom 3.9471061000000001 4.9573284199999996 3.9613546600000000 Hf
atom 4.4449145400000001 4.9650368399999998 9.1839416299999996 Hf
atom 3.9661165899999999 10.1110043500000000 4.0006345300000001 Hf
atom 4.4577552499999999 10.0675946199999995 9.1834966199999997 Hf
atom 9.0504802400000006 4.9978908999999998 4.4114354599999999 Hf
atom 9.4952224500000000 4.9000248400000004 9.6215915100000000 Hf
atom 8.9416902500000006 10.1277310600000003 4.4127587000000004 Hf
atom 9.4861372900000003 10.0875600799999994 9.6359042400000003 Hf
atom 0.8385399900000000 1.7470423300000000 6.1050732300000004 O
atom 0.5438561500000000 7.0702444599999996 0.9512625500000000 O
atom 0.8656942300000000 6.9546562500000002 6.1092695199999998 O
atom 5.4640822699999996 1.7172812099999999 1.2449312100000001 O
atom 5.8912667599999997 1.7373235600000001 6.4686172400000004 O
atom 5.5797518100000003 6.8422782099999999 1.2355903200000000 O
atom 5.9245274700000001 6.8956559799999999 6.4982488700000003 O
atom 0.3894970100000000 1.0867426400000000 3.3608712299999999 O
atom 1.1031536700000000 0.8263404400000000 8.8775044800000007 O
atom 0.6840689200000000 6.0243886699999996 3.5236227100000002 O
atom 1.1012794200000000 5.9596510499999997 8.7182366699999996 O
atom 5.5980592500000004 0.8635541600000000 3.8698012500000001 O
atom 6.1088805800000001 0.8692532400000000 9.0638799799999994 O
atom 5.6992083500000001 5.9899424600000000 3.8563451299999998 O
atom 6.1658584599999999 5.9907508600000003 9.0855650299999997 O
atom 4.8597672799999998 4.2995845199999998 2.1468226499999998 O
atom 5.3121497499999997 4.3225871099999997 7.3529559000000004 O
atom 4.8360657299999996 9.4662428700000003 2.1422800600000000 O
atom 5.3079927600000003 9.4739966100000004 7.3789046699999998 O
atom 9.9325725600000005 4.5304609999999998 2.5619377800000001 O
atom 10.3484401899999998 4.3528155200000000 7.7489964799999997 O
atom 9.5295960399999995 9.7015734600000005 2.4286300999999999 O
atom 10.3616981100000007 9.5240777500000000 7.7857664599999996 O
atom 5.0331229400000002 3.4274033799999999 4.7381018099999999 O
atom 5.4533873100000001 3.4238608600000000 9.9825828800000007 O
atom 5.0479481100000001 8.5686089299999999 4.7817184299999997 O
atom 5.6135208800000003 8.5860602900000007 9.9719002400000001 O
atom 10.1258510000000008 3.4836940900000002 5.1790987499999996 O
atom 10.6806789900000005 3.3920272100000002 10.2827164000000000 O
atom 10.1678690700000001 8.6570406099999992 5.1173418100000001 O
atom 10.5727785000000001 8.5534842300000005 10.3769260400000007 O
atom 2.9957473000000001 1.3885473399999999 2.7796592200000001 O
atom 3.4286913900000000 1.3441705900000001 7.8611480299999998 O
atom 3.0455129099999998 6.4667492900000001 2.7191568400000001 O
atom 3.4341181700000001 6.4990374700000002 7.9384826899999998 O
atom 7.8438047199999996 1.2463938500000000 3.2606512900000002 O
atom 8.4924715899999992 1.3502189499999999 8.3669658400000007 O
atom 8.0659453499999998 6.4920814499999997 3.1445335399999998 O
atom 8.5387989799999993 6.5017844900000004 8.3510393100000009 O
atom 3.1550192600000000 1.2527131400000000 5.3313843500000004 O
atom 3.5661471800000002 1.3303293000000000 10.4477561800000007 O
atom 3.2175712800000000 6.4212965700000000 5.3411589199999998 O
atom 3.6461785500000001 6.3412990400000000 10.5506886099999999 O
atom 8.2505894299999998 1.2764996399999999 5.7845833300000002 O
atom 8.5764061300000005 1.1375998500000000 10.9367880500000005 O
atom 8.3007791300000004 6.4458529200000001 5.7552449599999997 O
atom 8.7621699900000003 6.3707038100000002 10.9740751200000002 O
atom 2.2188083600000001 3.8560941400000002 0.2643141400000000 O
atom 2.6784180800000001 3.9412136400000000 5.4682909600000000 O
atom 2.5053657700000000 8.9128357600000001 0.1388142500000000 O
atom 2.7004511800000000 9.0949253199999998 5.5215870100000002 O
atom 7.3741804399999999 3.8966456599999999 0.6494819900000000 O
atom 7.7672333399999998 3.9322052900000002 5.9220189799999998 O
atom 7.3755655700000000 9.0001764400000006 0.6837194900000000 O
atom 7.7733837499999998 9.0866147700000006 5.9230965199999996 O
atom 2.4638448500000001 3.8469282200000001 2.8674349800000001 O
atom 2.9838393800000000 3.8754674900000001 8.0149357499999994 O
atom 2.5857436599999999 8.8831986799999996 2.9216831000000001 O
atom 2.9300280600000002 8.9924197199999991 8.0925683199999998 O
atom 7.5468213300000002 3.8623276400000002 3.3749312699999998 O
atom 8.0020840500000006 3.8324929499999998 8.5156685799999998 O
atom 7.4534853200000004 8.9343331700000004 3.3402727500000000 O
atom 8.0293704699999999 8.9929624799999992 8.5129939700000001 O
