lattice_vector 10.1087803300000001 0.0189889800000000 0.0094069800000000 
lattice_vector 0.0162802200000000 10.3111355600000003 0.0049041200000000 
lattice_vector -0.0032916900000000 0.0105728500000000 10.4770230099999999 
atom 1.2079199100000000 0.0151375700000000 1.5932407600000000 Hf
atom 1.3792055900000000 0.2558537300000000 7.1028407900000001 Hf
atom 1.4048629699999999 5.4024585600000004 1.7813149399999999 Hf
atom 1.4090268200000000 5.4017226699999998 7.0169676499999998 Hf
atom 1.2979503900000000 2.4744098600000002 4.3419277799999998 La
atom 1.4027415200000000 2.3932623700000000 9.7201810000000002 Hf
atom 1.4300054000000000 7.5462289399999998 4.4000397800000002 Hf
atom 1.3984607000000000 7.5233688699999997 9.6083733599999999 Hf
atom 3.7986739799999998 2.9327605800000001 1.6934220600000001 Hf
atom 3.6598757200000001 2.8392886000000002 7.0794856499999996 Hf
atom 3.6794078200000002 7.9073521099999997 1.7663804100000000 Hf
atom 3.6494472199999999 8.0152608999999995 7.0019223200000003 Hf
atom 3.6953728899999998 4.9819345200000003 4.4204192000000004 Hf
atom 3.6424617300000000 4.9981578400000002 9.5936556199999998 Hf
atom 3.6591046199999999 10.2601320499999993 4.3128361999999996 La
atom 3.6949188199999998 10.1057200999999992 9.6830086000000009 Hf
atom 6.4687079900000004 0.2193165900000000 0.8589143100000000 Hf
atom 6.4859303700000002 0.2196788600000000 6.1150244899999997 Hf
atom 6.5047628599999996 5.4095127800000000 0.7838781400000000 Hf
atom 6.4536139400000003 5.3866496300000000 6.0757017299999996 Hf
atom 6.5344797300000002 2.4009828400000002 3.4859549799999998 Hf
atom 6.4394842199999998 2.3752267400000000 8.7179268299999997 Hf
atom 6.4571312100000000 7.5332583399999997 3.4425890099999998 Hf
atom 6.4429824900000003 7.5420967200000000 8.6456471799999992 Hf
atom 8.7054027299999994 2.8200589200000001 0.8339873000000000 Hf
atom 8.6544301400000005 2.8133253499999999 6.1511500100000003 Hf
atom 8.6637821200000005 7.9141548999999998 0.7781786900000000 Hf
atom 8.7348074699999998 7.9686181600000001 6.0702889100000004 Hf
atom 8.6821314600000008 5.0185667299999999 3.4459758400000000 Hf
atom 8.7295751199999998 4.9585195100000004 8.6675417600000007 Hf
atom 8.7151247299999994 10.0974780600000003 3.4690632899999998 Hf
atom 8.7238387599999996 10.1086071099999995 8.7100639399999995 Hf
atom 0.3253191800000000 1.7379527200000000 0.9114871800000000 O
atom 0.2172539900000000 1.7061052600000000 6.2885965700000002 O
atom 0.3386058100000000 6.8992054200000004 0.8656052900000000 O
atom 0.3472781300000000 6.8660842000000004 6.0932639499999999 O
atom 0.5128675499999999 0.5806684300000000 3.3895994400000000 O
atom 0.3498527700000000 0.8148388100000000 8.8612259800000004 O
atom 0.3593701800000000 6.0115235299999998 3.4878618399999999 O
atom 0.3470612300000000 6.0166360399999999 8.7398882300000000 O
atom 4.7741251800000004 4.3438185599999999 0.8319807100000000 O
atom 4.7430974600000004 4.3090683800000003 6.1470465100000000 O
atom 4.7289557300000000 9.4605923000000001 0.9286706800000000 O
atom 4.7959997400000001 9.4516377299999998 6.1792144300000000 O
atom 4.6655005000000003 3.3090949099999998 3.5540350699999999 O
atom 4.7209139699999998 3.4686755699999998 8.7902672899999992 O
atom 4.7060633500000000 8.4466457399999992 3.4876465799999998 O
atom 4.7255184300000002 8.6365758300000000 8.7546680299999995 O
atom 2.7889656000000000 1.3215450700000000 8.4972950100000002 O
atom 2.7951176900000001 6.4463954100000000 3.0803880399999999 O
atom 2.7913714600000001 6.4646098099999998 8.2965918700000003 O
atom 2.7893280900000001 1.2884892500000000 0.7435800100000000 O
atom 2.7529936199999998 1.3800905999999999 5.9405948100000003 O
atom 2.7872411600000002 6.4450437000000003 0.4442138400000000 O
atom 2.8298594499999998 6.5204453100000004 5.6777180800000000 O
atom 2.4567300599999999 3.9572714000000002 2.9324598100000001 O
atom 2.2621138699999999 3.8858984300000001 8.3269599999999997 O
atom 2.1862279999999998 8.9408467999999992 2.9029138400000001 O
atom 2.2914897000000001 9.0339457500000009 8.3296293800000001 O
atom 2.3111879000000002 3.8998879199999998 0.4113792700000000 O
atom 2.3450898400000000 4.0245810999999998 5.7471461499999998 O
atom 2.2978326500000001 8.9957298800000007 0.3833125300000000 O
atom 2.1928045900000002 9.0312106900000000 5.7479362199999997 O
atom 5.3983897399999998 1.6916210400000000 1.8025956100000000 O
atom 5.3898466500000000 1.7258308800000000 7.0277925300000001 O
atom 5.4290520799999999 6.8547243499999997 1.7024199200000001 O
atom 5.3887164299999997 6.8976930400000001 6.9667622600000003 O
atom 5.6475109200000002 0.8897683600000000 4.3987752899999997 O
atom 5.3811712199999997 0.9090948400000000 9.6682073600000003 O
atom 5.4383241900000003 5.9719885799999997 4.3273683500000004 O
atom 5.3991148999999998 6.0487642499999996 9.5720327199999993 O
atom 9.8116312699999995 4.2774515900000001 1.7922018700000000 O
atom 9.7799121200000005 4.3234168500000001 7.0051079900000000 O
atom 9.5880049500000002 9.5140805499999992 1.5712740800000000 O
atom 9.7736585500000004 9.4726217699999999 6.9968850700000003 O
atom 9.5651481500000006 3.5786781400000001 4.4773713900000001 O
atom 9.7821689599999999 3.4666726799999998 9.6138977400000005 O
atom 9.7560370400000007 8.5693836200000000 4.3166791900000003 O
atom 9.7562356799999996 8.5706937399999994 9.5609809299999995 O
atom 7.8334048899999997 1.3005312899999999 10.0506989499999992 O
atom 8.0096463300000007 1.2840669700000000 4.7998182800000002 O
atom 7.8405420699999997 6.4558641899999998 9.9715859699999996 O
atom 7.8464353500000001 6.4531810800000002 4.7694706199999999 O
atom 7.8710852400000002 1.3322832499999999 2.1805427499999999 O
atom 7.8063913899999999 1.3030081800000000 7.4576677900000004 O
atom 7.8558342000000003 6.4814085400000003 2.1167811900000002 O
atom 7.8524791100000000 6.4677797300000002 7.3775186799999997 O
atom 7.3429055800000000 3.8823953200000001 10.0134116300000002 O
atom 7.2104671500000004 3.8626794300000000 4.8041893499999997 O
atom 7.3065253500000003 9.0331395400000005 10.0151571700000002 O
atom 7.3481845300000002 9.0236765200000004 4.7911053299999997 O
atom 7.3312105299999999 3.9237379200000002 2.1459554900000000 O
atom 7.3117171000000001 3.9006348800000001 7.4301151599999997 O
atom 7.3027105900000002 9.0433824600000001 2.1889435100000001 O
atom 7.3576411500000001 9.0296352100000004 7.4107251800000000 O
