lattice_vector 9.9971267699999995 0.0554233100000000 0.7510299100000000 
lattice_vector 0.0871964400000000 10.1775548100000002 -0.0293658200000000 
lattice_vector 0.8286504200000000 -0.0236403800000000 10.4056555500000005 
atom 1.3208309700000000 0.1042635100000000 1.8220515700000000 Si
atom 1.9001152200000000 0.2032802200000000 6.8061092800000003 Hf
atom 1.5757607100000000 5.2542850100000003 1.5978532999999999 Hf
atom 2.0159985100000002 5.2943243100000004 6.8562728000000002 Hf
atom 6.4763856200000003 0.2827598300000000 1.9501060400000001 Hf
atom 6.9247842999999998 0.2419516800000000 7.2099826299999998 Hf
atom 6.5360674599999999 5.3171622799999998 1.9687341199999999 Hf
atom 6.9961648500000004 5.3520981299999999 7.1692882000000004 Hf
atom 1.7152675500000001 2.2856071199999999 4.1632666100000000 Hf
atom 2.2417260300000001 2.3111336900000001 9.4465474300000007 Hf
atom 1.7666278799999999 7.4039171200000000 4.1954040499999996 Hf
atom 2.2506599199999999 7.3551118500000001 9.4070764499999999 Hf
atom 6.7327977199999998 2.3551807600000001 4.5769648700000003 Hf
atom 7.0553843000000001 2.4419586700000000 9.7771737400000003 Hf
atom 6.7870072199999996 7.4574185799999997 4.5485564800000002 Hf
atom 7.1486391800000000 7.4273829400000002 9.7907921800000004 Hf
atom 3.6291954099999999 2.7815073799999999 1.3211219599999999 Hf
atom 4.1555604600000002 2.8067037799999999 6.6034973499999996 Hf
atom 3.7077240900000001 7.9149305400000003 1.3301282400000001 Hf
atom 4.1914807100000004 7.8668149200000004 6.5419743199999996 Hf
atom 8.8130551799999992 2.7060725699999999 1.7400715899999999 Hf
atom 9.1350379299999993 2.7932127699999998 6.9400448499999996 Hf
atom 8.8065470200000000 7.8981328299999998 1.6966328799999999 Hf
atom 9.1679929399999995 7.8686294900000000 6.9390745100000002 Hf
atom 3.9706070000000002 4.8895384200000001 3.9610779500000000 Hf
atom 4.5502509900000003 4.9871111199999998 8.9443189699999994 Si
atom 3.9419881299999999 9.9764664700000001 3.8811523299999999 Hf
atom 4.3824010600000003 10.0160345999999993 9.1395853599999999 Hf
atom 8.9432968699999993 4.9065268800000004 4.3071162899999997 Hf
atom 9.3916213600000003 4.8654071600000002 9.5670677499999996 Hf
atom 8.9587010500000002 9.9737797900000000 4.3183171900000001 Hf
atom 9.4190840999999992 10.0084635700000000 9.5192918500000001 Hf
atom 0.5587117000000000 1.4108303900000001 0.8934439199999999 O
atom 0.8198404700000000 1.6437419400000000 5.9666559599999998 O
atom 0.5863634900000000 6.8244287699999999 0.8362849600000000 O
atom 0.9107676800000000 6.7732525099999998 6.0617210200000002 O
atom 5.4028141099999996 1.7837211200000000 1.1463721400000000 O
atom 5.8636056200000004 1.7574683200000001 6.4235171199999996 O
atom 5.4557069900000004 6.8385825000000002 1.1941250699999999 O
atom 5.9211536999999996 6.8502834600000000 6.3813582100000001 O
atom 0.6386313300000001 0.7409520000000001 3.3662984200000001 O
atom 1.0487716199999999 0.8346542800000000 8.6226020400000003 O
atom 0.6956494300000000 5.8753035499999999 3.4518588200000000 O
atom 1.1069994500000000 5.9304990200000001 8.6455135900000002 O
atom 5.5631221899999996 0.9198167900000001 3.7533328400000001 O
atom 6.0549532299999997 0.8672409599999999 9.0138230200000002 O
atom 5.7023254100000003 5.9403825000000001 3.8090869000000001 O
atom 5.9873638500000004 5.9648808200000003 8.9712285699999992 O
atom 4.8217595400000004 4.2578690500000000 2.1444950199999999 O
atom 5.2324583100000002 4.3511198300000000 7.4000697799999999 O
atom 4.8507908000000004 9.3398401500000006 2.0917495800000001 O
atom 5.2623350100000001 9.3954012099999993 7.2855104800000001 O
atom 9.8126644100000000 4.2814183600000000 2.5034089700000002 O
atom 10.3046204699999997 4.2287417800000000 7.7638414400000002 O
atom 9.9679237500000006 9.3602061499999998 2.5170589600000000 O
atom 10.2528268600000008 9.3858478900000009 7.6787309400000003 O
atom 5.0511327399999999 3.4492227099999999 4.7999102200000001 O
atom 5.3121750099999998 3.6822515299999998 9.8730864900000004 O
atom 5.0471207500000004 8.4974781200000002 4.6756303199999998 O
atom 5.3715031900000003 8.4459766100000007 9.9011154500000007 O
atom 10.0043011199999992 3.3905810500000002 5.0935064399999996 O
atom 10.4651922699999993 3.3643567299999999 10.3706188099999999 O
atom 10.0338782999999996 8.4756523399999999 5.1064433500000002 O
atom 10.4995202400000007 8.4868256100000004 10.2934919699999998 O
atom 2.7594440200000001 1.1752121200000001 2.4774243700000000 O
atom 3.3414975000000000 1.3437347799999999 7.8192452599999998 O
atom 3.0230233200000001 6.4398330100000001 2.6683811500000001 O
atom 3.5695975799999999 6.3495667300000003 7.9179486900000002 O
atom 7.9627996699999999 1.3037777200000000 3.0682235599999998 O
atom 8.3727162400000008 1.3790534699999999 8.2883155399999993 O
atom 8.0374210700000006 6.4375389600000004 3.0460546800000001 O
atom 8.4040133200000007 6.4212531400000001 8.2948969500000000 O
atom 3.1973585999999998 1.2605210200000001 5.2263310699999996 O
atom 3.8280748700000000 1.4048889600000001 10.2983150299999995 O
atom 3.2392791800000000 6.3230498500000003 5.3073466800000002 O
atom 3.7009483099999998 6.0340575799999998 10.3317428000000007 O
atom 8.1871270500000008 1.2576513800000000 5.6748179700000003 O
atom 8.5671402299999997 1.2716280600000001 10.8715650999999998 O
atom 8.2467861500000001 6.3539508099999997 5.6668791000000001 O
atom 8.6489131900000000 6.3385371399999997 10.8720709499999995 O
atom 2.0427959800000002 3.6874444600000000 0.4694241300000000 O
atom 2.6737143900000002 3.8322109800000002 5.5412728099999997 O
atom 2.2567268700000001 9.2364318000000001 0.4063154500000000 O
atom 2.7185391200000000 8.9474362400000000 5.4301085799999997 O
atom 7.3008807700000000 3.8768597300000001 0.6455724300000000 O
atom 7.6809467199999997 3.8910183699999998 5.8421440200000001 O
atom 7.3059342500000000 8.9875154500000001 0.6153766400000000 O
atom 7.7082103999999996 8.9724891000000007 5.8205546500000001 O
atom 2.5291803000000002 3.7496064900000001 2.9485768900000000 O
atom 3.1126244399999998 3.9182708499999999 8.2907450699999998 O
atom 2.3873064099999999 8.9218021299999997 2.8186842900000002 O
atom 2.9346654999999999 8.8310938500000002 8.0691378100000009 O
atom 7.4954635900000000 3.7688994999999998 3.2287983599999999 O
atom 7.9052575699999998 3.8444601999999999 8.4487203700000002 O
atom 7.5510060299999999 8.9043409600000007 3.1925010999999999 O
atom 7.9175967099999998 8.8880809000000003 8.4413073500000007 O
