lattice_vector 10.1569484499999998 0.0106646000000000 0.6326012200000000 
lattice_vector -0.0546004900000000 10.1388604999999998 -0.0294578600000000 
lattice_vector 0.8313298400000000 0.0382593800000000 10.5822062799999994 
atom 1.3512052699999999 0.0725143100000000 1.8475395699999999 Si
atom 1.9117766899999999 0.1203243900000000 6.8961596900000002 Hf
atom 1.4263745600000000 5.3135921699999997 1.5699302300000000 Hf
atom 1.9829338000000001 5.3008087300000000 6.7950735599999996 Hf
atom 6.5567735000000003 0.3171769800000000 1.9067720100000001 Hf
atom 7.0556352100000002 0.2075564500000000 7.1964574099999998 Hf
atom 6.4776632400000000 5.2635234000000004 1.9738354800000000 Hf
atom 6.8618242599999997 5.3683977000000001 7.1700512700000001 Hf
atom 1.7801127900000000 2.2691671100000002 4.1274101500000002 Hf
atom 2.2199608000000000 2.2253393600000000 9.5383112000000008 Hf
atom 1.6313398800000001 7.4176007799999999 4.2060848999999996 Hf
atom 2.0285039500000002 7.7271634499999999 9.6845815999999996 Hf
atom 6.7751127000000002 2.3706467000000000 4.6431267600000004 Hf
atom 7.1306938100000004 2.6501837400000001 9.7946290099999995 La
atom 6.7587720899999999 7.4205050500000000 4.5088328200000003 Hf
atom 7.0467598899999997 7.4645552700000000 9.8898337099999996 Hf
atom 3.6741807799999999 2.7747676499999998 1.3207069300000001 Hf
atom 4.2022891199999997 2.7636410900000001 6.6531070100000003 Hf
atom 3.6475450700000001 7.8854283299999999 1.3438226700000000 Hf
atom 4.1448615899999997 7.8287294799999998 6.5612524800000003 Hf
atom 8.9998677199999992 2.5804424500000001 1.6764049100000000 Hf
atom 9.4807877299999994 2.6905114600000002 6.8301430400000003 Hf
atom 8.6717399499999992 7.8728273299999998 1.6584706000000000 Hf
atom 9.1949731499999992 7.7665007299999997 6.9225443999999996 Hf
atom 3.9497064200000001 4.8561831700000004 3.9868107199999998 Hf
atom 4.2607140699999997 4.9719851100000003 9.2837928299999994 Hf
atom 3.9182495099999999 9.9596340899999998 3.9041328700000002 Hf
atom 4.4189952300000002 10.0446482300000000 9.1869668699999991 Hf
atom 9.0356726500000004 4.8856371899999997 4.3177508099999997 Hf
atom 9.8280677500000007 5.1526046699999997 9.9065889299999998 La
atom 8.9710493099999997 9.9331052300000007 4.2759246600000003 Hf
atom 9.3307460700000000 10.0280108800000001 9.5489547899999998 Hf
atom 0.6795185500000001 1.3317379300000001 0.8438576200000000 O
atom 0.8721369100000000 1.4698988900000001 5.8717766200000003 O
atom 0.1039502500000000 6.5357167599999997 0.5765164300000000 O
atom 0.6847242600000000 6.5840399300000003 5.9290460400000002 O
atom 5.3761207700000000 1.6521951300000000 1.0902114999999999 O
atom 5.8635110900000003 1.5959479299999999 6.3768292200000003 O
atom 5.2377754699999999 6.6484941099999997 1.0692931999999999 O
atom 5.8125143899999996 6.6908404199999998 6.2354245199999996 O
atom 0.6081426300000000 0.8148517700000000 3.3093936799999999 O
atom 1.0342920300000000 0.8384669400000000 8.6654831199999993 O
atom 0.4723736200000000 6.0784014700000002 3.2757854900000001 O
atom 1.3629307799999999 6.3238136100000002 8.4799415400000004 O
atom 5.6132359899999997 1.0331154800000000 3.7024931099999998 O
atom 6.2288947300000004 0.7710581700000000 8.9915599799999999 O
atom 5.5471922899999999 6.0719958199999997 3.6794245900000000 O
atom 5.9810694199999999 6.0810115500000004 8.9292520599999996 O
atom 4.9306786400000000 3.9857121100000001 2.4226705900000001 O
atom 5.5145124599999997 3.9025842800000001 7.8096648000000002 O
atom 4.8378877400000002 9.2491656800000008 2.1718543600000002 O
atom 5.3002364399999999 9.2173814699999994 7.4045687500000001 O
atom 9.9577710600000007 4.1254441300000000 2.5156652199999998 O
atom 10.4309956499999998 4.1027041200000003 7.8157483900000004 O
atom 10.0160262600000003 9.1976842600000008 2.4925933800000002 O
atom 10.3544068399999993 9.1448361400000007 7.8067345599999998 O
atom 5.2152845399999999 3.6779758299999998 5.0802985700000001 O
atom 5.4899645499999998 3.9981351900000002 10.5118471000000007 O
atom 5.0576834399999999 8.5640787599999992 4.7706113099999996 O
atom 5.3213937700000002 8.5340382300000002 10.1220902899999992 O
atom 10.2342729499999994 3.4211149700000001 5.0528135299999999 O
atom 10.6647958200000001 3.1715814400000002 10.5171588099999997 O
atom 10.1119436000000000 8.5450289000000001 5.1642482999999997 O
atom 10.4180185200000004 8.6153910600000003 10.4879021800000007 O
atom 2.7983478900000001 1.1731841800000000 2.4828579199999998 O
atom 3.3867335399999998 1.2384145099999999 7.8545556200000002 O
atom 2.8857789399999998 6.4047806899999999 2.6520930100000002 O
atom 3.6611265799999999 6.1888000800000000 7.6792964100000001 O
atom 8.0471783299999995 1.3165858100000001 3.0402978699999998 O
atom 8.5985880199999993 1.3893816100000000 8.1850229500000005 O
atom 7.9860173799999998 6.3870602999999999 3.0109646300000001 O
atom 8.3485113500000008 6.3089722200000002 8.2466908799999992 O
atom 3.2893899599999998 1.3106184599999999 5.1942516500000000 O
atom 3.9691983500000001 1.5519592300000000 10.3127804500000000 O
atom 3.0966178000000002 6.3404835799999999 5.2362262199999998 O
atom 3.4330246000000000 6.4901093300000001 10.5968881199999991 O
atom 8.2761295700000002 1.2372241399999999 5.6061551100000004 O
atom 8.7555717499999997 1.2392632900000000 11.0116094499999999 O
atom 8.1845053399999994 6.3022726400000000 5.6031060200000002 O
atom 8.4090669400000007 6.5036957199999996 11.0709328800000009 O
atom 2.1573453699999998 3.8880660300000001 0.2295630700000000 O
atom 2.7275529800000000 3.8050977499999998 5.5008085600000003 O
atom 2.1165416499999998 9.2277438000000007 0.4326165500000000 O
atom 2.6575565800000001 8.9124060099999998 5.5008262400000003 O
atom 7.5260594799999998 3.8516419100000001 0.8892102300000000 O
atom 7.8694520199999998 3.8081519500000001 6.1823529600000002 O
atom 7.1992536700000000 8.9615375400000001 0.5622534900000000 O
atom 7.7372669800000002 8.8844156499999993 5.8379412400000001 O
atom 2.4732083700000000 3.7807827800000000 2.8669761399999998 O
atom 2.9360140499999998 3.7440239000000002 8.1710555700000000 O
atom 2.2995170100000002 8.9287094000000007 2.8594488999999998 O
atom 2.9335897800000001 8.7924900499999996 8.1823473399999997 O
atom 7.5200031400000000 3.8665006100000001 3.4729781800000001 O
atom 7.5370739799999997 8.8846335300000003 3.1847262000000001 O
atom 7.9494688499999997 8.8359845299999993 8.4888865899999999 O
