lattice_vector 10.0068046299999995 0.0019566300000000 -0.0294903000000000 
lattice_vector 0.0206416700000000 10.3769377499999997 -0.0091561300000000 
lattice_vector -0.0327522400000000 -0.0252593200000000 10.0430503099999999 
atom 1.2217074900000000 0.0588651900000000 1.1981599900000000 La
atom 1.3128766599999999 0.1498704500000000 6.2861805799999999 Hf
atom 1.3311634200000000 5.3653839300000001 1.2482033800000001 Hf
atom 1.3303949500000001 5.3602156299999999 6.2575785300000000 Hf
atom 6.3272572699999996 0.1524404800000000 1.2502732900000000 Hf
atom 6.2970032700000003 0.1736134800000000 6.2375650399999998 Hf
atom 6.3483445400000003 5.3394277700000004 1.2477955500000000 Hf
atom 6.3366165099999998 5.3337240299999999 6.2561510399999998 Hf
atom 1.3383487100000000 2.4243268499999999 3.7694205099999998 Hf
atom 1.3745230900000001 2.5095413700000000 8.6908186999999995 Hf
atom 1.3432709599999999 7.6079506900000000 3.7657942599999998 Hf
atom 1.3614294000000000 7.5953666699999998 8.7784319600000007 Hf
atom 6.3219966799999998 2.4234916599999998 3.7248636700000000 Hf
atom 6.3278480999999998 2.4022516700000001 8.7740002799999992 Hf
atom 6.3231355999999996 7.5912160899999996 3.7755806399999998 Hf
atom 6.3420658899999998 7.5558515599999998 8.7688122400000008 Hf
atom 3.6405132299999998 2.7538537800000000 1.2360774400000001 Hf
atom 3.6709550300000000 2.7455098200000001 6.2314637599999996 Hf
atom 3.7168206499999998 7.9234065800000000 1.2216440600000000 Hf
atom 3.6661588100000002 7.9411438900000002 6.2458178499999999 Hf
atom 8.6476850200000008 2.7658577900000001 1.2523455800000001 Hf
atom 8.6522559999999995 2.7587279300000001 6.2434077500000003 Hf
atom 8.6185326799999995 7.9412671399999999 1.2843208600000000 Hf
atom 8.6742587800000006 7.9206951700000001 6.2446724700000003 Hf
atom 3.6497901800000001 5.0093434600000002 3.7349194899999998 Hf
atom 3.6756440100000001 5.0048391399999996 8.7739890900000006 Hf
atom 3.6561085100000001 10.2072194399999994 3.7330686700000002 Hf
atom 3.6917264699999999 10.1912779100000002 8.7349300799999998 Hf
atom 8.6681378599999999 5.0119841599999999 3.7449755100000002 Hf
atom 8.6619069399999997 4.9757347300000001 8.7760398199999994 Hf
atom 8.6288790199999994 10.1975671099999996 3.8001924800000002 Hf
atom 8.5544559600000003 10.1412934999999997 8.7074577299999998 Hf
atom 0.2647832500000000 2.0004306700000001 2.0658813299999998 O
atom 0.3241070600000000 1.8820251500000000 6.9938022399999999 O
atom 0.3670404000000000 7.1247023199999999 1.9463070300000000 O
atom 0.3525038300000000 7.0802671200000002 6.9860346900000003 O
atom 5.3800826800000001 1.9181562599999999 1.8831182000000000 O
atom 5.3463672500000001 1.9012576999999999 6.9601676599999998 O
atom 5.3659922800000004 7.0527928700000002 1.9548361100000000 O
atom 5.3662527200000003 7.0767841300000001 6.9532306000000004 O
atom 0.3152106300000000 0.6877847100000000 4.4826086800000002 O
atom 0.3480501600000000 5.8763939699999996 4.4715971000000003 O
atom 0.3214103200000000 5.9018909500000003 9.4776528899999999 O
atom 5.3396587300000000 0.6849467800000000 4.4403575999999996 O
atom 5.3700061400000001 0.6648956100000000 9.4493114899999995 O
atom 5.3422969399999998 5.8523082600000000 4.4554891300000001 O
atom 5.3561279199999996 5.8480688699999996 9.4832767400000009 O
atom 4.6493152100000001 4.4800058299999996 1.9334487499999999 O
atom 4.6529712400000003 4.4851795200000000 6.9563291200000004 O
atom 4.6350278700000000 9.7102435600000003 1.8966392200000000 O
atom 4.6530937400000001 9.6748213100000005 6.9436638500000001 O
atom 9.6132200099999991 4.5528657700000004 1.9020733000000001 O
atom 9.6839343400000004 4.4660790199999996 6.9956946300000000 O
atom 9.4300411000000004 9.6176337099999998 2.0665529600000001 O
atom 9.6344496700000004 9.6645922899999999 6.9654960600000004 O
atom 4.6277136099999998 3.2620669100000002 4.4316802500000003 O
atom 4.6373391699999997 3.2628272500000000 9.4494294300000004 O
atom 4.6567915700000002 8.4735131900000003 4.4650021700000000 O
atom 4.7223807600000001 8.4594235599999994 9.4667013900000008 O
atom 9.6544093600000007 3.3101418499999999 4.4791027300000001 O
atom 9.6669216999999996 3.1957884000000001 9.4809696500000005 O
atom 9.6548887200000006 8.4577350599999992 4.4799864400000002 O
atom 9.7814365199999997 8.6682388100000001 9.5799337100000006 O
atom 2.7870125699999999 1.3097344500000001 2.5388066899999999 O
atom 2.7023721300000001 1.2151163500000000 7.4707437499999996 O
atom 2.6943821600000000 6.3697599199999999 2.4785289399999999 O
atom 2.7036355500000000 6.3943385399999997 7.5044086999999999 O
atom 7.6620284099999996 1.2093472400000000 2.4988049000000001 O
atom 7.6714547299999998 1.1980117100000001 7.4830968300000000 O
atom 7.7023609899999999 6.4091864899999997 2.4909957500000002 O
atom 7.7209157900000003 6.3618532400000003 7.5005045199999998 O
atom 2.6687463800000000 1.3545071500000001 5.0147949599999997 O
atom 2.6510923599999998 1.4150062000000001 9.9123936700000002 O
atom 2.6987995200000001 6.5600864200000002 4.9932938499999997 O
atom 2.6982303100000000 6.5188465999999998 10.0143375700000004 O
atom 7.6595409600000002 1.3918233900000001 4.9987366599999996 O
atom 7.7556568600000002 1.3031610100000000 10.0018343999999999 O
atom 7.7017399400000004 6.5436583400000004 4.9936316900000000 O
atom 7.7066342600000004 6.5205376299999998 10.0076995899999996 O
atom 2.2994308100000000 3.9735665999999998 4.9918867000000002 O
atom 2.2906729299999999 3.9858457399999998 9.9993095699999994 O
atom 2.2955875200000002 9.1589977200000003 4.9908415300000000 O
atom 2.4389555900000000 9.0350546900000008 9.9036081700000000 O
atom 7.2936103100000000 3.9647019600000002 4.9852617800000001 O
atom 7.2852788799999999 3.9310734699999998 10.0048460000000006 O
atom 7.2935075100000004 9.1348904500000003 5.0251419600000000 O
atom 7.3055875400000003 9.0937124100000002 10.0147392499999999 O
atom 2.2701182900000001 3.8239885299999998 2.4708820899999999 O
atom 2.3247278100000002 3.8179449600000002 7.4744058400000002 O
atom 2.4251220000000000 8.8835636099999995 2.5400875799999998 O
atom 2.3002470800000001 8.9841120199999995 7.4698814100000002 O
atom 7.2953019499999998 3.8198619100000002 2.4876232900000002 O
atom 7.3087190099999999 3.7851008799999999 7.5004247900000003 O
atom 7.1742143499999997 8.9785015399999999 2.5035721500000001 O
atom 7.3044238999999997 8.9716378599999995 7.5155268599999996 O
