lattice_vector 9.9960896899999998 0.0178667900000000 0.0245163700000000 
lattice_vector 0.0201867200000000 10.3900902700000000 -0.0170649300000000 
lattice_vector -0.0128478300000000 -0.0239878700000000 10.0271091099999996 
atom 1.2830710299999999 0.0150344800000000 1.1488962800000000 La
atom 1.3100841200000000 0.1723705100000000 6.2946913999999996 Hf
atom 1.3305044500000001 5.3771544400000000 1.2562072099999999 Hf
atom 1.3418373100000001 5.3213134499999999 6.2412029400000000 Hf
atom 6.3559303099999997 0.1747702600000000 1.3016507799999999 Hf
atom 6.3330133200000001 0.1919230300000000 6.2843359200000002 Hf
atom 6.3569753999999996 5.3481853199999998 1.2904750400000000 Hf
atom 6.3316015300000004 5.3521617399999997 6.2854352599999999 Hf
atom 1.3517323900000000 2.3959637800000002 3.7519630300000002 Hf
atom 1.3424538500000001 2.4497959699999998 8.7211524600000008 Hf
atom 1.3512662600000001 7.5976412099999999 3.7704519599999999 Hf
atom 1.2785225899999999 7.5394161300000002 8.7024431399999997 Hf
atom 6.3331866400000001 2.4286256399999999 3.7615205399999998 Hf
atom 6.3617468600000002 2.4280218400000000 8.8063539199999994 Hf
atom 6.3333501400000003 7.6125455200000003 3.8287067399999999 Hf
atom 6.3211356399999996 7.6161705599999996 8.7996085599999994 Hf
atom 3.6555923699999999 2.7661058500000002 1.2615702600000001 Hf
atom 3.6605281299999999 2.7450334500000002 6.2526490700000004 Hf
atom 3.7774981599999999 7.8947744300000000 1.2669847299999999 Hf
atom 3.6470479299999998 7.9578927799999999 6.2892844999999999 Hf
atom 8.6706747899999996 2.7879454699999999 1.2923018100000001 Hf
atom 8.6611786599999991 2.7842259399999998 6.2650635699999997 Hf
atom 8.6168108300000004 7.9591286600000002 1.3294351000000000 Hf
atom 8.6382909899999998 7.9570182599999999 6.2784626499999998 Hf
atom 3.6597839500000000 5.0077617999999999 3.7603133199999998 Hf
atom 3.6766394600000001 5.0150177400000002 8.7685029599999993 Hf
atom 3.6734313500000000 10.2117934399999992 3.7533040899999999 Hf
atom 3.7774038299999999 10.3019953500000003 8.6993124900000005 Hf
atom 8.6712816600000000 5.0248133599999996 3.7855489400000000 Hf
atom 8.6398035499999999 5.0081183500000002 8.7979528499999997 Hf
atom 8.6464315999999997 10.2125089399999993 3.8206480699999998 Hf
atom 8.6420390200000003 10.2137677599999996 8.7596658200000004 Hf
atom 0.3153351100000000 1.9679380099999999 2.0015498799999998 O
atom 0.4001065800000000 1.9676666400000000 6.8412578300000000 O
atom 0.3666982100000000 7.1244174300000003 1.9616748100000001 O
atom 0.3432139200000000 7.0708534199999997 6.9367814299999999 O
atom 5.3894356600000002 1.9288046700000001 1.9183323999999999 O
atom 5.3411685100000001 1.8953563700000000 7.0045526999999996 O
atom 5.3897018299999999 7.0763525200000004 2.0134813800000000 O
atom 5.3362253500000003 7.0919770399999997 6.9960609700000003 O
atom 0.3483202700000000 0.6552174500000000 4.4516559899999999 O
atom 0.3499581800000000 0.7249023400000000 9.1393788300000001 O
atom 0.3768707600000000 5.8531589600000000 4.4424662899999996 O
atom 0.3189612400000000 5.8698765300000000 9.4601632799999997 O
atom 5.3565324800000003 0.6778244500000000 4.4589674600000002 O
atom 5.4411642599999999 0.6658646200000000 9.4604367000000007 O
atom 5.3490992500000001 5.8632757499999997 4.4856136600000003 O
atom 5.2993926599999996 5.9274055399999996 9.5527274799999997 O
atom 4.6622042199999996 4.4943837200000001 1.9710674100000001 O
atom 4.6483498000000001 4.4912941899999996 6.9776313999999999 O
atom 4.6512825600000003 9.7145322699999994 1.9045881000000000 O
atom 4.6534481799999998 9.6987745099999998 6.9133848899999997 O
atom 9.6187360200000001 4.5661541600000000 1.9535913700000000 O
atom 9.6335060499999994 4.5250904600000004 6.9899128399999997 O
atom 9.4409239800000009 9.6635546600000009 2.0657667200000001 O
atom 9.6249002400000006 9.6785406500000004 6.9539976299999999 O
atom 4.6386155100000002 3.2667995200000002 4.4614339000000003 O
atom 4.6709762100000001 3.3008907600000001 9.4646002300000003 O
atom 4.6452896499999996 8.4703202799999993 4.4892041400000000 O
atom 4.5859355700000002 8.5055399099999995 9.4551413800000006 O
atom 9.6361281299999995 3.3017063100000001 4.4659311700000002 O
atom 9.6467755299999993 3.2985006700000001 9.5031227000000005 O
atom 9.6380486899999998 8.4573888799999999 4.4936463199999999 O
atom 9.7954182099999993 8.6009381999999999 9.6378194900000000 O
atom 2.8048217100000001 1.2894460000000001 2.5422564500000000 O
atom 2.7062806699999999 1.2228226700000000 7.4650857999999998 O
atom 2.7152542199999998 6.3552291900000002 2.4837466199999998 O
atom 2.6875742900000001 6.3804420700000000 7.4952942100000000 O
atom 7.6856143399999999 1.2261159300000000 2.5481481100000001 O
atom 7.7119528500000003 1.2320055000000001 7.5248283100000002 O
atom 7.7003815600000003 6.4190507999999999 2.5343649899999998 O
atom 7.6760011300000004 6.4198896799999998 7.5444383200000003 O
atom 2.6928104799999999 1.3413379100000000 5.0129983400000002 O
atom 2.7680509199999999 1.4214396499999999 9.9154519000000008 O
atom 2.7096232499999999 6.5604833400000002 5.0080602200000000 O
atom 2.6340545999999998 6.6717745300000004 10.0111013799999995 O
atom 7.6686006600000001 1.3926626200000001 5.0395678500000001 O
atom 7.7451384299999999 1.3535961200000000 10.0514721500000004 O
atom 7.7020782600000004 6.5556356700000000 5.0378864099999996 O
atom 7.6816611400000001 6.5563503900000004 10.0338948200000004 O
atom 2.3047337099999998 3.9527367799999999 4.9907812600000003 O
atom 2.3171795799999999 4.0135596800000002 10.0032600600000006 O
atom 2.2891716400000002 9.1561094900000004 5.0411393999999996 O
atom 7.2908215500000004 3.9775571099999998 5.0178191800000000 O
atom 7.2833608700000001 3.9666023500000001 10.0330143300000003 O
atom 7.2927907599999999 9.1529998599999995 5.0514647500000001 O
atom 7.3113017899999999 9.1220053700000001 10.0422646199999992 O
atom 2.2781913800000000 3.8207414599999998 2.4829847799999998 O
atom 2.3137698699999998 3.8149036900000000 7.4836717300000002 O
atom 2.4498938600000000 8.8625675000000008 2.5317589599999999 O
atom 2.3166762099999998 9.0174622099999997 7.6302849400000001 O
atom 7.3034386400000004 3.8285620100000002 2.5216984899999999 O
atom 7.2939915199999996 3.8166741000000002 7.5261050100000002 O
atom 7.1899315200000000 8.9989059800000000 2.5491767699999999 O
atom 7.2874551500000004 9.0142992999999993 7.5413356699999996 O
