lattice_vector 10.0425607699999997 0.0346130000000000 -0.1082227600000000 
lattice_vector 0.0356124700000000 10.2791536699999995 0.0715527500000000 
lattice_vector -0.0284316200000000 0.0453781200000000 10.4324174799999998 
atom 1.0758870899999999 0.3174130000000000 2.2613657200000001 Si
atom 1.3741938600000001 0.2322173800000000 6.9304280100000000 Hf
atom 1.4205405200000001 5.3703333799999999 1.7960344300000000 Hf
atom 1.4120766400000000 5.3804712600000002 7.0223542700000001 Hf
atom 1.3689570499999999 2.4563602100000002 4.4231714300000000 Hf
atom 1.4820959100000000 2.3132789900000001 9.6426087599999999 Hf
atom 1.3477399200000000 7.5248720599999999 4.3934261899999996 Hf
atom 1.4405284199999999 7.5520480799999996 9.5879562600000003 Hf
atom 3.5656078899999999 2.7539217400000000 1.7657392500000000 Hf
atom 3.6293816799999998 2.8215488899999999 6.9813472299999999 Hf
atom 3.5949523399999999 7.9906597799999997 1.7155043800000001 Hf
atom 3.6036437200000000 7.9644648299999998 6.9268282599999997 Hf
atom 3.6351808800000001 4.9707847999999997 4.3811973899999996 Hf
atom 3.6013273200000002 4.9273366000000003 9.6244302600000005 Hf
atom 3.6193660300000001 10.1278591999999996 4.3504213500000004 Hf
atom 3.6295552400000002 10.1366294400000001 9.6230554999999995 Hf
atom 6.4309147299999996 0.2884457200000000 0.7625936000000000 Hf
atom 6.3515037799999998 0.2603870500000000 5.9964376100000001 Hf
atom 6.3470470199999998 5.2900019699999996 0.8760070000000000 Hf
atom 6.4136077399999998 5.4281545500000004 6.0079542000000004 Hf
atom 6.3770642999999998 2.4132931499999999 3.3944650500000000 Hf
atom 6.4252331900000001 2.4296502300000000 8.6103641700000004 Hf
atom 6.3780741399999998 7.5392841600000002 3.3711470100000001 Hf
atom 6.4139929699999998 7.6274085800000000 8.7833262500000000 La
atom 8.7541416900000009 2.7737669700000001 0.8152435200000000 Hf
atom 8.6122519200000003 2.8330679700000001 5.9739958499999997 Hf
atom 8.8420291199999994 8.0946015100000004 0.9156101100000000 Hf
atom 8.6401967699999993 7.9694377000000003 6.0328092699999996 Hf
atom 8.6374495200000005 4.9965696800000003 3.3609628400000000 Hf
atom 8.7508306099999995 4.8724048499999997 8.5549065399999993 Hf
atom 8.5501453900000008 10.1139495499999992 3.5165025999999999 Hf
atom 8.7253505800000006 10.1816734899999997 8.6335053100000003 Hf
atom 0.5795280900000001 1.5251722200000000 1.1082038999999999 O
atom 0.3217953900000000 1.7693964400000000 6.1109840100000001 O
atom 0.4076126800000000 6.8903221400000003 0.9366917200000000 O
atom 0.3466265200000000 6.8710564300000003 6.1248872499999996 O
atom 0.2665577900000000 0.8465131800000000 3.6318214700000002 O
atom 0.3806275500000000 0.8648150200000000 8.7244871600000007 O
atom 0.3234201100000000 6.0154387600000003 3.5134723000000001 O
atom 0.3643056800000000 5.9759281700000004 8.7596795899999993 O
atom 4.6243426899999998 4.2948434300000002 0.9798825100000000 O
atom 4.6714577899999998 4.3455180799999997 6.0858866400000000 O
atom 4.7948259799999997 9.4269772500000002 0.8567176100000000 O
atom 4.6451463700000000 9.5026860499999994 6.0637017999999996 O
atom 4.6212079399999997 3.3773859000000002 3.5338593800000000 O
atom 4.6648570899999999 3.4105623000000000 8.7120355899999993 O
atom 4.6016517900000000 8.5835350399999992 3.4693843400000000 O
atom 4.5022529999999996 8.6686015600000008 8.5987961599999991 O
atom 2.5108618100000002 1.2775662500000000 2.9289105100000001 O
atom 2.7638246999999998 1.2720888200000000 8.1803416700000007 O
atom 2.7428548500000001 6.5260332500000002 3.0572931900000002 O
atom 2.7999654700000001 6.4140421500000002 8.2639345700000000 O
atom 3.0440707400000000 1.4496137700000000 0.2804407200000000 O
atom 2.7706120099999998 1.3533192700000001 5.5841795799999998 O
atom 2.8093601800000001 6.4037763999999999 0.4552029200000000 O
atom 2.7331850599999998 6.4504209899999996 5.6428754000000003 O
atom 2.2447966099999999 3.9080253400000000 3.1075460399999999 O
atom 2.2478578100000002 3.8318552600000002 8.3069026499999996 O
atom 2.1027540700000000 9.2085689199999994 2.9280389499999999 O
atom 2.1326391500000001 8.9695557499999996 8.2015903500000000 O
atom 2.2122273500000000 3.8733278400000000 0.4910875300000000 O
atom 2.2336608600000001 3.9026860600000002 5.6969632600000004 O
atom 2.3889242300000002 8.9439080900000008 0.3380985700000000 O
atom 2.2377398700000000 9.0527467200000000 5.5903369500000002 O
atom 5.3686287500000001 1.7799539200000001 1.6794880400000001 O
atom 5.3681912599999997 1.7894838200000001 6.8809064800000002 O
atom 5.3620977500000002 6.9237085199999999 1.6467439399999999 O
atom 5.3126736899999996 6.9079354200000003 6.7655488500000001 O
atom 5.3315827200000001 0.8605879900000000 4.2241260199999999 O
atom 5.4401159200000002 0.8448199100000000 9.4361412900000001 O
atom 5.3774890700000002 5.9729079000000000 4.2105012799999999 O
atom 5.3910946600000003 5.8020826000000003 9.5702962399999993 O
atom 9.7327620400000008 4.3178801399999998 1.6670102099999999 O
atom 9.7465901699999993 4.2716908299999998 6.8896421700000001 O
atom 9.8426410900000008 9.5866307499999994 1.8032081200000001 O
atom 9.7265514999999994 9.4950188499999992 6.8740594599999998 O
atom 9.6694000500000001 3.4944789599999999 4.2580613899999999 O
atom 9.7709692199999996 3.3924013899999999 9.5607525800000008 O
atom 9.6477403499999994 8.5934498099999992 4.2782229000000003 O
atom 9.7021218999999999 8.5671887899999994 9.4923009700000005 O
atom 7.8225776900000001 1.4334868000000001 9.9190482800000002 O
atom 7.7396058200000004 1.3192038399999999 4.7196462700000001 O
atom 7.7791619000000001 6.4826880400000002 4.6748002599999996 O
atom 7.8196412100000003 1.3304032200000000 2.1076058000000000 O
atom 7.8008503400000002 1.3921354100000001 7.3111964800000004 O
atom 7.8112879700000004 6.4871105199999999 2.0103894100000002 O
atom 7.8944467100000004 6.4200159899999996 7.3005192499999998 O
atom 7.3726146699999999 3.9917301699999999 9.9683123299999998 O
atom 7.2535471899999999 3.9020082700000001 4.7033098799999999 O
atom 7.5147413299999997 9.2241321400000000 10.1270793599999998 O
atom 7.2094598200000002 9.0137786099999992 4.7619768999999996 O
atom 7.3062685299999997 3.8562289700000001 2.1157030099999998 O
atom 7.2730797200000001 3.9138966300000000 7.3132906300000000 O
atom 7.3328235700000004 9.0585525199999992 2.1984599899999999 O
atom 7.3579901699999999 9.1686428899999992 7.3086689500000004 O
