lattice_vector 10.0428841400000000 0.0284293000000000 0.0436638300000000 
lattice_vector 0.0233422100000000 10.4354753799999997 -0.0850143300000000 
lattice_vector 0.0355449300000000 -0.0569084700000000 10.0571943499999996 
atom 1.1360651600000000 0.2840234800000000 1.1846702000000000 Si
atom 1.3472853499999999 0.2097466500000000 6.3053038800000003 Hf
atom 1.3921850000000000 5.3372537500000004 1.2770801800000000 Hf
atom 1.6106098700000000 5.4953339999999997 6.1257716400000000 Hf
atom 6.3545606100000001 0.1985020400000000 1.2488828000000001 Hf
atom 6.2795548999999999 0.1024833800000000 6.2551273199999997 Hf
atom 6.4201179599999998 5.4430948499999996 1.2582045200000000 Hf
atom 6.3622991100000004 5.3924088299999999 6.1938458799999996 Hf
atom 1.3476990400000000 2.3346758500000000 3.6344713700000000 Hf
atom 1.3618399600000000 2.5111144099999998 8.8968095500000004 La
atom 1.3663575699999999 7.5994229700000000 3.7139090200000000 Hf
atom 1.4318955300000000 7.6841761499999999 8.8788798300000007 Hf
atom 6.3473595899999999 2.4096263499999999 3.7485682599999999 Hf
atom 6.4591687799999997 2.4316652500000000 8.7170878300000005 Hf
atom 6.4231688900000004 7.6788524999999996 3.7541137700000000 Hf
atom 6.3408709200000004 7.7212133100000004 8.7431065100000005 Hf
atom 3.8955844100000001 2.8383656199999998 1.0086947100000001 Hf
atom 3.7015143099999999 2.7781164299999999 6.2499246800000003 Hf
atom 3.7756922600000000 7.9917003299999996 1.2483304799999999 Hf
atom 3.7152772999999999 8.1112133400000008 6.3141703299999996 Hf
atom 8.6309835300000000 2.7719704200000002 1.2520317999999999 Hf
atom 8.6143954600000008 2.5590084599999998 6.1266762600000000 Hf
atom 8.7858028600000004 8.0312714700000001 1.2365576800000000 Hf
atom 8.7312363499999996 7.9859212199999998 6.2570353299999999 Hf
atom 3.7767700000000000 4.9576310100000001 3.6822783100000001 Hf
atom 3.7704571200000001 5.1773346599999996 8.7065766900000003 Hf
atom 3.6449229399999998 10.2102206599999992 3.6756138400000000 Hf
atom 3.6300995100000000 10.3008999200000009 8.8967657500000001 Hf
atom 8.7376437899999999 5.0301690299999997 3.7620061400000000 Hf
atom 8.7825447600000004 5.2420693800000002 8.7855710400000007 La
atom 8.7905050899999999 10.2352652499999994 3.6761522499999999 Hf
atom 8.7456739300000006 10.2248353099999996 8.7517852499999993 Hf
atom 0.3412103400000000 1.8188387399999999 1.7963764300000000 O
atom 0.2752865300000000 1.9247750299999999 6.8917410900000000 O
atom 0.3883278200000000 7.0992208100000003 1.9499888700000001 O
atom 0.2122690400000000 6.7595230300000004 7.0458282299999997 O
atom 5.3543502199999997 1.9137721200000000 2.0197771900000001 O
atom 5.4304738900000000 1.9218213500000001 6.9037945199999999 O
atom 5.4051041099999999 7.1441575000000004 2.0238280400000002 O
atom 5.2825236499999999 7.0875672900000000 7.0167024900000001 O
atom 0.2694041600000000 0.7074595200000000 4.5550669099999999 O
atom 0.3334226100000000 0.4519907000000000 9.7229501799999998 O
atom 0.3902609000000000 5.8685168900000004 4.4823727900000003 O
atom 0.6601151600000000 5.8915020399999998 9.5852376199999991 O
atom 5.3415862599999997 0.6889552300000000 4.4732766300000000 O
atom 5.3205406599999998 0.8266694400000000 9.5907575099999995 O
atom 5.4285206099999996 5.9183221899999996 4.4163014399999998 O
atom 5.4184255200000004 5.9589869699999998 9.5133887000000001 O
atom 4.7792877000000002 4.5123114700000002 1.9345829699999999 O
atom 4.7116183800000000 4.5299584399999997 6.9045635900000004 O
atom 4.7460886899999997 9.7692486100000000 1.9345230700000000 O
atom 4.7202150999999999 9.7437959500000009 7.0877416799999997 O
atom 9.7976375800000000 4.4386169999999998 2.0467663800000002 O
atom 9.9573302899999998 9.7662130200000004 1.9109819100000001 O
atom 9.8016408300000002 9.6518848500000001 6.9929172900000003 O
atom 4.7347311500000000 3.2934919300000001 4.4976383499999999 O
atom 4.6756486600000002 3.3166902700000001 9.2420078199999995 O
atom 4.8014791299999997 8.5865982200000008 4.5895313199999999 O
atom 4.6831622299999998 8.6264569000000009 9.5083927900000003 O
atom 9.7516004200000008 3.3160401099999999 4.5541663100000003 O
atom 9.4881563500000006 3.2626048100000000 9.6053492800000004 O
atom 9.7486793100000000 8.5200712000000003 4.4610188900000001 O
atom 9.6514684099999997 8.3930493500000001 9.4356917100000004 O
atom 2.1975834600000002 0.6500050600000000 2.5499486299999998 O
atom 2.8074011099999998 1.1944162100000000 7.4845082200000004 O
atom 2.7092776100000000 6.2247677200000000 2.4954639300000001 O
atom 2.7277652300000002 6.5806885099999999 7.5016856299999999 O
atom 7.7345418800000001 1.1822589800000001 2.4832991299999998 O
atom 7.7167357399999998 1.1126071600000000 7.4919321400000003 O
atom 7.8245558700000002 6.4316838900000004 2.4766306800000000 O
atom 7.5837718000000001 6.5510346699999999 7.3886244200000002 O
atom 2.7096035600000001 1.4122658100000001 4.9331215000000004 O
atom 2.7470513500000000 1.2700963100000000 10.3022867599999994 O
atom 2.8136300300000001 6.6268014300000004 4.9895797999999996 O
atom 2.8638691299999999 6.7144528399999999 10.0076539300000000 O
atom 7.6774785600000000 1.2995430699999999 4.9444761000000002 O
atom 7.7301936099999997 1.3411283800000000 10.0120221399999991 O
atom 7.7828035399999997 6.5945670500000002 4.9585581100000002 O
atom 7.6293386300000003 6.7535299799999997 10.1091612200000007 O
atom 2.3638266699999999 3.9898453500000000 4.8890246399999997 O
atom 2.6138425399999998 4.1799468700000002 10.0876146500000008 O
atom 2.3256078800000002 9.2317109599999991 5.0610852700000004 O
atom 2.2037542200000000 9.3000442700000008 10.2902137400000004 O
atom 7.3747458500000000 3.9676098299999998 4.9732646300000001 O
atom 7.1314341700000003 3.8919939399999999 10.0951361599999991 O
atom 7.4298736300000003 9.2027567399999999 4.9587047999999996 O
atom 7.3736072400000001 9.2483000999999998 9.9720598299999992 O
atom 2.5018976300000002 3.5318380800000000 2.4114855700000000 O
atom 2.3360256499999998 4.0185757999999998 7.3813740299999999 O
atom 2.6733240000000000 8.6657902700000005 2.7129401700000000 O
atom 2.3269522800000000 9.0996985099999996 7.6255929900000003 O
atom 7.3764329499999999 3.8441510200000000 2.5236308799999998 O
atom 7.5091941799999997 3.7654596400000000 7.3900651200000000 O
atom 7.4488026800000000 9.0360934200000003 2.4377591100000000 O
atom 7.3713453800000002 9.0353822099999999 7.4639739599999997 O
