lattice_vector 10.0717200699999996 -0.0027887600000000 -0.0798111700000000 
lattice_vector 0.0053804900000000 5.2068618799999999 -0.0473319300000000 
lattice_vector -0.0662006600000000 -0.0436876600000000 10.0452629000000009 
atom 1.2392188200000001 -0.0039211700000000 1.2375594400000001 La
atom 1.2825791000000000 0.1300601600000000 6.2499886900000003 Hf
atom 6.3726493000000000 0.1600274900000000 1.2104095300000000 Hf
atom 6.3339192500000001 0.1411103600000000 6.2523077200000001 Hf
atom 1.2489689300000000 2.4170541100000000 3.7968894299999998 Hf
atom 1.3260782300000000 2.4242625699999998 8.7210441500000009 Hf
atom 6.3491545100000000 2.3890333099999999 3.7434175999999999 Hf
atom 6.3969767600000003 2.3899111000000000 8.7150440699999994 Hf
atom 3.8252943300000002 2.8019000500000000 1.0568449200000001 Hf
atom 3.6404673200000000 2.7239503599999999 6.2094858000000004 Hf
atom 8.6496766800000007 2.7795010100000002 1.2412597999999999 Hf
atom 8.6895492999999995 2.7507692399999999 6.2006224799999998 Hf
atom 3.7125688700000001 4.9049008799999996 3.7342689700000000 Hf
atom 3.6753397799999998 5.0305856000000002 8.6691460300000003 Hf
atom 8.6156024999999996 5.0127847499999998 3.7191061900000002 Hf
atom 8.6773812100000001 4.9936177199999996 8.6896976000000006 Hf
atom 0.3165439600000000 2.0673940200000001 2.0160143200000000 O
atom 0.3713728300000000 1.9357259499999999 6.8387959100000000 O
atom 5.3407178100000001 1.8839108099999999 1.9483645100000000 O
atom 5.3477252999999996 1.8756439499999999 6.9308443100000003 O
atom 0.3032568800000000 0.6390807700000000 4.4338974000000002 O
atom 0.2623361700000000 0.7832646000000000 9.2480552100000004 O
atom 5.3738339000000002 0.6364388300000000 4.4351382900000003 O
atom 5.3571615599999998 0.7046334100000000 9.4456951199999999 O
atom 4.6012210099999997 4.6171382400000001 1.8281794700000000 O
atom 4.6436703200000000 4.4739314400000003 6.8688624400000000 O
atom 9.3779938499999993 4.5501341699999998 1.9222708500000001 O
atom 9.6765559400000001 4.4915594900000002 6.8695587700000003 O
atom 4.6561914199999999 3.2458233299999999 4.4389815900000000 O
atom 4.7654643900000000 3.3458391700000001 9.3863886700000005 O
atom 9.6291481799999996 3.2815237100000001 4.3905911099999999 O
atom 9.7770634500000000 3.3760180000000002 9.5181189499999999 O
atom 2.6880426300000000 1.1988566100000000 7.4348370099999999 O
atom 7.6821245300000003 1.2424106699999999 2.4776586100000002 O
atom 7.7334560799999998 1.1985596800000000 7.4644289199999996 O
atom 2.7234136599999998 1.3147504699999999 4.8514161800000002 O
atom 2.7278968300000002 1.3557679000000000 9.9757631599999996 O
atom 7.7014060000000004 1.3484921000000001 4.9848945799999997 O
atom 7.7147113999999997 1.3243246900000001 9.9877775700000004 O
atom 2.2659114699999998 3.9475703100000001 4.9519480099999997 O
atom 2.4226219699999998 3.8741559699999999 9.8354553100000004 O
atom 7.2936115099999999 3.9363054900000001 4.9710006900000003 O
atom 7.3241803399999998 3.9305173299999998 9.9667758099999997 O
atom 2.5224921999999999 3.4773477599999998 2.5165867300000002 O
atom 2.2883876000000001 3.8097377899999998 7.4105032499999997 O
atom 7.1589841300000003 3.8143057100000002 2.4607336300000000 O
atom 7.3310102900000000 3.7999268900000001 7.4563682599999996 O
