lattice_vector 10.0656442399999992 0.0024433600000000 -0.0829638600000000 
lattice_vector -0.0275157800000000 5.1501556900000001 -0.0245656400000000 
lattice_vector -0.0435534900000000 -0.0059858600000000 10.4286930499999997 
atom 1.1576154200000000 0.0216869800000000 1.5940839200000001 La
atom 1.3695165000000000 0.2280178600000000 6.9665352299999999 Hf
atom 1.3407941600000000 2.3007583199999999 4.3211923600000004 Hf
atom 1.3868176299999999 2.4182709800000000 9.5569691199999998 Hf
atom 3.6262030599999999 2.7076921399999998 1.7298662899999999 Hf
atom 3.5594830800000001 2.7944263299999998 6.9177406599999998 Hf
atom 3.5494865199999999 4.9101024200000003 4.2868597900000003 Hf
atom 3.6235722799999999 4.9475149600000004 9.5270291300000007 Hf
atom 6.4389761800000000 0.1857018200000000 0.7759985200000000 Hf
atom 6.3475804499999997 0.2122265300000000 6.0048983800000002 Hf
atom 6.3785283499999998 2.3451018700000001 3.3828129599999999 Hf
atom 6.3629790899999996 2.3802801699999998 8.5578113499999997 Hf
atom 8.5901834200000007 2.7507441199999998 0.7315667100000000 Hf
atom 8.6348967699999992 2.7908797299999999 5.9664269299999999 Hf
atom 8.5250111299999993 4.9597065899999997 3.4713019500000000 Hf
atom 8.6080313499999992 4.9637152499999999 8.5503282600000006 Hf
atom 0.3959776700000000 2.1585887499999998 1.0433724700000000 O
atom 0.3079551500000000 1.7606747800000000 6.1348445099999998 O
atom 0.2210323800000000 0.7778380600000000 3.6124131799999999 O
atom 0.3015216900000000 0.8909821100000000 8.7625748600000009 O
atom 4.7449212400000000 4.2695591500000001 0.8253708300000000 O
atom 4.6081173299999998 4.2969944699999996 6.0262447100000003 O
atom 4.6993299400000001 3.4362702999999999 3.4134659799999998 O
atom 4.6486952300000004 3.4352964400000001 8.6030765400000000 O
atom 2.7708361799999999 1.2341966799999999 3.0429691800000001 O
atom 2.7402474500000000 1.2886472200000001 8.2078967899999995 O
atom 2.7918517399999998 1.2831583300000000 0.3304141000000000 O
atom 2.7236876799999998 1.2846950300000000 5.6194241900000002 O
atom 2.2583890599999998 3.7242226800000000 3.0398949300000000 O
atom 2.1896451199999998 3.8689538400000001 8.2103351000000000 O
atom 2.4733223600000001 3.7570265200000001 0.3046515400000000 O
atom 2.1650611500000001 3.8750639499999999 5.6148022400000004 O
atom 5.3957243799999999 1.7078523500000000 1.6526907399999999 O
atom 5.3112673399999997 1.7291852700000001 6.8664043399999999 O
atom 5.3428102700000002 0.8278384300000000 4.2626788600000003 O
atom 5.3926121499999997 0.8471816100000000 9.4862490800000003 O
atom 9.6595278100000002 4.3210993200000001 6.8540766900000003 O
atom 9.6292850899999998 3.3819087300000001 4.1640379500000000 O
atom 9.7307395499999991 3.6054556899999999 9.5915888599999999 O
atom 7.8056992400000000 1.3000060899999999 9.9114988400000001 O
atom 7.7361459300000002 1.2823584900000000 4.7365297300000000 O
atom 7.8053296699999999 1.2602708000000000 2.1057565399999998 O
atom 7.7670676500000004 1.3248164000000000 7.3065692799999997 O
atom 7.2402252200000001 3.8596188499999999 9.8664975199999994 O
atom 7.2010601400000001 3.8405267599999999 4.7192939599999999 O
atom 7.3597392800000003 3.8358491799999999 2.0763181999999998 O
atom 7.2365427699999998 3.8865508900000001 7.2849671599999999 O
