lattice_vector 10.0239370599999997 -0.0441553300000000 -0.0462567300000000 
lattice_vector -0.0110751600000000 10.4760131399999992 -0.0385482500000000 
lattice_vector 0.0181079000000000 0.0436688600000000 10.0384686700000003 
atom 1.2481548400000000 0.3526390800000000 1.0625515600000000 Si
atom 1.3691957900000000 0.2129705000000000 6.3096545300000004 Hf
atom 1.3175915300000001 5.3617284400000003 1.2005973599999999 Hf
atom 1.3760851599999999 5.4491299599999996 6.2766022599999998 Hf
atom 6.3811985000000000 0.1003835200000000 1.1816206100000000 Hf
atom 6.1718143400000001 0.0405477500000000 6.1634177499999998 La
atom 6.3942737300000001 5.4020388099999996 1.2423668400000001 Hf
atom 6.3175119400000002 5.4589327900000004 6.2195966900000004 Hf
atom 1.2924299100000001 2.3807101099999999 3.6885122899999998 Hf
atom 1.3349085400000000 2.5216079599999999 8.8039579799999998 Hf
atom 1.3940077600000000 7.5730736900000002 3.7344478200000002 Hf
atom 1.2918696700000001 7.7420012600000003 8.7804006000000001 Hf
atom 6.2137189299999998 2.6100787699999999 3.6192715600000001 La
atom 6.3477178099999998 2.4661556800000000 8.6976093300000006 Hf
atom 6.3908770300000004 7.7221620499999997 3.6907063700000000 Hf
atom 6.3343652099999996 7.7349038300000004 8.7234033199999992 Hf
atom 3.7323754700000000 2.8331412700000000 1.1061732300000000 Hf
atom 3.5705929400000000 2.8394327900000000 6.3177359099999997 Hf
atom 3.7201884600000001 7.9369813400000000 1.2165887099999999 Hf
atom 3.6125318499999999 8.0674679999999999 6.3069898999999996 Hf
atom 8.7076774500000003 2.7245830799999999 1.1547324900000000 Hf
atom 8.8003783400000000 2.9516156300000000 6.3248604500000001 Hf
atom 8.7860635600000005 7.9492230099999999 1.0727305199999999 Hf
atom 8.7346433700000006 8.0367768799999997 6.1499527199999999 Hf
atom 3.6386421499999999 5.0238863800000004 3.7869234299999999 Hf
atom 3.6949628900000002 5.1794329699999997 8.7331218300000000 Hf
atom 3.5754012199999998 10.2031823500000005 3.6470543100000001 Hf
atom 3.5791044500000000 10.3394479199999996 8.8834376600000002 Hf
atom 8.7169869299999991 5.0587615300000000 3.6942851700000001 Hf
atom 8.6085807400000007 5.1162860300000004 8.7437854599999998 Hf
atom 8.9515193800000006 10.1241720100000006 3.4102812700000000 Hf
atom 8.6835739400000005 10.3485088300000001 8.6196226100000004 Hf
atom 0.3697021300000000 1.8062531200000000 1.7956080100000000 O
atom 0.4056806300000000 1.9844412199999999 7.0304346799999999 O
atom 0.3520914900000000 7.0944342100000002 1.9620499800000000 O
atom 0.3448949000000000 7.1835964600000004 6.9760192600000002 O
atom 5.3130949300000001 1.7991571200000001 1.6156119200000001 O
atom 5.2868663600000003 2.0921883800000001 6.9789809900000002 O
atom 5.3718471000000001 7.0882739800000003 1.9697540099999999 O
atom 5.3383371000000004 7.1945212999999999 6.9826426300000000 O
atom 0.2166576900000000 0.7401495300000001 4.5712337300000003 O
atom 0.3719286600000000 0.7191361400000000 9.5777645499999995 O
atom 0.3340029200000000 5.9053647500000004 4.5266436299999997 O
atom 0.2689113200000000 6.0234401100000001 9.5409399700000002 O
atom 5.2196451799999997 0.6894254399999999 4.2029027799999996 O
atom 5.3760375199999997 0.7016933900000000 9.3541582400000003 O
atom 5.3832567500000001 5.9400217900000003 4.4024656999999996 O
atom 5.3400245399999999 6.0098715000000000 9.5309923100000002 O
atom 4.8323413700000000 4.3883662499999998 2.0882090199999999 O
atom 4.5973219199999997 4.6560559599999998 6.9558390799999996 O
atom 4.7525179499999997 9.6718675100000002 1.9174178300000000 O
atom 4.4136788100000004 9.7188902499999994 7.1231030100000003 O
atom 9.8550620400000000 4.3501361799999998 2.0276801000000000 O
atom 9.7161621300000007 4.5587834400000000 7.0144905599999996 O
atom 10.0302946599999991 9.7265669300000006 1.7157302600000000 O
atom 9.6745563400000005 9.8052452100000007 6.8588371700000001 O
atom 4.4666882899999996 3.4152109099999999 4.6386846700000000 O
atom 4.6666227600000001 3.4163920200000000 9.4047914499999994 O
atom 4.8013785499999999 8.6047189300000007 4.6349898500000002 O
atom 4.6149994400000001 8.5969021500000000 9.4697247099999995 O
atom 9.5685480999999992 3.1500257199999999 4.4056684600000002 O
atom 9.6819109300000008 3.3616242500000002 9.4356876500000002 O
atom 9.8046515999999997 8.4773049900000004 4.3407755200000002 O
atom 9.6429066599999995 8.5893716999999992 9.3359546200000008 O
atom 2.3164107199999999 0.7626838600000000 2.4529017299999998 O
atom 2.6929928400000001 1.2716166799999999 7.6021691400000000 O
atom 2.6846028099999999 6.2277855000000004 2.4234287600000002 O
atom 2.6781065900000001 6.5451259200000003 7.5116067299999996 O
atom 7.8059546400000004 1.1103274200000000 2.4583730600000000 O
atom 7.8316270899999996 1.3736647900000001 7.3612219500000000 O
atom 7.7690921299999998 6.4340060899999996 2.4365181599999999 O
atom 7.6971987100000003 6.4583955399999997 7.4559064900000003 O
atom 2.6383709600000000 1.4071001800000000 4.9780157500000000 O
atom 2.5776995000000000 1.4680755200000000 10.1465029999999992 O
atom 2.7426535799999998 6.5891263799999997 4.9951454699999998 O
atom 2.6609098699999998 6.7317024500000002 9.9831264500000003 O
atom 7.7367979499999997 1.4104902500000001 9.9297927700000006 O
atom 7.6917798700000004 6.6965972200000001 4.9455162499999998 O
atom 7.6996823499999998 6.6708245699999997 9.9649736600000001 O
atom 2.1283595000000002 4.0070898200000000 4.9908509099999998 O
atom 2.3555527100000000 4.1112339599999999 9.9942406500000001 O
atom 2.2961616500000002 9.2371971800000008 5.0619496799999997 O
atom 2.2074213299999998 9.4968265100000000 10.2805634200000000 O
atom 7.4622298999999996 4.1266286399999998 5.0557922399999997 O
atom 7.3112824099999996 4.0366969599999996 9.9598069000000002 O
atom 7.5524028799999998 9.2906554200000002 4.7276863000000002 O
atom 7.3257071099999997 9.3012032199999997 9.8714264200000006 O
atom 2.4440510600000001 3.6257698800000000 2.4940797400000001 O
atom 2.2718809800000002 3.9293527799999999 7.5459354500000000 O
atom 2.6108938199999998 8.6842594599999998 2.6609957299999998 O
atom 2.1684612200000002 9.1537276399999996 7.6214184500000002 O
atom 7.5097762499999998 3.9326207300000000 2.3237340600000000 O
atom 7.3022450200000000 3.9114233500000002 7.4867650499999998 O
atom 7.4790684299999999 8.9748833300000008 2.2758345000000002 O
atom 7.4336856400000002 8.9797179299999996 7.4541279300000003 O
