lattice_vector 10.0308797999999992 0.0045530500000000 0.1971822200000000 
lattice_vector 0.0189839900000000 10.3701844600000008 -0.0160734800000000 
lattice_vector 0.0240454100000000 -0.1535426300000000 10.0807270899999999 
atom 1.1752362000000001 0.3464073900000000 1.0574019699999999 Si
atom 1.3792978100000000 0.0927734100000000 6.3523171400000003 Hf
atom 1.2635597800000000 5.2834439000000000 1.1543184500000001 Hf
atom 1.4550156100000000 5.2797075700000002 6.3742469399999999 Hf
atom 6.3665512700000004 0.1911523900000000 1.3781526399999999 Hf
atom 6.3264934600000000 0.0502252200000000 6.3771638700000004 Hf
atom 6.3358246500000002 5.3342019699999996 1.3747974100000000 Hf
atom 6.3486447500000001 5.1541749599999997 6.4941143900000000 Hf
atom 1.3474265100000000 2.2396204300000000 3.7227979100000002 Hf
atom 1.3177296800000000 2.3307599200000002 8.7973660099999993 Hf
atom 1.4360545700000000 7.5227736800000002 3.7631953199999999 Hf
atom 1.3649550600000000 7.5335795000000001 8.8845060100000008 Hf
atom 6.3915361400000004 2.3768082000000001 3.9523148699999999 Hf
atom 6.3704748100000002 2.3029560000000000 8.8716854200000004 Hf
atom 6.3142647299999997 7.9209614600000000 3.6622166699999998 Hf
atom 6.3585794399999997 7.5354876900000001 8.9017082300000006 Hf
atom 3.7767096599999999 2.6017007500000000 1.1815537800000000 Hf
atom 3.6935227500000001 2.6801480899999999 6.3196138900000003 Hf
atom 3.7869346799999999 7.7434973300000003 1.3351788499999999 Hf
atom 3.7196217499999999 7.8775181200000004 6.4284274200000002 Hf
atom 8.6560431700000002 2.7166152299999999 1.3410833900000001 Hf
atom 8.7467007999999993 2.6551511699999999 6.3994726999999996 Hf
atom 8.8039505299999998 7.9716766699999999 1.3254107900000001 Hf
atom 8.7671123499999997 7.7344830399999998 6.2856332500000001 La
atom 3.5660748199999999 4.8430293100000004 3.6535282400000000 Hf
atom 3.6874473399999999 4.9347588099999999 8.9101432900000006 Hf
atom 3.6743925599999998 10.1028981600000005 3.7937989900000000 Hf
atom 3.6042985500000002 10.1024376199999999 8.9788707900000002 Hf
atom 8.7272442100000003 5.1451967900000000 3.8802114500000000 La
atom 8.6953723699999994 4.9056863499999999 8.9508122500000002 Hf
atom 8.8459732599999992 10.2446533100000003 3.8015697899999998 Hf
atom 8.6900342300000002 10.0856347900000003 8.9035389299999999 Hf
atom 0.3385368300000000 1.7649524000000001 1.8599881199999999 O
atom 0.3747466400000000 1.8126584500000000 7.0265887999999999 O
atom 0.2449207100000000 6.9375248500000000 2.0406712300000001 O
atom 0.5217683900000000 6.9189914400000001 7.1879182400000001 O
atom 5.1844495500000001 1.7008951500000000 2.2852286500000001 O
atom 5.3549030899999996 1.8050964599999999 7.1220673699999999 O
atom 5.0304792699999998 6.6776571100000002 2.5661008999999999 O
atom 5.2976890900000004 6.9124942000000003 7.2179694300000001 O
atom 0.3968265200000000 0.5904949500000000 4.5734391800000003 O
atom 0.2970314000000000 0.5690457700000000 9.6218742299999995 O
atom 0.4706481800000000 6.0364265200000000 4.7728780100000003 O
atom 0.3137180900000000 5.7761883599999999 9.5595956399999995 O
atom 5.3036043599999996 0.7358077600000000 4.6636157899999997 O
atom 5.1519249299999998 0.7287505200000000 9.8782753099999994 O
atom 6.8935474599999997 6.4801497599999998 5.0137958100000004 O
atom 5.2234223100000001 5.9143291700000002 9.8817596999999999 O
atom 4.6745942500000002 4.3012647800000003 1.9699689199999999 O
atom 4.6713176299999999 4.3642284699999996 7.1769018000000004 O
atom 5.0525465000000001 9.3127994699999999 2.2943014200000000 O
atom 4.6953481300000002 9.5839135300000002 7.2320897799999999 O
atom 9.7133267300000004 4.3118999499999999 1.9696300400000000 O
atom 9.7082987700000007 4.4224975999999998 7.1451718800000004 O
atom 10.0050640600000005 9.7159178300000004 1.9487495600000000 O
atom 9.7937849499999992 9.6334159100000001 7.2392774199999996 O
atom 4.8201321699999999 3.5385141000000000 4.6738848600000003 O
atom 4.7002255899999996 3.2100072300000000 9.5739959199999998 O
atom 4.7588191799999997 8.5169797700000007 4.7832376500000002 O
atom 4.6546588000000000 8.4327021999999996 9.7153588899999992 O
atom 9.7630316100000005 3.1258776600000000 4.6525144899999997 O
atom 9.6329410400000004 3.1409641399999999 9.6101631800000007 O
atom 9.7314807099999996 8.4746128200000008 4.2974329100000004 O
atom 9.6446041099999995 8.3500722799999991 9.6083263199999998 O
atom 2.4283374700000002 0.7520396800000000 2.4067715100000000 O
atom 2.7372813800000002 1.1297686000000000 7.6044621000000001 O
atom 2.5056601600000001 6.1428358899999997 2.5037662799999998 O
atom 2.7928846900000002 6.2997399700000001 7.6414591100000004 O
atom 7.7019292799999999 1.2371402499999999 2.5894167700000001 O
atom 7.7045135599999997 1.0893196900000000 7.6297862399999996 O
atom 7.5370887000000000 6.6080056400000000 2.4609712799999999 O
atom 7.5944114500000000 6.1639428699999996 7.7077853300000001 O
atom 2.7703335600000001 1.3105764700000000 4.9899376899999996 O
atom 2.4933623699999998 1.2575510200000000 10.1484042399999996 O
atom 2.9987392700000002 6.4015434200000003 5.0397721600000001 O
atom 2.6558957799999998 6.4674648299999999 10.1323377499999996 O
atom 7.7622374100000000 1.3253400600000000 5.1126688900000001 O
atom 7.6440138700000002 1.2391405499999999 10.1414123200000006 O
atom 7.7129377500000000 6.4518516899999998 10.1320720600000005 O
atom 2.3060249800000001 3.8449085599999999 4.9929268999999996 O
atom 2.3309107700000000 3.8312969300000002 10.0366243900000001 O
atom 2.3117535700000000 9.0442466300000000 5.1092687600000000 O
atom 2.1902811600000001 9.2108451099999993 10.3114163199999993 O
atom 7.3040165500000001 3.8256361299999999 5.2381607099999998 O
atom 7.3090062600000003 3.8494666199999998 10.1604248599999991 O
atom 7.3743278999999999 9.2497976800000004 4.9691041299999998 O
atom 7.3022358699999996 9.0459522999999997 10.1429412499999998 O
atom 2.4078031000000002 3.5360145799999998 2.4844638500000000 O
atom 2.3457517800000001 3.6975304599999999 7.5580180099999996 O
atom 2.7079661000000002 8.6323182900000006 2.6894313799999998 O
atom 2.3498543199999999 8.9119365699999999 7.6873065799999996 O
atom 7.2268355399999997 3.7434177499999999 2.5558481700000000 O
atom 7.3706163800000004 3.6580242100000002 7.6871910500000000 O
atom 7.5696845200000000 9.1044878300000001 2.5029917799999999 O
atom 7.2527952200000003 8.9362026500000002 7.6628499100000003 O
