lattice_vector 10.1104939999999992 0.0580840000000000 0.8342380000000000 
lattice_vector 0.0454750000000000 10.2484850000000005 0.0117320000000000 
lattice_vector 0.8398270000000000 -0.0086430000000000 10.4458850000000005 
atom 1.3693599999999999 0.1121530000000000 1.8483719999999999 Si
atom 1.9027010000000000 0.1972510000000000 6.8317430000000003 Hf
atom 1.5904940000000001 5.3668089999999999 1.6302160000000001 Hf
atom 1.9468770000000000 5.3376039999999998 6.8605489999999998 Hf
atom 6.5766920000000004 0.2302930000000000 2.0428289999999998 Hf
atom 6.9931109999999999 0.2579150000000000 7.2996480000000004 Hf
atom 6.6205400000000001 5.3835839999999999 2.0436030000000001 Hf
atom 7.0288700000000004 5.3891950000000000 7.3093230000000000 Hf
atom 1.7330429999999999 2.3354230000000000 4.1793670000000001 Hf
atom 2.2100819999999999 2.2774700000000001 9.4746590000000008 Hf
atom 1.7443670000000000 7.4958330000000002 4.2735110000000001 Hf
atom 2.1460599999999999 7.4676869999999997 9.4526140000000005 Hf
atom 6.7591370000000000 2.4816170000000000 4.6111899999999997 La
atom 7.2536519999999998 2.3848060000000002 9.9149469999999997 Hf
atom 6.8172699999999997 7.5068060000000001 4.6653380000000002 Hf
atom 7.2132290000000001 7.5084600000000004 9.9260929999999998 Hf
atom 3.7395520000000002 2.7725680000000001 1.3684820000000000 Hf
atom 4.0905069999999997 2.7992880000000002 6.6415080000000000 Hf
atom 3.6947220000000001 7.9996280000000004 1.3819410000000001 Hf
atom 4.1895949999999997 7.9228529999999999 6.6403699999999999 Hf
atom 8.9310159999999996 2.7737560000000001 1.8281200000000000 Hf
atom 9.2439260000000001 2.8133400000000002 7.0484479999999996 Hf
atom 8.8609240000000007 7.9835149999999997 1.8313260000000000 Hf
atom 9.2056210000000007 7.9410059999999998 7.0480150000000004 Hf
atom 3.9369410000000000 4.9744940000000000 3.9876589999999998 Hf
atom 4.3899350000000004 4.9374390000000004 9.2262810000000002 Hf
atom 3.9472790000000000 10.0209910000000004 3.9577000000000000 Hf
atom 4.4160159999999999 10.1100989999999999 9.2507370000000009 Hf
atom 9.0865069999999992 4.9909400000000002 4.4179620000000002 Hf
atom 9.4543830000000000 4.9216600000000001 9.6785850000000000 Hf
atom 9.0253280000000000 10.0821970000000007 4.4544199999999998 Hf
atom 9.4542029999999997 10.0831499999999998 9.6480730000000001 Hf
atom 0.6509060000000000 1.4620230000000001 0.8934710000000000 O
atom 0.8427890000000000 1.6735089999999999 6.0050559999999997 O
atom 0.4516060000000000 6.8342999999999998 0.8493570000000000 O
atom 0.8305399999999999 6.8142160000000001 6.0716010000000002 O
atom 5.5168520000000001 1.7728740000000001 1.3069489999999999 O
atom 5.7997019999999999 1.7197080000000000 6.6529049999999996 O
atom 5.4705300000000001 6.8926860000000003 1.2815479999999999 O
atom 5.9188210000000003 6.8671470000000001 6.4960120000000003 O
atom 0.6635420000000000 0.7639820000000000 3.3669920000000002 O
atom 1.0159640000000001 0.8639330000000000 8.6482039999999998 O
atom 0.6935150000000000 5.9725510000000002 3.4630610000000002 O
atom 1.0604640000000001 5.9867270000000001 8.6994190000000007 O
atom 5.6310549999999999 0.7047670000000000 3.8164039999999999 O
atom 6.1766629999999996 0.8204240000000000 9.1701750000000004 O
atom 5.7534809999999998 5.9364889999999999 3.9100320000000002 O
atom 6.1110530000000001 6.0223969999999998 9.1152909999999991 O
atom 4.9063319999999999 4.2856589999999999 2.2039040000000001 O
atom 5.2838300000000000 4.2959230000000002 7.4126420000000000 O
atom 4.8715149999999996 9.3846139999999991 2.1524950000000000 O
atom 5.2951430000000004 9.4191260000000003 7.4199580000000003 O
atom 10.0932200000000005 4.2391589999999999 2.6326139999999998 O
atom 10.3563969999999994 4.2841969999999998 7.8908069999999997 O
atom 10.0754120000000000 9.4417030000000004 2.6344249999999998 O
atom 10.3448429999999991 9.4214520000000004 7.8448039999999999 O
atom 4.7930130000000002 3.4479540000000002 4.8508279999999999 O
atom 5.5674960000000002 3.5149979999999998 10.0557970000000001 O
atom 5.0296490000000000 8.4971270000000008 4.7689000000000004 O
atom 5.4262910000000000 8.5404909999999994 10.0140750000000001 O
atom 10.1056779999999993 3.4047230000000002 5.1753749999999998 O
atom 10.6226749999999992 3.4460670000000002 10.5149620000000006 O
atom 10.1210059999999995 8.5860660000000006 5.2451520000000000 O
atom 10.5665180000000003 8.6095290000000002 10.4689949999999996 O
atom 2.8181340000000001 1.1836260000000001 2.5001039999999999 O
atom 3.3432970000000002 1.2820300000000000 7.8926259999999999 O
atom 3.0171290000000002 6.5156549999999998 2.7368939999999999 O
atom 3.4194110000000002 6.4445420000000002 7.9526539999999999 O
atom 8.1556660000000001 1.2689280000000001 3.0573929999999998 O
atom 8.4792400000000008 1.3757980000000001 8.4026960000000006 O
atom 8.0946250000000006 6.5246500000000003 3.1600980000000001 O
atom 8.4880150000000008 6.4751399999999997 8.4115959999999994 O
atom 3.1853940000000001 1.2463540000000000 5.2597740000000002 O
atom 3.8936720000000000 1.5123759999999999 10.3228580000000001 O
atom 3.2123550000000001 6.3795609999999998 5.3641930000000002 O
atom 3.6362420000000002 6.4624670000000002 10.5528809999999993 O
atom 8.3512400000000007 1.2018640000000000 5.8698639999999997 O
atom 8.7177050000000005 1.2759149999999999 10.9908090000000005 O
atom 8.2879900000000006 6.4504219999999997 5.7658040000000002 O
atom 8.7067429999999995 6.4099539999999999 11.0071130000000004 O
atom 2.3258749999999999 3.9610989999999999 0.2815060000000000 O
atom 2.5369989999999998 3.8926710000000000 5.5189779999999997 O
atom 2.2733010000000000 9.4125990000000002 0.4925290000000000 O
atom 2.7084860000000002 8.9969599999999996 5.5296279999999998 O
atom 7.4082739999999996 3.8987370000000001 0.7122579999999999 O
atom 7.9028489999999998 4.0439090000000002 6.0082930000000001 O
atom 7.3589580000000003 9.0395380000000003 0.7172310000000000 O
atom 7.7276949999999998 9.0285609999999998 5.9374110000000000 O
atom 2.5486070000000001 3.7868659999999998 2.8908060000000000 O
atom 2.9253600000000000 3.7975859999999999 8.1483179999999997 O
atom 2.3684590000000001 8.9899500000000003 2.8815689999999998 O
atom 2.9352209999999999 8.9293580000000006 8.1844809999999999 O
atom 7.7652500000000000 3.9667970000000001 3.1736179999999998 O
atom 7.9812950000000003 3.8466950000000000 8.5785520000000002 O
atom 7.6279800000000000 8.9688719999999993 3.3251070000000000 O
atom 7.9790179999999999 8.9554770000000001 8.5648090000000003 O
