lattice_vector 10.0926650000000002 0.0625620000000000 0.8262740000000000 
lattice_vector 0.0676060000000000 10.2411659999999998 0.0008700000000000 
lattice_vector 0.8345020000000000 -0.0450320000000000 10.4572439999999993 
atom 1.3271420000000000 0.1246630000000000 1.8038289999999999 Si
atom 1.7731900000000000 0.0816530000000000 6.9660970000000004 Hf
atom 1.5736640000000000 5.3549420000000003 1.6321010000000000 Hf
atom 2.0001310000000001 5.2827650000000004 6.8456750000000000 Hf
atom 6.5528880000000003 0.2786620000000000 2.0767289999999998 Hf
atom 7.0225150000000003 0.1918990000000000 7.2993850000000000 Hf
atom 6.5804689999999999 5.3784890000000001 2.0380039999999999 Hf
atom 7.0095970000000003 5.3403910000000003 7.3028480000000000 Hf
atom 1.6810879999999999 2.3505799999999999 4.0731440000000001 Hf
atom 2.1791260000000001 2.2543869999999999 9.4949490000000001 Hf
atom 1.7765350000000000 7.4382130000000002 4.2663250000000001 Hf
atom 2.1310810000000000 7.4000240000000002 9.4558070000000001 Hf
atom 6.8735720000000002 2.3762850000000002 4.6393440000000004 Hf
atom 7.2178269999999998 2.3651529999999998 9.9059770000000000 Hf
atom 6.8120269999999996 7.4867189999999999 4.6654910000000003 Hf
atom 7.1926490000000003 7.4629779999999997 9.9364910000000002 Hf
atom 3.7277250000000000 2.7788990000000000 1.3349920000000000 Hf
atom 4.1591680000000002 2.6400429999999999 6.5845140000000004 La
atom 3.7035309999999999 7.9811800000000002 1.3905719999999999 Hf
atom 4.2113630000000004 7.9210430000000001 6.6389849999999999 Hf
atom 8.8791309999999992 2.7787220000000001 1.8317340000000000 Hf
atom 9.2574100000000001 2.7641220000000000 7.0284709999999997 Hf
atom 8.8358279999999993 7.9577660000000003 1.8185249999999999 Hf
atom 9.2022099999999991 7.8479989999999997 7.0517700000000003 Hf
atom 3.9941499999999999 4.9084839999999996 3.9615800000000001 Hf
atom 4.3836440000000003 4.9165219999999996 9.2308660000000007 Hf
atom 3.9859589999999998 9.9964169999999992 3.9059360000000001 Hf
atom 4.4137750000000002 10.0852310000000003 9.2758459999999996 Hf
atom 9.0233380000000007 4.9541130000000004 4.4006150000000002 Hf
atom 9.4474730000000005 4.8870870000000002 9.6661239999999999 Hf
atom 9.0652690000000007 10.0121120000000001 4.4379169999999997 Hf
atom 9.3895060000000008 10.0270499999999991 9.7012309999999999 Hf
atom 0.6042240000000000 1.4853730000000001 0.9133850000000000 O
atom 1.0391520000000001 1.6649380000000000 5.9703109999999997 O
atom 0.4390950000000000 6.8096629999999996 0.8363120000000001 O
atom 0.8843950000000000 6.7925409999999999 6.0876630000000000 O
atom 5.4845420000000003 1.7595170000000000 1.2700540000000000 O
atom 6.1903660000000000 1.7519700000000000 6.4544490000000003 O
atom 5.4807649999999999 6.9157690000000001 1.2961879999999999 O
atom 5.9567759999999996 6.9028869999999998 6.5146899999999999 O
atom 0.6663640000000000 0.7326700000000000 3.3413339999999998 O
atom 0.8992400000000000 0.8453830000000000 8.7024740000000005 O
atom 0.6749600000000000 5.9499350000000000 3.4717950000000002 O
atom 1.0535859999999999 5.9451200000000002 8.6738560000000007 O
atom 5.6135450000000002 0.9018640000000000 3.8931719999999999 O
atom 6.1344200000000004 0.8394750000000000 9.1078620000000008 O
atom 5.7328419999999998 5.9919710000000004 3.8745690000000002 O
atom 6.1304590000000001 5.9932319999999999 9.1334669999999996 O
atom 4.8464190000000000 4.3507610000000003 2.1107600000000000 O
atom 5.2811250000000003 4.3985469999999998 7.4368829999999999 O
atom 4.9001739999999998 9.4074130000000000 2.1905220000000001 O
atom 5.2781789999999997 9.4759270000000004 7.3928089999999997 O
atom 9.9887119999999996 4.2664679999999997 2.6250450000000001 O
atom 10.3658900000000003 4.2415010000000004 7.8446970000000000 O
atom 10.0522270000000002 9.4275760000000002 2.6126000000000000 O
atom 10.2683330000000002 9.3453520000000001 7.8905019999999997 O
atom 5.1884920000000001 3.4647030000000001 4.6331899999999999 O
atom 5.5512170000000003 3.4727820000000000 10.0242059999999995 O
atom 5.0770109999999997 8.5382700000000007 4.7789219999999997 O
atom 5.4178360000000003 8.5127059999999997 10.0446530000000003 O
atom 10.0831599999999995 3.3967220000000000 5.1638520000000003 O
atom 10.5633739999999996 3.4117609999999998 10.5321339999999992 O
atom 10.1486470000000004 8.5517500000000002 5.2667169999999999 O
atom 10.5342009999999995 8.5590139999999995 10.4744080000000004 O
atom 2.8236370000000002 1.1860219999999999 2.5295760000000000 O
atom 3.2130770000000002 1.1165550000000000 7.9960019999999998 O
atom 3.0190079999999999 6.4675380000000002 2.7323469999999999 O
atom 3.4256509999999998 6.4206979999999998 7.9506100000000002 O
atom 8.0485179999999996 1.3267190000000000 3.1623640000000002 O
atom 8.4873919999999998 1.3218330000000000 8.3844860000000008 O
atom 8.0905539999999991 6.4785750000000002 3.1525040000000000 O
atom 8.4951100000000004 6.4210599999999998 8.4069739999999999 O
atom 3.8544010000000002 1.4807310000000000 10.3455610000000000 O
atom 3.2692649999999999 6.4032730000000004 5.3556400000000002 O
atom 3.6278109999999999 6.4390270000000003 10.5757709999999996 O
atom 8.4473479999999999 1.2245100000000000 5.7560050000000000 O
atom 8.6667600000000000 1.2454040000000000 11.0435479999999995 O
atom 8.2800670000000007 6.3753380000000002 5.7667180000000000 O
atom 8.6891499999999997 6.3685679999999998 11.0080790000000004 O
atom 2.2979560000000001 3.9661390000000001 0.2774780000000000 O
atom 2.6155050000000002 3.9406680000000001 5.3429640000000003 O
atom 2.2704979999999999 9.4204609999999995 0.5185050000000000 O
atom 2.7727240000000002 9.1342770000000009 5.5215490000000003 O
atom 7.3838650000000001 3.9080740000000000 0.7244710000000000 O
atom 7.8117299999999998 3.8967100000000001 5.9356190000000000 O
atom 7.3350020000000002 9.0585319999999996 0.7440550000000000 O
atom 7.7801760000000000 8.9984409999999997 5.9408599999999998 O
atom 2.5376680000000000 3.7686030000000001 2.8386110000000002 O
atom 2.8462040000000002 3.8120919999999998 8.2102699999999995 O
atom 2.4306719999999999 8.9349779999999992 2.9051100000000001 O
atom 2.9340440000000001 8.8502039999999997 8.2008100000000006 O
atom 7.6200559999999999 3.8314689999999998 3.2855259999999999 O
atom 7.9983029999999999 3.7960050000000001 8.5472479999999997 O
atom 7.6180450000000004 8.9577010000000001 3.3298580000000002 O
atom 7.9498249999999997 8.8928100000000008 8.5846760000000000 O
