lattice_vector 5.0469459700000003 0.0867226500000000 0.3544579900000000 
lattice_vector 0.0521217700000000 10.2708115800000002 0.0175050600000000 
lattice_vector 0.8535144300000000 0.0149276300000000 10.4871042899999996 
atom 1.3475767599999999 0.1864479200000000 1.8066386600000000 Si
atom 1.9426040099999999 0.2271488800000000 6.8655864400000004 Hf
atom 1.5527246900000000 5.4148067800000002 1.6401833600000000 Hf
atom 1.9584966300000000 5.2461839799999996 6.8765589100000000 Hf
atom 1.7650798500000000 2.3287491800000000 4.1676464299999996 Hf
atom 2.2195753100000002 2.3695425100000000 9.5147178900000000 Hf
atom 1.8258811900000000 7.5010270700000001 4.2170796199999998 Hf
atom 2.0488994200000001 7.4935998300000000 9.5026278699999995 Hf
atom 3.8164975200000000 2.7709114800000001 1.3656134300000000 Hf
atom 4.1893520999999998 2.8027343600000001 6.5741183999999997 Hf
atom 3.7063695800000001 8.0998055600000001 1.3760074900000001 Hf
atom 4.2298729100000001 7.8565609299999997 6.7373940799999996 La
atom 4.0137476500000000 4.9286817999999997 3.9407210500000001 Hf
atom 4.3536503800000004 4.9814581799999997 9.2878535699999993 Hf
atom 3.9659914900000000 10.0856047899999997 3.9504912700000001 Hf
atom 4.4206696399999998 10.2532885199999999 9.2700572000000001 Hf
atom 0.6162948100000000 1.5122781000000001 0.9020714100000000 O
atom 0.8907888500000000 1.6930784400000001 5.9939333799999996 O
atom 0.3734119200000000 6.8573166399999996 0.8477534000000000 O
atom 1.1944772800000001 6.9015712699999998 6.0923121199999999 O
atom 0.6439734400000000 0.8056018200000000 3.3292094799999998 O
atom 1.0864431400000001 0.9533562700000000 8.7106175900000000 O
atom 0.6912615400000000 5.9622865599999999 3.4763576700000001 O
atom 0.8668717300000000 6.1312157100000002 8.6326648600000002 O
atom 4.9538739100000004 4.2965221800000002 2.1505635900000000 O
atom 5.2504717799999998 4.3406324700000001 7.4186612299999997 O
atom 5.0055591300000000 9.5241896100000005 2.1370017899999998 O
atom 5.3146169800000003 9.6766404200000000 7.4814754299999997 O
atom 5.1123732000000004 3.4834853600000000 4.7664024600000001 O
atom 5.6222867000000001 3.6082561599999998 10.1358891799999995 O
atom 5.1135207100000004 8.6038136099999996 4.6150666899999999 O
atom 5.3826379900000001 8.6807557299999996 10.0532381199999996 O
atom 2.8231952900000001 1.2122092700000000 2.4857970800000002 O
atom 3.4064296100000000 1.3598379199999999 7.8657555800000001 O
atom 3.0369360099999998 6.5249862299999997 2.6939099299999998 O
atom 3.2098203199999999 6.3199055900000003 8.1341084600000002 O
atom 3.2891275599999998 1.3231269400000001 5.2077331500000001 O
atom 3.9078123200000001 1.6147096200000000 10.3548716499999998 O
atom 3.2511468200000002 6.2565052000000003 5.2648105500000000 O
atom 3.5978281600000002 6.5777162499999999 10.6221365100000007 O
atom 2.3521893399999998 4.0028669600000004 0.3254774800000000 O
atom 2.7080308199999998 3.8399339700000001 5.5092055499999999 O
atom 2.2719265399999999 9.5450100399999993 0.5529636900000000 O
atom 2.6647377799999998 9.1442536099999998 5.4332709699999997 O
atom 2.5916920000000001 3.7755791799999998 2.8828865100000001 O
atom 2.9490056600000001 3.7938003000000000 8.1642867199999998 O
atom 2.4813446799999999 9.0210955100000003 2.8805674699999999 O
atom 2.8576349699999999 9.0459289700000003 8.3683098499999993 O
