lattice_vector 9.9726269100000007 0.0529069500000000 -0.1074784000000000 
lattice_vector 0.0849575000000000 10.1342384200000009 -0.0235105000000000 
lattice_vector -0.0618039000000000 0.0143518000000000 10.4062190399999999 
atom 1.1944642299999999 0.1225817200000000 1.9483568099999999 Si
atom 1.3210273100000001 0.2150747300000000 6.9423748200000004 Hf
atom 1.4331495200000000 5.3180937100000003 1.7508743800000000 Hf
atom 1.3665203699999999 5.3204454200000004 6.9150292899999997 Hf
atom 1.3624969100000000 2.3222353400000002 4.2670176299999998 Hf
atom 1.4437636400000000 2.3021456100000002 9.5658336100000003 Hf
atom 1.2912527899999999 7.4733577400000000 4.3088195999999996 Hf
atom 1.3635415500000001 7.4536807600000001 9.5439966999999992 Hf
atom 3.6286957399999999 2.7704024100000000 1.7128235100000000 Hf
atom 3.5728615800000001 2.7802357000000000 6.9086936400000001 Hf
atom 3.6014143199999999 7.9262375799999996 1.7256648500000000 Hf
atom 3.6173771700000001 7.8469764499999997 6.9337446500000004 Hf
atom 3.6109821200000001 4.8847137700000003 4.3270238399999998 Hf
atom 3.5841889299999998 4.8972622399999999 9.5239760800000006 Hf
atom 3.6036639799999999 9.9586637899999992 4.3004089099999998 Hf
atom 3.6498028400000000 10.0043909499999994 9.5561919399999997 Hf
atom 6.4229392299999999 0.2356757100000000 0.7714822000000000 Hf
atom 6.3151794299999997 0.2042572700000000 5.9220104500000001 Hf
atom 6.4154817700000004 5.3096528899999997 0.7451438700000000 Hf
atom 6.3805293699999996 5.3114086599999997 5.9544762699999998 Hf
atom 6.4253086399999999 2.2679831899999998 3.3465615099999999 Hf
atom 6.3474142200000001 2.3617538599999999 8.5442400200000002 Hf
atom 6.3980153099999999 7.4239314199999997 3.3596041699999999 Hf
atom 6.3918330100000000 7.4284831799999997 8.5696398200000008 Hf
atom 8.7344995300000008 2.7214616000000000 0.7631962500000000 Hf
atom 8.6017721300000005 2.7552674599999998 5.9345339900000003 Hf
atom 8.6640625000000000 7.8720514899999996 0.8050579200000000 Hf
atom 8.5210818699999997 7.9062674099999999 5.9129912999999998 Hf
atom 8.5934724700000000 4.8761908099999998 3.3212803399999999 Hf
atom 8.5986315199999996 4.8884496300000002 8.5635172300000004 Hf
atom 8.8319762599999994 10.0715578299999997 3.1235627500000001 Si
atom 8.6440917499999994 9.9936436600000000 8.5358575699999992 Hf
atom 0.6025083300000000 1.4627928100000001 0.9377936500000000 O
atom 0.3214124500000000 1.6388415300000001 5.9708781899999996 O
atom 0.4052402000000000 6.7896867199999997 0.8676194800000000 O
atom 0.2826066500000000 6.7781814000000002 5.9712563899999997 O
atom 0.2689442000000000 0.7884620600000000 3.3776332500000001 O
atom 0.2853497900000000 0.9191443300000000 8.6218081099999999 O
atom 0.3081587500000000 5.9592997800000003 3.4314349000000002 O
atom 0.3256534400000000 5.9844467400000001 8.6403295999999994 O
atom 4.6789531899999997 4.2812749700000001 0.8444615000000000 O
atom 4.6225106900000004 4.2902639999999996 6.0411637899999997 O
atom 4.7575582799999996 9.3379261299999996 0.8331322900000000 O
atom 4.5972263000000000 9.3859460499999994 6.0532617999999996 O
atom 4.6715305999999996 3.3471600600000002 3.4599473800000000 O
atom 4.6362199899999998 3.4159644600000001 8.6237279200000003 O
atom 4.6049453099999997 8.4525399199999995 3.4330473200000000 O
atom 4.6651982900000002 8.4640029200000004 8.6421197900000006 O
atom 2.5655974900000000 1.1607340700000000 2.7841356799999999 O
atom 2.7218642200000001 1.2512711500000000 8.1338935899999996 O
atom 2.7416762200000000 6.4084354499999998 3.0164670600000001 O
atom 2.7443198299999998 6.3442542599999996 8.1947757899999996 O
atom 3.1165333000000000 1.5611912500000000 0.1852115200000000 O
atom 2.7328171999999999 1.3421743300000000 5.5252155099999998 O
atom 2.8253633900000001 6.4893457500000000 0.3840495300000000 O
atom 2.7186996400000001 6.3989287700000004 5.5866210799999996 O
atom 2.2567118000000002 3.8066104699999999 3.0273555299999999 O
atom 2.2111408799999999 3.8121896899999999 8.2196216399999997 O
atom 2.0932660599999999 8.9645301300000000 2.9833706900000001 O
atom 2.2462523299999999 8.8816695100000000 8.2798946900000008 O
atom 2.2384335700000002 3.9194183300000001 0.4237250700000000 O
atom 2.1831746299999999 3.8411288200000002 5.5958176100000001 O
atom 2.1895275399999998 9.2427575599999994 0.5827743600000000 O
atom 2.2108433399999998 8.9110163900000003 5.5970835200000000 O
atom 5.4218523899999997 1.7418497200000000 1.6391522199999999 O
atom 5.2995674599999996 1.7445585200000000 6.8362740300000002 O
atom 5.3552418399999997 6.8473340000000000 1.6122307800000000 O
atom 5.3286273099999999 6.7926589000000002 6.8546514700000003 O
atom 5.2689527900000002 0.8566203500000000 4.2390853799999997 O
atom 5.3678465299999996 0.8226955300000000 9.4250557399999995 O
atom 5.3476455400000003 5.9130870199999999 4.2276824700000004 O
atom 5.3423161300000004 5.9184482899999997 9.4372728200000005 O
atom 9.7185149200000005 4.2348174500000004 1.6406975699999999 O
atom 9.6392205700000009 4.2243940100000001 6.8379901500000004 O
atom 9.7576542699999997 9.4059456299999997 1.6940806200000000 O
atom 9.6793999300000007 9.2897275799999992 6.8562143799999999 O
atom 9.6213300400000001 3.4046198599999999 4.2044296499999998 O
atom 9.6822670399999993 3.4305300999999999 9.5072633000000000 O
atom 9.4250656199999998 8.7310532999999992 4.1340333800000000 O
atom 9.6434780399999998 8.5695781100000001 9.5072890700000006 O
atom 7.7540626200000000 1.2977074300000000 9.8810347099999998 O
atom 7.8372758300000003 0.9507389600000000 4.4886572100000004 O
atom 7.7816347600000002 6.3675499499999999 9.8826368000000002 O
atom 7.7882404899999997 6.2747364699999997 4.6485168000000003 O
atom 7.9334040899999998 1.2299645100000001 2.0884350700000001 O
atom 7.7186657299999997 1.3270286400000000 7.1981238899999997 O
atom 7.7697844600000003 6.3877490300000002 2.0448899200000001 O
atom 7.7538840799999997 6.3966126000000001 7.2587842199999999 O
atom 7.2462027700000000 3.8096707799999998 9.8920497500000000 O
atom 7.2014382000000001 3.7048153699999999 4.6881979500000002 O
atom 7.2318932599999997 8.8663106799999998 9.9533429800000004 O
atom 6.9105640099999999 8.6330640499999998 4.8870104300000001 O
atom 7.2848097000000003 3.7859412300000002 2.0557566700000001 O
atom 7.2206340800000000 3.8646740300000002 7.2837111500000002 O
atom 7.4613306200000000 9.0336829499999993 2.2883654899999999 O
atom 7.2429297799999999 8.9575756099999992 7.3445161399999996 O
