lattice_vector 10.1450054000000005 0.0223909600000000 0.7553412900000001 
lattice_vector 0.0599214500000000 10.2591775999999992 -0.0079037600000000 
lattice_vector 0.8323906500000000 -0.0541347400000000 10.4550202199999998 
atom 1.2805807100000000 0.1649029400000000 1.7624860600000001 Si
atom 1.9249310500000001 0.1303865900000000 6.8035453300000004 Hf
atom 1.5476928400000001 5.3631715000000000 1.6764288700000001 Hf
atom 1.9997261200000001 5.3123400399999996 6.8416572100000002 Hf
atom 6.5968130599999997 0.2608885900000000 1.9839894800000000 Hf
atom 7.0414130899999998 0.2149310800000000 7.2053789400000001 Hf
atom 6.6147575900000000 5.3551780700000000 2.0257361299999999 Hf
atom 6.9749857000000004 5.1526909999999999 7.1101058300000002 La
atom 1.7601876599999999 2.2916761700000001 4.1271819199999999 Hf
atom 2.1299297600000000 2.1950330999999998 9.4884163299999997 Hf
atom 1.7974312800000001 7.4552888900000003 4.2662970199999997 Hf
atom 2.1977426499999999 7.4841645300000001 9.4815991200000003 Hf
atom 6.8473853199999999 2.3289755599999999 4.5934328500000001 Hf
atom 7.2627865600000003 2.3528430400000002 9.8607528000000002 Hf
atom 6.8624470899999999 7.5203602800000002 4.6078070000000002 Hf
atom 7.1457569200000002 7.5320987800000001 9.7840704699999996 La
atom 3.7480683400000001 2.7640830599999999 1.3484845000000001 Hf
atom 4.1410576399999997 2.7143322300000001 6.5625045100000001 Hf
atom 3.6687372100000002 7.9746544400000001 1.4122383800000000 Hf
atom 4.2287139399999996 7.9316061199999996 6.6133283499999997 Hf
atom 8.8783789100000003 2.7625876900000002 1.7582318699999999 Hf
atom 9.3662485199999992 2.7348420400000002 6.9572982699999999 Hf
atom 8.8873071800000005 7.9235369799999997 1.7322361799999999 Hf
atom 9.2868328299999998 7.8505890599999999 6.9510713800000001 Hf
atom 4.0283420599999999 4.8972377600000003 3.9965593899999998 Hf
atom 4.0781157900000000 4.7564137100000003 9.2737567999999992 Hf
atom 4.0019232400000000 10.0195712100000005 3.8930240800000000 Hf
atom 4.4186285400000003 10.1309705500000007 9.1904830900000007 Hf
atom 9.0954422600000004 4.9068497200000003 4.3221723399999998 Hf
atom 9.5375705699999997 4.8971092100000000 9.6199779500000009 Hf
atom 9.0931898800000006 10.0072755400000002 4.3508774199999998 Hf
atom 9.5256726300000008 10.0269144200000007 9.5374179100000003 Hf
atom 0.5627136200000000 1.4895351299999999 0.8779644500000000 O
atom 0.8721671200000000 1.6023227200000001 5.9470536300000001 O
atom 0.4980969500000000 6.8930945100000001 0.8798345800000000 O
atom 0.9052240300000000 6.7950885300000001 6.0774913399999999 O
atom 5.5018148599999996 1.7505236799999999 1.1888695899999999 O
atom 5.9596525700000003 1.7680050599999999 6.4629057899999998 O
atom 5.3771771499999996 6.7807937000000003 1.3014665000000001 O
atom 6.0103916599999998 7.0796978700000004 6.5343092399999998 O
atom 0.6619107000000000 0.7545839100000000 3.3270876899999999 O
atom 1.0206360000000001 0.8052965800000000 8.6123965699999996 O
atom 0.6800258100000000 5.9548069500000000 3.4725026899999998 O
atom 1.1690288700000000 5.9374804799999996 8.7229077999999998 O
atom 5.6632426300000001 0.8888941200000000 3.7764628700000000 O
atom 6.2052089199999996 0.7730630900000000 9.1040349400000000 O
atom 5.7846005099999998 5.9453434600000001 3.9286876600000000 O
atom 4.9202095100000003 4.2156509099999999 2.2371137900000000 O
atom 4.9975813300000000 4.2291251799999996 7.5382687700000002 O
atom 4.9310948200000002 9.3953777800000005 2.0836734500000000 O
atom 5.3098788099999998 9.4882900800000005 7.3684118099999996 O
atom 9.9984837599999992 4.2569872999999996 2.5357897800000000 O
atom 10.4385626899999995 4.2416929699999999 7.7629518199999996 O
atom 10.0663146399999999 9.4354929199999997 2.5334889000000000 O
atom 10.4625857500000006 9.3222291800000008 7.7550669599999997 O
atom 5.1814357400000004 3.4865133799999999 4.8768091699999996 O
atom 5.6082923200000003 3.6884831400000002 10.0367370099999995 O
atom 5.0939294899999998 8.5555256199999992 4.7176214800000000 O
atom 5.0448014399999996 8.3820187100000005 9.9383796600000007 O
atom 10.2627904700000006 3.4152346599999999 5.1138423900000003 O
atom 10.6079276599999996 3.3578962699999999 10.4598519599999999 O
atom 10.2144065800000003 8.5444551299999993 5.1533885399999999 O
atom 10.5982489399999995 8.5037779300000000 10.3599970100000007 O
atom 2.8060518700000001 1.1836755400000001 2.4494739499999998 O
atom 3.3639553200000001 1.2502682700000001 7.8347027100000002 O
atom 3.0265408200000001 6.4407069999999997 2.7624066599999999 O
atom 3.5060014399999999 6.4151066800000001 7.9969760599999997 O
atom 8.0842728000000008 1.3021011600000001 3.0797355600000000 O
atom 8.5236706499999997 1.3075189899999999 8.2874804500000003 O
atom 8.1021454399999993 6.4669876200000003 3.0819839400000002 O
atom 8.6430717300000008 6.3869982199999997 8.3243514100000002 O
atom 3.2466668900000002 1.2402475100000001 5.1874276100000003 O
atom 3.8890644600000002 1.5166189800000001 10.2691528099999996 O
atom 3.2869418000000001 6.3581980700000003 5.3724897900000004 O
atom 3.6056647000000002 6.3173222899999999 10.6076419800000004 O
atom 8.3083792499999998 1.2017770500000000 5.6800414400000001 O
atom 8.7166701199999999 1.2425476499999999 10.9186624299999995 O
atom 8.3868154100000005 6.4103888800000002 5.5976252500000001 O
atom 8.7882952999999997 6.2850236300000004 11.0175910699999999 O
atom 2.2135796299999999 3.8789834500000002 0.3258566600000000 O
atom 2.7384730199999998 3.8561863800000000 5.4808557400000000 O
atom 2.1925111799999999 9.4695841999999999 0.5213107700000000 O
atom 2.7700081499999998 8.9989937900000001 5.4851550900000001 O
atom 7.4120588800000000 3.8888153100000000 0.6910754200000000 O
atom 7.9796527299999997 3.7372451199999999 5.7427743299999996 O
atom 7.4660057300000000 9.1134188799999993 0.6532405700000000 O
atom 7.8268747300000001 9.0160100100000005 5.8337025000000002 O
atom 2.5700475599999999 3.7595212800000000 2.8881571300000002 O
atom 2.7388375100000002 3.6961411499999999 8.1608275199999998 O
atom 2.4812495600000002 8.9223259800000001 2.9195683699999999 O
atom 2.9446037399999998 8.9187412599999991 8.1425440099999999 O
atom 7.6158783500000000 3.7846925699999998 3.2393657500000002 O
atom 8.1492279100000005 3.7112877499999999 8.5695015100000003 O
atom 7.6512558400000001 8.9500046599999994 3.2366112999999999 O
atom 8.1268656099999994 9.0139199800000007 8.3575849499999997 O
