lattice_vector 10.0349422500000003 -0.0002586200000000 -0.1403735500000000 
lattice_vector 0.0224148700000000 10.2287439500000001 0.0354852200000000 
lattice_vector -0.0757120800000000 0.0391925100000000 10.4636102500000003 
atom 1.0226006999999999 0.2635797300000000 2.3015616799999998 Si
atom 1.3873859900000001 0.1507420000000000 6.8087124799999996 Hf
atom 1.4047992400000000 5.3362210299999999 1.7672873000000000 Hf
atom 1.3647982800000000 5.3654419500000001 7.0292262900000004 Hf
atom 1.3610951099999999 2.4418234999999999 4.3827192100000003 Hf
atom 1.2730788099999999 2.2215068800000002 9.5751708400000002 La
atom 1.3257437800000000 7.4683537600000003 4.3656996699999997 Hf
atom 1.3872879100000000 7.5319049500000004 9.6109404099999995 Hf
atom 3.5962061200000002 2.7363979600000001 1.6856426799999999 Hf
atom 3.5918042899999998 2.7973212300000001 6.9557934599999998 Hf
atom 3.5813312399999999 7.9476148400000000 1.6757181900000000 Hf
atom 3.5980712200000000 7.8994289699999998 6.9549751999999998 Hf
atom 3.5954652199999999 4.9269094000000004 4.3519300999999997 Hf
atom 3.5729020399999998 4.9133952000000001 9.6033889600000002 Hf
atom 3.5903879000000001 10.0627907499999996 4.2833832200000002 Hf
atom 3.6277968999999999 10.0545200599999998 9.5791145899999997 Hf
atom 6.4258017499999998 0.2273565700000000 0.7356053800000000 Hf
atom 6.3128443200000000 0.2467502800000000 5.9799879300000001 Hf
atom 6.4131881799999997 5.3337317999999998 0.7570654800000000 Hf
atom 6.3809741000000004 5.3488843299999997 5.9846444999999999 Hf
atom 6.3684530700000002 2.3786554099999999 3.3792653499999998 Hf
atom 6.3852196599999997 2.3976276599999999 8.6191896099999994 Hf
atom 6.3523835100000001 7.4591986900000000 3.3405534700000001 Hf
atom 6.3558039500000003 7.4657120199999998 8.6118452899999998 Hf
atom 8.6582378999999996 2.7465058999999998 0.8372319200000000 Hf
atom 8.6157675800000000 2.7938676600000001 6.0082859800000001 Hf
atom 8.7281318700000003 7.9356513199999998 0.7609331000000000 Hf
atom 8.6050283099999998 7.8992182000000000 5.9821956399999996 Hf
atom 8.6170963000000000 4.9272269700000004 3.3638765600000000 Hf
atom 8.5996393700000002 4.9551179400000001 8.6227027500000002 Hf
atom 8.5165159799999994 10.0080478900000003 3.4502605100000001 Hf
atom 8.5129899400000006 10.0027234200000006 8.5858287999999998 Hf
atom 0.4623510900000000 1.4889384500000000 1.2443605300000000 O
atom 0.3531766000000000 1.7882211500000000 6.2477733899999999 O
atom 0.3718811300000000 6.8442874399999996 0.8949638300000000 O
atom 0.3117377900000000 6.8616257400000000 6.1173055099999996 O
atom 0.2814741000000000 0.7594199500000000 3.7384927800000001 O
atom 0.3177809000000000 5.9591511700000002 3.5213125700000001 O
atom 0.2958115300000000 6.0191061599999998 8.7415776100000002 O
atom 4.7105295800000002 4.2434506200000000 0.8306423200000000 O
atom 4.6492774600000004 4.2869851099999998 6.0358048399999999 O
atom 4.7887939399999997 9.3467221499999997 0.8115860800000000 O
atom 4.6160117999999999 9.4132084799999998 6.0241038299999996 O
atom 4.6348600800000002 3.3977006099999998 3.4559625100000000 O
atom 4.6519662500000001 3.4166588899999999 8.6639245200000001 O
atom 4.5990970000000004 8.5515762800000008 3.4091078200000000 O
atom 4.6625211799999997 8.5553265799999991 8.6287672600000001 O
atom 2.4937985199999999 1.2377107100000000 2.8859759999999999 O
atom 2.7516718800000000 1.1405896099999999 8.0519416699999997 O
atom 2.7273105599999998 6.4671187200000002 3.0335294600000000 O
atom 2.7427579899999999 6.4317818899999999 8.2812774299999994 O
atom 3.1580513400000001 1.3898311800000001 0.2596396200000000 O
atom 2.7557313899999998 1.3415299700000001 5.5117400800000000 O
atom 2.7911870099999998 6.3992944200000004 0.4191973600000000 O
atom 2.7226124199999999 6.4225584900000001 5.6475414800000001 O
atom 2.2284035900000001 3.8523440299999998 3.0742993599999999 O
atom 2.3089518000000000 3.9124724700000000 8.2130220999999999 O
atom 2.0667960700000001 9.1066024999999993 2.9148540000000001 O
atom 2.1724649700000001 8.9270397999999993 8.1900746299999998 O
atom 2.2672428099999999 3.9146705399999999 0.4796677100000000 O
atom 2.1960462399999998 3.8861756500000002 5.6532478399999997 O
atom 2.3941878900000000 8.9348786600000007 0.2956479100000000 O
atom 2.2341735800000002 8.9775498799999998 5.5573332400000002 O
atom 5.3902291800000004 1.7146136000000001 1.6654883199999999 O
atom 5.3430400499999999 1.7626874299999999 6.8645612500000004 O
atom 5.3237672600000003 6.8276609700000002 1.6577319200000000 O
atom 5.3165862600000002 6.8276583999999998 6.8953477000000003 O
atom 5.3050684800000001 0.8603932200000000 4.2356722099999997 O
atom 5.4255360300000000 0.8289003500000000 9.4409295499999999 O
atom 5.3213045599999997 5.9909675099999999 4.2742940100000002 O
atom 5.3106545100000000 5.9908964999999998 9.5143289699999993 O
atom 9.7118009900000004 4.2382239300000002 1.6795524100000001 O
atom 9.6692210900000006 4.2782908500000003 6.9105968999999998 O
atom 9.7793294199999998 9.4303801200000006 1.7824032299999999 O
atom 9.6470597799999993 9.4383509700000001 6.8926880099999996 O
atom 9.6334501800000005 3.3972512799999999 4.2633446900000003 O
atom 9.5066692899999996 3.4931372600000001 9.6216819200000003 O
atom 9.6166454100000003 8.5110738500000007 4.2663375400000003 O
atom 9.7067204799999995 8.6854496999999995 9.5398861099999994 O
atom 7.8597726100000003 1.2696090099999999 9.9387114400000005 O
atom 7.7310039699999997 1.2762854600000000 4.7216373100000002 O
atom 7.7674699900000004 6.4247697600000002 9.9419332800000007 O
atom 7.7544483800000004 6.4034824199999996 4.6856611399999997 O
atom 7.7867143099999998 1.2881707000000000 2.1175196800000000 O
atom 7.7683694799999996 1.3268907100000000 7.3167147600000000 O
atom 7.7849274800000003 6.4249941599999998 2.0739722299999999 O
atom 7.7499529899999997 6.4467015700000001 7.3046614500000002 O
atom 7.1426756999999998 3.8266048600000002 9.9859672699999997 O
atom 7.2366565200000004 3.8511289199999998 4.7104622899999997 O
atom 7.2317633600000004 8.9442203500000002 9.9322336900000003 O
atom 7.1792306400000001 8.9420638300000004 4.7108235100000000 O
atom 7.2746834199999997 3.8463362399999999 2.0990866499999998 O
atom 7.2388749499999996 3.8906091900000002 7.3263572000000003 O
atom 7.3037516699999996 8.9633987600000005 2.0863054900000000 O
atom 7.2074342800000002 8.9859909400000006 7.3098625000000004 O
