lattice_vector 10.0620589999999996 -0.0030040000000000 -0.0384180000000000 
lattice_vector -0.0021190000000000 10.3995780000000000 -0.0261930000000000 
lattice_vector -0.0532280000000000 -0.0314490000000000 10.1028000000000002 
atom 1.2394270000000001 0.0523990000000000 1.2126969999999999 La
atom 1.3008580000000001 0.1351890000000000 6.3106429999999998 Hf
atom 1.3322090000000000 5.3719669999999997 1.2425219999999999 Hf
atom 1.3179149999999999 5.3443129999999996 6.2994000000000003 Hf
atom 6.3766239999999996 0.1583470000000000 1.2418359999999999 Hf
atom 6.3378350000000001 0.1543710000000000 6.2881780000000003 Hf
atom 6.3571720000000003 5.3489310000000003 1.2267980000000001 Hf
atom 6.2429779999999999 5.2353180000000004 6.2319380000000004 La
atom 1.3597120000000000 2.4118409999999999 3.7879499999999999 Hf
atom 1.2944070000000001 2.4188030000000000 8.8106960000000001 Hf
atom 1.3482220000000000 7.6083780000000001 3.7830539999999999 Hf
atom 1.3169210000000000 7.5939569999999996 8.8048369999999991 Hf
atom 6.3755329999999999 2.4082240000000001 3.7473630000000000 Hf
atom 6.3533499999999998 2.3914160000000000 8.8282030000000002 Hf
atom 6.3509060000000002 7.6324079999999999 3.7269079999999999 Hf
atom 6.3628190000000000 7.5942429999999996 8.8072999999999997 Hf
atom 3.6693880000000001 2.7429169999999998 1.2548900000000001 Hf
atom 3.6038600000000001 2.7165240000000002 6.3175920000000003 Hf
atom 3.7212049999999999 7.9439760000000001 1.2092050000000001 Hf
atom 3.6192620000000000 7.9758889999999996 6.2853960000000004 Hf
atom 8.6781170000000003 2.7901039999999999 1.2275720000000001 Hf
atom 8.7264590000000002 2.7267310000000000 6.2546730000000004 Hf
atom 8.6605229999999995 7.9305250000000003 1.2335820000000000 Hf
atom 8.6725200000000005 7.9254680000000004 6.2739820000000002 Hf
atom 3.6250779999999998 4.9976510000000003 3.7293959999999999 Hf
atom 3.5914779999999999 4.9851200000000002 8.8807460000000003 Hf
atom 3.6683599999999998 10.2176100000000005 3.7494550000000002 Hf
atom 3.6692360000000002 10.2173949999999998 8.7830449999999995 Hf
atom 8.7278540000000007 5.0313770000000000 3.7252209999999999 Hf
atom 8.6740449999999996 5.0003830000000002 8.7945799999999998 Hf
atom 8.6476860000000002 10.1992609999999999 3.7969689999999998 Hf
atom 8.6283840000000005 10.1804720000000000 8.7486160000000002 Hf
atom 0.2589440000000000 2.0235200000000000 2.0686190000000000 O
atom 0.3683270000000000 1.9106540000000001 6.9307610000000004 O
atom 0.3492170000000000 7.1303539999999996 1.9636000000000000 O
atom 0.3452420000000000 7.0973790000000001 6.9800040000000001 O
atom 5.4041079999999999 1.9117270000000000 1.9224619999999999 O
atom 5.3545780000000001 1.9129540000000000 7.0092010000000000 O
atom 5.4246939999999997 7.1243730000000003 1.8473340000000000 O
atom 5.2620760000000004 7.2059509999999998 7.0881660000000002 O
atom 0.3128950000000000 0.6759470000000000 4.4810480000000004 O
atom 0.2492560000000000 0.7418570000000000 9.2753259999999997 O
atom 0.3663740000000000 5.8760269999999997 4.4697350000000000 O
atom 0.2995660000000000 5.8950480000000001 9.5355910000000002 O
atom 5.3580459999999999 0.7092990000000000 4.4778890000000002 O
atom 5.3719840000000003 0.6589390000000001 9.5150129999999997 O
atom 5.3053070000000000 5.9560760000000004 4.1916650000000004 O
atom 5.3162609999999999 5.8583970000000001 9.5010290000000008 O
atom 4.6470219999999998 4.4869950000000003 1.9272540000000000 O
atom 4.4049909999999999 4.4102040000000002 7.1235280000000003 O
atom 4.6688549999999998 9.7285260000000005 1.9271620000000000 O
atom 4.6188409999999998 9.7380879999999994 6.9709950000000003 O
atom 9.6777599999999993 4.5522869999999998 1.9135450000000001 O
atom 9.6742760000000008 4.5112800000000002 6.9728870000000001 O
atom 9.4606329999999996 9.6246930000000006 2.0391080000000001 O
atom 9.6501110000000008 9.6697179999999996 6.9461639999999996 O
atom 4.7440220000000002 3.3533700000000000 4.5764469999999999 O
atom 4.6575090000000001 3.2657769999999999 9.5574800000000000 O
atom 4.6868249999999998 8.5151690000000002 4.5118590000000003 O
atom 4.7254240000000003 8.5181299999999993 9.5449719999999996 O
atom 9.7842050000000000 3.3327439999999999 4.4872110000000003 O
atom 9.6920520000000003 3.2979500000000002 9.5568340000000003 O
atom 9.7142049999999998 8.4798919999999995 4.4734809999999996 O
atom 9.7473840000000003 8.5358839999999994 9.5960319999999992 O
atom 2.8122980000000002 1.3024979999999999 2.5644659999999999 O
atom 2.6800519999999999 1.1939890000000000 7.5355710000000000 O
atom 2.6954020000000001 6.3733730000000000 2.4782109999999999 O
atom 2.6551939999999998 6.3911699999999998 7.5663770000000001 O
atom 7.7134970000000003 1.2054380000000000 2.5095030000000000 O
atom 7.7008720000000004 1.1563300000000001 7.5239339999999997 O
atom 7.7365069999999996 6.4077999999999999 2.4518040000000001 O
atom 7.8153610000000002 6.4849959999999998 7.5833579999999996 O
atom 2.6786729999999999 1.3305030000000000 5.0387069999999996 O
atom 2.7256140000000002 1.3919960000000000 9.9953269999999996 O
atom 2.7140650000000002 6.5581540000000000 5.0224270000000004 O
atom 2.6513300000000002 6.5291990000000002 10.0852280000000007 O
atom 7.7099739999999999 1.3432470000000001 5.0283270000000000 O
atom 7.7196389999999999 1.3409450000000001 10.0681019999999997 O
atom 7.7820119999999999 6.6059500000000000 4.9117199999999999 O
atom 7.6821050000000000 6.5130059999999999 10.0575310000000009 O
atom 2.3224680000000002 3.9456289999999998 5.0346900000000003 O
atom 2.2558850000000001 3.9388960000000002 10.1010709999999992 O
atom 2.2790650000000001 9.1762130000000006 5.0012530000000002 O
atom 2.4149579999999999 9.0340670000000003 9.9488129999999995 O
atom 7.4737890000000000 3.8481280000000000 4.8912979999999999 O
atom 7.2847450000000000 3.9591029999999998 10.0465610000000005 O
atom 7.3125580000000001 9.1529229999999995 5.0173110000000003 O
atom 7.3255540000000003 9.1280789999999996 10.0533789999999996 O
atom 2.2790319999999999 3.8167979999999999 2.4976310000000002 O
atom 2.1725989999999999 3.7960929999999999 7.5526869999999997 O
atom 2.4492710000000000 8.8797099999999993 2.5540340000000001 O
atom 2.2621310000000001 9.0101209999999998 7.5088070000000000 O
atom 7.3210540000000002 3.8241499999999999 2.4512339999999999 O
atom 7.4545690000000002 3.6625899999999998 7.5990900000000003 O
atom 7.2287990000000004 9.0099470000000004 2.4689980000000000 O
atom 7.2821970000000000 8.9994630000000004 7.5166589999999998 O
