lattice_vector 10.0068104200000008 -0.0111703100000000 -0.0205670400000000 
lattice_vector 0.0122355200000000 10.3828755400000006 -0.0097178900000000 
lattice_vector -0.0233846500000000 -0.0149364500000000 10.0492843399999998 
atom 1.2366436800000000 0.0654543100000000 1.2074653799999999 La
atom 1.3188765300000000 0.1614561700000000 6.2815543500000004 Hf
atom 1.3422201000000000 5.3548726999999996 1.2483814600000001 Hf
atom 1.3358700800000001 5.3537533300000000 6.2810541600000001 Hf
atom 6.3443873100000001 0.1511008600000000 1.2490833299999999 Hf
atom 6.3241409500000003 0.1631352800000000 6.2753022400000003 Hf
atom 6.3355460399999997 5.3372386100000000 1.2488665600000000 Hf
atom 6.3315831800000000 5.3351850199999999 6.2759505999999998 Hf
atom 1.3394916800000001 2.4259235800000001 3.7877943300000001 Hf
atom 1.3320757100000000 2.4412305600000002 8.7383338699999999 Hf
atom 1.3431370300000001 7.5994827500000000 3.7792404300000002 Hf
atom 1.3554543100000001 7.5958145600000000 8.7877883600000004 Hf
atom 6.3245295700000002 2.4110063600000000 3.7477706600000000 Hf
atom 6.3404399700000003 2.4048464799999998 8.7864238199999996 Hf
atom 6.3214139899999999 7.5892676200000002 3.7884761400000002 Hf
atom 6.3558617399999999 7.5823756600000003 8.7715959300000002 Hf
atom 3.6458018200000000 2.7493411000000001 1.2602348000000001 Hf
atom 3.6554612899999999 2.7436870099999999 6.2655689700000003 Hf
atom 3.7093553799999999 7.9137151499999998 1.2350012800000001 Hf
atom 3.6569764400000002 7.9489347099999996 6.2663027400000004 Hf
atom 8.6303161799999994 2.7746275699999998 1.2533631500000000 Hf
atom 8.6589499700000001 2.7628621999999998 6.2545440799999996 Hf
atom 8.6164232399999996 7.9208442799999998 1.2726119400000000 Hf
atom 8.6669963499999998 7.9231916499999997 6.2590113499999998 Hf
atom 3.6465639900000002 5.0029311900000000 3.7581881300000002 Hf
atom 3.6565009900000001 4.9939948599999999 8.7902085000000003 Hf
atom 3.6611986999999999 10.2070624399999996 3.7466945800000002 Hf
atom 3.6920402499999998 10.2060094299999999 8.7526349700000008 Hf
atom 8.6564311200000006 5.0091611100000000 3.7664575600000001 Hf
atom 8.6595703499999992 4.9925008300000000 8.7860912800000008 Hf
atom 8.6174847400000001 10.1897994199999999 3.8100966299999999 Hf
atom 8.6350496700000008 10.1785803700000006 8.7380924600000007 Hf
atom 0.2818804900000000 2.0440123200000002 2.0420541499999998 O
atom 0.3921311600000000 1.9595185399999999 6.8554079000000003 O
atom 0.3659469000000000 7.1275536400000004 1.9521687700000001 O
atom 0.3550695900000000 7.0926085199999997 6.9839950200000001 O
atom 5.3828943899999997 1.9112626600000000 1.9073411600000001 O
atom 5.3477134800000004 1.8931114499999999 6.9753303600000001 O
atom 5.3654991200000000 7.0577899500000001 1.9690719200000000 O
atom 5.3544146300000000 7.0777925599999998 6.9662674800000000 O
atom 0.3409990400000000 0.6647409800000000 4.4295324999999997 O
atom 0.3106897700000000 0.7478546000000000 9.1868219199999999 O
atom 0.3497228000000000 5.8688162500000001 4.4782393799999998 O
atom 0.3381062600000000 5.8940184699999998 9.4863739200000001 O
atom 5.3522578500000000 0.6719467000000000 4.4603079599999997 O
atom 5.3839927200000002 0.6612035300000000 9.4550657699999991 O
atom 5.3409945600000004 5.8513411900000003 4.4699358699999996 O
atom 5.3403253199999998 5.8661816499999997 9.4953182399999996 O
atom 4.6470164499999997 4.4836762300000004 1.9548908500000000 O
atom 4.6472592700000002 4.4804031499999999 6.9739975100000002 O
atom 4.6401658899999996 9.7080245800000000 1.9104371700000000 O
atom 4.6522267599999996 9.6769985799999994 6.9573134599999999 O
atom 9.6168482999999991 4.5492943500000003 1.9283833300000000 O
atom 9.6528701899999998 4.4930025000000002 6.9815498299999996 O
atom 9.3992495199999997 9.6289087400000000 2.0408824000000001 O
atom 9.6170595199999998 9.6744924799999996 6.9130362200000004 O
atom 4.6289518400000000 3.2586818499999999 4.4526922500000001 O
atom 4.6574935000000002 3.2798024600000000 9.4820951200000003 O
atom 4.6543316199999998 8.4688069699999993 4.4802720100000002 O
atom 4.7255347900000002 8.4739289400000004 9.4885663400000002 O
atom 9.6350049799999997 3.2941647399999998 4.4576186199999999 O
atom 9.6494209400000006 3.2828947999999998 9.4959381000000000 O
atom 9.6423361300000003 8.4402504799999996 4.4629935800000000 O
atom 9.7310524699999998 8.5336597300000001 9.5724777700000008 O
atom 2.7931921300000000 1.3123722700000000 2.5629233800000000 O
atom 2.7059411799999999 1.2079629500000000 7.4943286599999999 O
atom 2.6946426200000002 6.3593646699999997 2.4892564600000000 O
atom 2.7051672199999999 6.3982764500000000 7.5197886299999999 O
atom 7.6734605499999997 1.2051728100000001 2.5150233399999999 O
atom 7.6983606399999998 1.2083921700000000 7.5065882100000003 O
atom 7.6973565900000001 6.3947744999999996 2.4945942099999998 O
atom 7.7088109500000002 6.3795868400000000 7.5063767500000003 O
atom 2.6862709800000002 1.3501467000000000 5.0265995800000001 O
atom 2.7480859999999998 1.4132773500000000 9.9455088299999996 O
atom 2.7002900099999998 6.5570719899999999 5.0090470700000003 O
atom 2.7013748199999998 6.5150796800000004 10.0330437999999997 O
atom 7.6744597199999998 1.3759843100000000 5.0166729200000004 O
atom 7.7173715300000003 1.3434151599999999 10.0319337799999992 O
atom 7.6974123099999998 6.5399889800000004 5.0024724300000001 O
atom 7.6936148700000002 6.5257749299999999 10.0169213399999997 O
atom 2.2960195600000000 3.9680105200000000 5.0105434000000004 O
atom 2.2881413300000002 3.9625496600000001 10.0283390299999997 O
atom 2.2899647299999999 9.1615400499999993 5.0033178400000002 O
atom 2.4405413999999999 9.0298325899999998 9.9253245200000002 O
atom 7.2859302599999998 3.9585370900000001 5.0013813300000001 O
atom 7.2788040900000004 3.9515358900000002 10.0227001599999994 O
atom 7.2834521399999996 9.1296464099999994 5.0294398400000002 O
atom 7.3146754999999999 9.1144391400000000 10.0324731699999994 O
atom 2.2703860499999999 3.8243002700000002 2.4944571299999998 O
atom 2.3088036999999999 3.8175899200000001 7.5027648700000000 O
atom 2.4380448900000000 8.8663665799999993 2.5601113199999999 O
atom 2.2888759300000001 8.9989165599999996 7.4861215300000001 O
atom 7.2892323499999998 3.8140687999999998 2.4981542000000001 O
atom 7.3012247700000001 3.7956283499999999 7.5167318600000002 O
atom 7.1777739100000000 8.9767518000000006 2.5113702299999998 O
atom 7.3022873400000003 8.9770801200000001 7.5146866000000001 O
