lattice_vector 10.0315025599999998 0.0557484300000000 0.0414256900000000 
lattice_vector -0.0449208300000000 10.3344104399999992 0.0020541100000000 
lattice_vector 0.0246106200000000 0.0423441100000000 10.1100751599999992 
atom 1.3872291100000000 -0.1199474500000000 1.2618713600000000 Si
atom 1.3003184200000000 0.1105619700000000 6.2688130700000002 Hf
atom 1.3010863800000001 5.3244635999999996 1.2726383400000001 Hf
atom 1.3094785799999999 5.3403700000000001 6.2461150999999999 Hf
atom 6.2807833999999998 0.0018373900000000 1.3121850799999999 Hf
atom 6.3645651399999998 0.1869466200000000 6.2594495600000002 Hf
atom 6.3057516800000002 5.3476619999999997 1.2324334600000000 Hf
atom 6.3809601200000001 5.3997410700000001 6.2895651600000004 Hf
atom 1.2222527599999999 2.4159982599999998 3.7547418299999999 Hf
atom 1.4650142200000000 2.4250492100000001 8.8832321499999995 Hf
atom 1.2722322600000000 7.6009630799999996 3.7543585799999999 Hf
atom 1.2604316499999999 7.5921814599999999 8.7793724799999993 Hf
atom 6.2864557200000002 2.4713111300000001 3.7686338699999999 Hf
atom 6.2141982400000000 2.8099611699999998 8.6079733100000002 Hf
atom 6.3388970699999998 7.6547115699999999 3.7629407200000000 Hf
atom 6.3821803700000004 7.6948074499999999 8.8574222000000002 Hf
atom 3.6552216799999999 2.7533542999999998 1.2479714300000000 Hf
atom 3.6500441700000001 2.7095270500000002 6.2855946999999999 Hf
atom 3.6317541800000002 7.9184526999999996 1.2319519999999999 Hf
atom 3.6887984500000002 7.8901869900000001 6.2524676599999998 Hf
atom 8.6628883000000005 2.6254063099999998 1.1385767800000000 La
atom 8.7773027300000006 2.7482824899999998 6.2811801300000001 Hf
atom 8.6939238299999992 7.9153142799999996 1.2417759300000000 Hf
atom 8.6423254699999994 8.0120170900000005 6.2743853999999999 Hf
atom 3.6644886200000002 5.0255888100000004 3.7933156499999998 Hf
atom 3.6709404900000000 5.0868810800000004 8.8521580600000007 Hf
atom 3.5991540099999999 10.2321808900000004 3.7299364100000001 Hf
atom 3.6372464199999999 10.2499201400000004 8.6356915000000001 Hf
atom 8.6535533800000000 5.0487774800000000 3.7783622200000000 Hf
atom 8.7618168900000004 5.1194691499999996 8.7739153800000000 Hf
atom 8.7895274099999998 10.4070332400000005 3.6690330400000000 Hf
atom 8.7707481299999994 10.4878255899999999 8.8650029900000007 La
atom -0.1875122600000000 1.5791291400000000 2.6977881899999998 O
atom 0.1561481500000000 1.7105821800000001 7.4088789100000003 O
atom 0.2940627700000000 6.9915602999999997 2.0133988500000002 O
atom 0.2716439600000000 6.9897299000000004 7.0722162300000004 O
atom 5.0266596100000003 1.7263084799999999 2.2225097200000001 O
atom 4.9729948899999998 1.6157822500000001 7.5086032700000001 O
atom 5.3245050699999998 7.0934743700000000 1.9975393200000000 O
atom 5.2891977099999998 7.0178149599999999 7.0979839100000000 O
atom 0.1053024600000000 0.9176726600000000 4.9535607400000004 O
atom 0.6848436400000000 1.0066742799999999 10.2332934099999999 O
atom 0.2584064100000000 5.9562222599999997 4.5361827899999998 O
atom 0.3524054900000000 5.8916916300000004 9.6157462599999999 O
atom 5.1920933099999997 0.8299132200000000 4.7121860699999996 O
atom 6.8023865399999996 1.4198747100000000 9.9849897500000004 O
atom 5.2837302299999998 5.9639176000000003 4.5809488199999997 O
atom 5.2528710299999997 6.1230562300000004 9.6295826499999997 O
atom 4.6549116399999999 4.4661482299999999 2.0685925699999999 O
atom 4.9034994000000003 4.2678054500000000 7.2660603699999999 O
atom 4.5920672800000002 9.5817945400000006 2.0631100299999998 O
atom 4.6741534900000001 9.5626656099999998 6.9785386699999998 O
atom 9.7894702700000007 4.4534443799999996 2.1417766199999999 O
atom 9.7500566899999992 4.4818964100000001 7.0248672100000000 O
atom 9.9045072199999993 9.6516645000000008 1.9078119800000000 O
atom 9.7810274699999997 9.5037597599999994 7.0694327200000000 O
atom 4.7174130400000003 3.3880362100000001 4.6687040199999998 O
atom 4.7821513900000001 3.5590660199999999 9.7941615199999994 O
atom 4.6382308900000000 8.5316714699999991 4.4732074300000004 O
atom 4.7747395900000003 8.8633138900000006 9.6540899499999995 O
atom 9.7702429800000008 3.4919762799999998 4.6514595500000002 O
atom 9.7816190400000007 3.4253998000000001 9.3943530699999993 O
atom 9.6913987600000002 8.6466671599999998 4.4973649099999999 O
atom 9.7529178800000000 8.5045487200000007 9.6580980299999997 O
atom 2.2984024399999998 0.9797468400000000 2.2406281799999999 O
atom 2.5243796900000000 1.1950245399999999 7.4372100500000000 O
atom 2.6858304899999998 6.3406474499999996 2.4626142799999999 O
atom 2.6929137700000001 6.3312756900000000 7.4857108099999996 O
atom 7.3982140899999997 1.0800303700000000 2.5258173600000000 O
atom 7.4987041899999998 1.4482221600000000 7.4089910200000002 O
atom 7.6709463400000004 6.3829004100000004 2.4728107600000002 O
atom 7.6893638299999996 6.4823911699999996 7.5327919400000001 O
atom 2.6427877199999998 1.4240318400000000 4.8905938400000002 O
atom 3.2336860500000002 1.5211088300000000 9.8136378299999993 O
atom 2.6495885299999999 6.5923388500000000 4.9706138400000004 O
atom 2.6877888799999998 6.6844401400000004 10.0190422300000002 O
atom 7.6561895800000004 1.4826854400000000 4.9437432399999999 O
atom 7.6764132099999998 6.6193372799999999 5.0018210700000001 O
atom 7.7319771099999999 6.6530557000000003 10.0575169800000008 O
atom 2.3533411000000002 3.9984898100000001 5.0637762100000003 O
atom 2.3232174799999998 4.0337417400000000 10.0943906400000003 O
atom 2.2813379800000000 9.1746108500000005 5.0069437700000003 O
atom 2.2572545900000001 9.3630042699999994 10.1941717399999998 O
atom 7.3332398799999998 4.0239867499999997 5.0152570799999996 O
atom 7.3228517899999996 4.1932506800000002 9.9367371900000006 O
atom 7.2949112899999999 9.2152823000000001 5.0112153199999998 O
atom 7.2815856200000004 9.1310937299999999 10.1755892600000006 O
atom 2.3056863000000001 3.6937634199999998 2.5319879500000000 O
atom 2.4177567700000000 3.7661956399999998 7.5682491100000000 O
atom 2.2600079800000001 8.8957439199999992 2.4579951000000002 O
atom 2.3803535299999998 8.9278369299999998 7.6111572199999999 O
atom 7.1914050700000001 3.8621448200000001 2.5184370999999999 O
atom 7.4477346500000001 3.9283095700000001 7.4649926500000001 O
atom 7.4358137800000002 8.9639534800000007 2.5246832700000001 O
atom 7.2793685999999997 9.0327526900000006 7.5180171800000002 O
