lattice_vector 10.0057705000000006 0.0488590500000000 -0.0229101000000000 
lattice_vector 0.0449462200000000 10.4318321300000001 -0.0569655100000000 
lattice_vector -0.0564940300000000 -0.0686322600000000 10.0501163899999995 
atom 1.1472648400000001 -0.0607467700000000 1.0788063100000000 Si
atom 1.2703497399999999 0.1197185300000000 6.2753110000000003 Hf
atom 1.4045499500000000 5.3953128000000001 1.1985980500000000 Hf
atom 1.3257107800000001 5.3677182500000002 6.2282452299999997 Hf
atom 6.2848327700000004 0.1642893900000000 1.2343220800000001 Hf
atom 6.2347961099999996 0.1608845000000000 6.2435502899999999 Hf
atom 6.4456634700000004 5.3990071799999999 1.2141640100000000 Hf
atom 6.3179894900000004 5.3956993200000003 6.2551168800000001 Hf
atom 1.2719634500000001 2.4968715100000001 3.6767263500000000 La
atom 1.4100494699999999 2.4471010400000002 8.6995286800000002 Hf
atom 1.3442690300000000 7.5960047299999998 3.7480679900000000 Hf
atom 1.2880281499999999 7.6212632500000002 8.7591319900000002 Hf
atom 6.3333915100000002 2.4312685400000000 3.7390123300000000 Hf
atom 6.3404378599999998 2.4046119600000000 8.7310114399999996 Hf
atom 6.3607642599999998 7.6612311499999999 3.7269774899999999 Hf
atom 6.2909856099999999 7.6548987899999998 8.7635893800000009 Hf
atom 3.8048012800000000 2.8837632800000002 1.0353891399999999 Hf
atom 3.6617036800000000 2.7478431799999998 6.1777157599999999 Hf
atom 3.7230079699999998 7.9682323999999998 1.2381287500000000 Hf
atom 3.6342049799999998 7.9980173299999997 6.2640916600000001 Hf
atom 8.8683313899999998 2.6642669899999998 1.2072492100000001 La
atom 8.6004908400000009 2.7647028200000001 6.2713501500000000 Hf
atom 8.7239926099999998 8.0031086400000007 1.1916225499999999 Hf
atom 8.6571247299999996 7.9926875700000002 6.2488367100000000 Hf
atom 3.7300226599999999 5.0450629600000001 3.6905078300000000 Hf
atom 3.6832794099999999 5.0913562299999997 8.6851284500000006 Hf
atom 3.6292574599999998 10.1666187400000005 3.6932907600000000 Hf
atom 3.6236021200000001 10.2828235200000009 8.7707926199999999 Hf
atom 8.6095649900000009 5.0466680899999998 3.7882210000000001 Hf
atom 8.6611874100000001 5.0473294700000002 8.7110005899999994 Hf
atom 8.6373750699999992 10.2340827500000007 3.7702599700000001 Hf
atom 8.6144263399999996 10.2279222700000005 8.7374401800000001 Hf
atom 0.2848683300000000 1.8390881900000000 7.0366688899999996 O
atom 0.3963046400000000 7.1287395399999998 1.9164509599999999 O
atom 0.3274537700000000 7.0862024200000002 6.9829795700000004 O
atom 5.2812604600000004 1.9000963099999999 1.9548356000000000 O
atom 5.3220151900000001 1.9160489999999999 6.9546783400000001 O
atom 5.4076912400000001 7.1548915199999996 1.9451051100000001 O
atom 5.3094126499999996 7.1268611699999997 6.9799332999999999 O
atom 0.1967647000000000 0.5862150800000000 4.6058593500000002 O
atom 0.2849415300000000 0.7463690700000000 9.9090262700000000 O
atom 0.3456976100000000 5.8523430100000002 4.4725775700000003 O
atom 0.3015661500000000 5.9100328900000001 9.4900083199999994 O
atom 5.3124853700000001 0.6709569900000000 4.4370579200000000 O
atom 5.2681278200000001 0.7127819700000000 9.4887443900000008 O
atom 5.3688662899999997 5.9448615000000000 4.4299995000000001 O
atom 5.3308721200000004 5.9433330900000003 9.4723562599999998 O
atom 4.7658523800000001 4.5725296999999996 1.8774738700000000 O
atom 4.6335946699999999 4.5182381600000001 6.9057493599999997 O
atom 4.6728456200000004 9.7546491700000004 1.9182567500000001 O
atom 4.6304545199999998 9.7362576000000001 6.9708752399999998 O
atom 9.9136973899999994 4.5132065299999997 2.1440627499999998 O
atom 9.6185568900000007 4.5467636100000002 6.8685006099999999 O
atom 9.8623794100000008 9.8459026099999996 1.8365597199999999 O
atom 9.6810035299999999 9.7119128499999992 7.0064257599999999 O
atom 4.6277868800000004 3.2712703400000001 4.3900251399999997 O
atom 4.7093765500000000 3.3827691600000001 9.3900272299999994 O
atom 4.6828225600000000 8.5544669700000000 4.4844098900000002 O
atom 4.5796898300000004 8.5465876000000005 9.4795088100000005 O
atom 9.3738520399999992 3.2764959800000000 4.4646422599999998 O
atom 9.7386210799999997 3.3827203199999998 9.2919599599999998 O
atom 9.6350531000000004 8.4876453099999996 4.4255324099999998 O
atom 9.6329225500000000 8.5625951600000008 9.4585191200000001 O
atom 2.0127394100000000 0.8526292800000000 2.1436818299999998 O
atom 2.6508570699999998 1.1751460700000000 7.4470347200000004 O
atom 2.7302652500000000 6.3505440799999997 2.4397017100000000 O
atom 2.6639993099999999 6.4295312300000003 7.4729150600000001 O
atom 7.6041318899999997 1.1088197700000000 2.5354673999999999 O
atom 7.6512477700000003 1.1889023599999999 7.4869224900000004 O
atom 7.7738166399999997 6.4507027700000004 2.4544492700000000 O
atom 7.6724955799999996 6.4571524299999998 7.4899171500000001 O
atom 2.7617187799999998 1.2633388100000000 4.9579337900000002 O
atom 2.7762328500000000 1.4759381600000001 9.8767444199999996 O
atom 2.7212788799999998 6.6088132799999997 4.9686283400000004 O
atom 2.6676739500000002 6.6411830900000002 9.9738891899999995 O
atom 7.6263074399999997 1.3623917699999999 5.0176817800000002 O
atom 7.5666450500000000 1.2501213200000001 9.9475143199999998 O
atom 7.6901507999999996 6.6047284499999996 4.9904619300000004 O
atom 7.6906519600000003 6.6042749299999999 9.9909728300000005 O
atom 2.4028995800000001 4.0785295899999996 4.9918207199999998 O
atom 2.3258312299999999 4.0533584899999999 9.8902886300000006 O
atom 2.2746953900000002 9.1562353499999993 5.0162607100000001 O
atom 2.1341644400000002 9.2897055399999999 10.1627445499999993 O
atom 7.1701840099999998 3.9923384500000001 5.0256855099999997 O
atom 7.3294164700000000 3.9841606800000000 9.9708743099999992 O
atom 7.3034683500000002 9.1916381200000004 4.9839040800000003 O
atom 7.2706201699999999 9.1629521000000000 9.9870959399999997 O
atom 2.4993204300000000 3.8161152399999998 2.2843946399999999 O
atom 2.3079480200000000 3.7886909200000001 7.4331260800000001 O
atom 2.4909913600000002 8.8028506899999996 2.5885602699999999 O
atom 2.2961424099999999 9.0162425299999995 7.5694146599999996 O
atom 7.2831986100000004 3.8954518100000000 2.5192991700000000 O
atom 7.2795314700000002 3.8290026899999998 7.5016283000000001 O
atom 7.4120927200000004 9.0118059800000001 2.4386795100000001 O
atom 7.3019454599999998 9.0469177500000004 7.4953652300000000 O
