lattice_vector 10.0307752299999997 0.0136905500000000 0.0866137300000000 
lattice_vector 0.0003487300000000 10.4147048499999997 -0.1704853300000000 
lattice_vector -0.0367813000000000 -0.0719403500000000 10.0640571399999992 
atom 1.1586317799999999 0.3504763800000000 1.1199797100000000 Si
atom 1.3159889000000000 0.1413731400000000 6.3509752700000002 Hf
atom 1.1972687500000001 5.1653012499999997 1.0640784400000001 La
atom 1.3033526700000000 5.2660404300000003 6.1138292600000002 Hf
atom 6.3183888100000001 0.2131184200000000 1.3081652500000001 Hf
atom 6.2378813199999996 0.1163239300000000 6.3030351099999997 Hf
atom 6.4390475000000000 5.4328025100000001 1.2743706800000001 Hf
atom 6.3311693000000000 5.3584162800000001 6.2464858799999998 Hf
atom 1.3389886200000001 2.2640021699999999 3.6591242700000000 Hf
atom 1.3039640100000001 2.4196714199999998 8.8084027999999996 Hf
atom 1.2230903200000001 7.6278094000000003 3.8045314800000001 Hf
atom 1.1999692099999999 7.6158661499999996 8.5568139300000006 Hf
atom 6.3603583199999996 2.3604839200000001 3.8367401999999999 Hf
atom 6.3581581700000003 2.3909726600000001 8.7668513499999996 Hf
atom 6.4491901800000004 7.6416948800000002 3.7472933799999999 Hf
atom 6.3653478699999999 7.6354549499999997 8.7527683500000002 Hf
atom 3.8756554099999998 2.8036859199999999 0.9902698900000000 Hf
atom 3.6108471400000002 2.6951540600000001 6.2750015200000000 Hf
atom 3.7914626899999999 7.8172700600000002 1.0256211600000000 La
atom 3.6820423099999999 7.9755546800000001 6.1898175300000000 Hf
atom 8.6170693899999993 2.7620913400000000 1.2969341599999999 Hf
atom 8.6916374300000001 2.6964049000000001 6.2956653899999999 Hf
atom 8.8239889700000003 8.0328671299999996 1.2080577699999999 Hf
atom 8.6388083499999997 8.0062083099999999 6.2478539099999999 Hf
atom 3.7905272299999999 4.8214601100000003 3.7811564099999999 Hf
atom 3.6692037800000001 5.0906929700000001 8.6131920599999994 Hf
atom 3.5893742600000000 10.0878118299999997 3.6089305899999999 Hf
atom 3.5110866199999999 10.2548543199999997 8.7862283500000000 Hf
atom 8.6299461199999996 4.9586600799999996 3.8427327400000002 Hf
atom 8.5914079900000004 5.0034539300000000 8.7507019100000001 Hf
atom 8.7126808100000002 10.2757629200000000 3.6637816600000002 Hf
atom 8.6400779199999995 10.2331806499999995 8.7249645299999994 Hf
atom 0.3526532300000000 1.8458661999999999 1.8151634200000000 O
atom 0.2720881500000000 1.8442703400000000 7.0943200300000004 O
atom 0.4384379500000000 7.1967501399999998 1.9385733500000000 O
atom 0.3495001600000000 7.1008721100000001 6.7000645900000002 O
atom 5.3245486900000003 1.9784440000000001 2.0742349400000002 O
atom 5.3074835900000004 1.8744780900000000 7.0424425399999997 O
atom 5.6568385200000000 7.1368730700000000 2.0081864199999999 O
atom 5.3201469399999999 7.0519334699999998 6.9849655999999998 O
atom 0.3035873300000000 0.6596120200000000 4.6028657500000003 O
atom 0.2735370700000000 0.6799501300000000 9.6292260699999996 O
atom 0.3343266300000000 5.7964255500000004 4.3304299100000003 O
atom 0.1612552000000000 5.9702384400000001 9.1944079399999996 O
atom 5.3163664800000001 0.6784557200000000 4.5300396400000000 O
atom 5.1224334300000001 0.9119720800000000 9.7411826599999998 O
atom 5.4360371799999996 5.8395116600000003 4.4153579199999999 O
atom 5.2495033700000002 6.0368983299999996 9.5648997300000005 O
atom 4.5199126700000001 4.7688825200000000 1.8482835900000001 O
atom 4.6259783600000004 4.4745134999999996 6.8691345799999999 O
atom 4.7785781900000002 9.7930564600000007 1.9743606700000000 O
atom 4.5679141599999999 9.7295509899999999 6.8795202000000000 O
atom 9.5264547900000007 4.3063972200000000 2.1780376100000001 O
atom 9.6349216700000007 4.4685543699999997 6.9722679300000001 O
atom 9.9020175600000009 9.8249727100000008 1.7824099300000000 O
atom 9.6911551500000002 9.6762481999999999 6.9943731099999997 O
atom 4.7023351199999999 3.2536497799999999 4.5489281400000001 O
atom 4.8103598500000002 3.4761207399999998 9.4290376299999998 O
atom 4.7499125700000002 8.4810198400000001 4.5019573900000003 O
atom 4.7199156599999998 8.7097074600000006 9.2398270999999994 O
atom 9.6927489700000002 3.1943016000000002 4.5380776500000000 O
atom 9.7633894800000007 3.4140095800000001 9.7013277999999996 O
atom 9.6061468300000001 8.5565244699999994 4.4604642700000001 O
atom 9.5793839500000004 8.4902460699999995 9.4059715500000003 O
atom 2.2323641500000000 0.6210946700000000 2.5127290000000002 O
atom 2.6680675699999998 1.2139077899999999 7.5964522900000002 O
atom 2.6670223200000001 6.3854103699999998 7.2225245400000002 O
atom 7.7092197899999997 1.2233326000000000 2.5274294400000001 O
atom 7.6607208000000000 1.1520735600000001 7.5480796200000002 O
atom 7.8937348600000004 6.3896416399999998 2.5177453100000000 O
atom 7.6817762299999997 6.4164788399999999 7.5212912500000000 O
atom 2.6990764299999999 1.3048038600000000 4.9881823199999999 O
atom 2.5063179899999999 1.3845399300000001 10.2109456699999992 O
atom 2.7486663299999998 6.4411951299999997 4.6697972500000002 O
atom 2.5307564000000000 6.5038447300000000 9.6451433499999997 O
atom 7.7083425099999996 1.3286798200000001 5.0442626800000001 O
atom 7.6350871299999996 1.3480374100000001 10.0451355099999997 O
atom 7.7204661300000001 6.5678727300000004 5.0432711799999996 O
atom 7.6817115400000002 6.5630928900000001 10.0598047600000005 O
atom 2.2891940200000001 3.8578775500000000 4.9216308099999999 O
atom 2.4843248600000001 3.8575386500000000 9.8000206500000004 O
atom 2.2462606500000000 9.1158532300000008 5.0343495000000003 O
atom 2.0813648100000002 9.4061393199999994 10.1212381699999998 O
atom 7.3058033399999998 3.9077546600000002 5.0592306499999999 O
atom 7.3413925500000001 3.9355636299999999 10.0586898199999997 O
atom 7.3514348700000003 9.2128517700000003 4.9445315699999997 O
atom 7.2788260100000004 9.1989771900000008 9.9809873800000002 O
atom 2.5528651099999999 3.4889164199999998 2.4625653800000000 O
atom 2.2435338300000001 3.7816471900000002 7.4169630299999998 O
atom 2.6171886199999999 8.4832479299999992 2.7394768200000001 O
atom 2.2915617199999998 9.0252208100000004 7.5094126200000000 O
atom 7.1625344100000001 3.8272325500000002 2.5289777899999999 O
atom 7.2937909100000002 3.7785221400000002 7.5225358699999996 O
atom 7.4951015600000002 9.0274737999999992 2.4355973400000002 O
atom 7.2686583300000001 9.0163136000000002 7.4551696099999996 O
