lattice_vector 10.0173740799999997 0.0224117400000000 -0.1421545900000000 
lattice_vector -0.0062776200000000 10.2485277200000002 0.0489377100000000 
lattice_vector -0.0554665100000000 0.0049865000000000 10.4216591899999997 
atom 1.0526274099999999 0.2615132800000000 2.1985131700000000 Si
atom 1.3461039900000000 0.2064568000000000 6.9428684499999997 Hf
atom 1.4867601800000001 5.3100953200000003 1.6546765000000001 Hf
atom 1.3451243799999999 5.3228428499999998 6.9928753300000004 Hf
atom 1.3551791900000001 2.3861136500000000 4.3775813200000000 Hf
atom 1.4206023000000001 2.2517989699999998 9.6232553999999997 Hf
atom 1.3808357000000000 7.5761843500000001 4.3645871100000004 Hf
atom 1.3801518200000000 7.5163245999999999 9.5804515099999996 Hf
atom 3.6140457200000000 2.7507082999999999 1.7030681900000000 Hf
atom 3.5745450200000000 2.7728138100000002 6.9575674300000001 Hf
atom 3.5380881400000002 7.9815208200000001 1.6814501399999999 Hf
atom 3.6031632199999999 7.9108974200000004 6.9583599400000002 Hf
atom 3.5517032899999998 4.9267215400000000 4.3540612300000001 Hf
atom 3.6097352200000001 4.9001693900000003 9.5400932100000002 Hf
atom 3.5692241899999999 10.1273842999999992 4.3083749700000000 Hf
atom 3.5936185400000000 10.0496196999999992 9.5795446900000005 Hf
atom 6.4264025199999999 0.2648735300000000 0.7352505300000000 Hf
atom 6.3266489500000000 0.2420497100000000 5.9581071300000001 Hf
atom 6.4181625100000002 5.3622083500000004 0.7906818700000000 Hf
atom 6.3157283499999997 5.3346837400000000 6.0130306400000002 Hf
atom 6.4126486299999996 2.4456205600000001 3.3579941999999998 Hf
atom 6.3955030400000004 2.3681559800000000 8.5926624000000000 Hf
atom 6.2521874799999999 7.5150105900000002 3.3563753400000000 Hf
atom 6.3862487899999998 7.4831530400000004 8.6092168499999993 Hf
atom 8.7090358400000003 2.7930328400000000 0.8038170700000000 Hf
atom 8.5788622100000005 2.7615696600000001 5.9758950300000002 Hf
atom 8.6788512200000003 7.9676172000000003 0.7732079400000000 Hf
atom 8.5340592300000004 7.8919884199999997 5.9613573500000001 Hf
atom 8.8259019500000004 5.1777009200000004 3.5105604800000001 La
atom 8.6228309400000001 4.8980687600000001 8.6002052399999993 Hf
atom 8.4941101400000001 10.0469860499999992 3.4166562699999998 Hf
atom 8.5944049299999996 10.0500891400000008 8.5835523299999998 Hf
atom 0.5867728700000000 1.5155454700000000 1.0937516899999999 O
atom 0.3331213000000000 1.7257970400000000 6.1505238799999997 O
atom 0.3843030100000000 6.8744364100000004 0.9874619600000000 O
atom 0.1825638500000000 6.6130631199999996 5.8221906900000002 O
atom 0.3057984500000000 0.7275016600000000 3.6323354299999999 O
atom 0.3337628400000000 0.7930059800000000 8.7104980100000002 O
atom 0.3109831000000000 5.9909668199999997 8.6863852200000000 O
atom 4.6775321099999996 4.2899898099999998 0.8488604700000000 O
atom 4.5590107599999996 4.3218229299999997 6.0725914500000000 O
atom 4.7161152700000004 9.4191239699999993 0.8625186500000001 O
atom 4.5878649999999999 9.4354416099999998 6.0322315399999997 O
atom 4.6147024200000004 3.3974660499999998 3.4751067700000000 O
atom 4.6546379900000003 3.4087298000000001 8.6467836699999996 O
atom 4.4992785599999996 8.5582150200000005 3.4495057299999998 O
atom 4.6523408200000000 8.5461265999999991 8.6533273099999999 O
atom 2.5276724900000000 1.2519066999999999 2.8827722699999998 O
atom 2.7275945500000001 1.2381102799999999 8.1717926999999992 O
atom 2.5969751200000002 6.4967528000000003 3.0340803599999999 O
atom 2.7378604499999999 6.3814154099999998 8.2307760600000002 O
atom 3.0475401099999999 1.4359005700000000 0.2429798600000000 O
atom 2.7473214300000000 1.3118629799999999 5.5799389100000001 O
atom 2.8027351399999998 6.4167372599999997 0.3889982000000000 O
atom 2.6833016800000000 6.4552402100000004 5.6475935000000002 O
atom 2.2139098599999998 3.8726889899999999 3.0440201700000000 O
atom 2.2017009700000001 3.7972564599999998 8.2567197500000002 O
atom 2.0403498899999999 9.1483591299999993 2.9002277300000001 O
atom 2.2009161700000002 8.9221551300000002 8.2034561200000002 O
atom 2.2678514900000000 3.8609657799999999 0.4053329700000000 O
atom 2.1586913100000000 3.8626570099999999 5.6498183600000003 O
atom 2.3221698399999999 8.9631773799999994 0.3295263100000000 O
atom 2.1696407600000001 9.0063639200000001 5.5818041999999997 O
atom 5.3763413900000003 1.7455916800000000 1.6543565099999999 O
atom 5.3214648200000001 1.7544246299999999 6.8547005700000003 O
atom 5.2409712600000002 6.8423360000000004 1.6705880799999999 O
atom 5.3086771600000002 6.8530172800000004 6.9079474999999997 O
atom 5.3027369499999999 0.8821549300000000 4.2153667900000000 O
atom 5.3875284600000004 0.8269439400000000 9.4202638499999996 O
atom 5.2212274799999996 5.9941452399999999 4.2616503899999998 O
atom 5.3418482100000002 5.9661492799999998 9.4774001899999991 O
atom 9.8099255799999998 4.2897198500000000 1.5430675199999999 O
atom 9.6311815299999992 4.2706506400000004 6.8392744199999997 O
atom 9.7353371400000004 9.5192890800000001 1.6851024999999999 O
atom 9.6462831999999992 9.3686339299999997 6.8041206100000000 O
atom 9.5982641700000002 3.2213755700000002 4.2079710199999996 O
atom 9.6892379399999999 3.3571499400000002 9.4886718499999994 O
atom 9.5301174700000004 8.3826761300000001 4.1072670400000000 O
atom 9.6374455099999992 8.5385009800000002 9.4466205199999997 O
atom 7.8162729700000000 1.2832099400000001 9.8959789399999991 O
atom 7.7216195499999998 1.2745497699999999 4.6796246999999997 O
atom 7.7830516899999997 6.4066341299999996 9.9215710700000006 O
atom 7.4735689799999996 6.5601477499999996 4.7887255499999997 O
atom 7.8167423800000000 1.3278217999999999 2.0852642499999998 O
atom 7.7440526299999997 1.2984782200000000 7.2760813700000000 O
atom 7.6756903200000002 6.5767925600000003 2.0439561199999998 O
atom 7.7625511999999999 6.4221526100000004 7.3188772799999997 O
atom 7.2594879199999998 3.8336827900000001 9.9334958400000009 O
atom 7.1548824000000000 3.8259593299999999 4.7863145300000003 O
atom 7.2327884600000001 8.9785451999999992 9.9212343799999996 O
atom 7.1719901400000001 9.0159255700000003 4.7069121200000001 O
atom 7.2754096500000003 3.8635415100000001 2.0487407900000001 O
atom 7.2210521700000001 3.8797711100000001 7.3396543100000002 O
atom 7.2358835299999997 9.0430910400000002 2.1026713500000001 O
atom 7.2027395700000003 8.9925771799999996 7.3022874299999998 O
