lattice_vector 10.1021961200000003 0.0353678100000000 -0.1653212200000000 
lattice_vector 0.0303810000000000 10.2927954400000008 0.0643275000000000 
lattice_vector -0.0712255900000000 0.1310550400000000 10.5253342700000001 
atom 1.0530291199999999 0.3070627100000000 2.3575634600000002 Si
atom 1.4116023400000000 0.2682099900000000 6.9266256000000004 Hf
atom 1.4484317000000000 5.3674903900000004 1.8103316000000000 Hf
atom 1.4064404699999999 5.4121605800000001 7.0346023400000002 Hf
atom 1.3450902400000000 2.4792554199999999 4.4566693300000004 Hf
atom 1.4180907100000000 2.3956587400000000 9.7040119499999999 Hf
atom 1.3411199600000001 7.5504881199999998 4.4025609000000001 Hf
atom 1.4645009600000001 7.5961190900000002 9.5994993199999996 Hf
atom 3.5565337600000002 2.7288591400000000 1.7611983800000000 Hf
atom 3.5779198000000001 2.8555066099999999 6.9990305800000003 Hf
atom 3.5795202499999998 8.0055146599999993 1.6791478099999999 Hf
atom 3.6316025600000001 7.9923288599999998 6.9669353500000000 Hf
atom 3.6563156499999998 4.9888213400000003 4.4052922600000004 Hf
atom 3.5682084500000002 4.9844296799999999 9.6920944299999992 Hf
atom 3.6302911000000000 10.1411801300000004 4.3484103000000003 Hf
atom 3.5930972500000000 10.1896098399999993 9.6455427000000000 Hf
atom 6.4176426700000002 0.3576574300000000 0.7246435000000000 Hf
atom 6.3762579300000004 0.2574098600000000 5.9802599599999997 Hf
atom 6.2980197100000002 5.3367209100000004 0.9226355100000000 Hf
atom 6.4336241799999998 5.4477355200000002 6.0675656800000004 Hf
atom 6.4045700200000004 2.4210652200000000 3.3851695500000001 Hf
atom 6.2891412400000002 2.4027331400000000 8.5323605199999992 Hf
atom 6.3613174099999998 7.5828648899999997 3.4196278800000002 Hf
atom 6.4672858700000004 7.6757926000000003 8.8279074899999994 La
atom 8.9379080900000005 2.7174919300000000 0.9455438400000000 Hf
atom 8.6608043000000006 2.8565962400000000 6.0185191299999996 Hf
atom 8.8152543199999993 7.9286394199999997 0.8280674900000000 La
atom 8.6821326699999997 7.9665704399999999 5.9886352100000000 Hf
atom 8.6521160800000008 5.0112805399999996 3.3890241300000001 Hf
atom 8.8321737500000008 5.0157982199999998 8.5889104599999992 Hf
atom 8.5708860999999992 10.1178171799999994 3.4754495099999998 Hf
atom 8.8638546199999997 10.1242484600000004 8.4612190999999992 Hf
atom 0.5851251700000000 1.5466590899999999 1.1809211200000000 O
atom 0.3280543700000000 1.8338964400000000 6.2007512100000000 O
atom 0.6359564700000000 6.8761191899999998 0.8508600100000000 O
atom 0.3518350400000000 6.9049465600000000 6.1558280200000004 O
atom 0.2613723100000000 0.8602976300000000 3.7352439899999998 O
atom 0.3407292100000000 0.9296392900000000 8.7859710999999994 O
atom 0.2844449400000000 6.0578117999999996 3.5104529400000000 O
atom 0.4222037100000000 5.9718854300000004 8.7931375000000003 O
atom 4.6882622999999999 4.1337001500000001 0.8468099400000000 O
atom 4.6974620500000004 4.3113757399999999 6.0691872399999998 O
atom 4.8118799799999996 9.4066686399999995 0.7819390600000000 O
atom 4.6931744100000001 9.4506253699999991 6.0119246000000004 O
atom 4.6936794600000002 3.4905380600000000 3.4538167799999999 O
atom 4.6663217200000000 3.5370576699999998 8.6503776400000003 O
atom 4.5773935200000002 8.6335414999999998 3.4213059100000001 O
atom 4.5472769800000004 8.7543106099999992 8.6100836100000002 O
atom 2.4972771900000001 1.2741461199999999 2.9595271900000002 O
atom 2.7197152600000001 1.3355698400000000 8.2252843299999991 O
atom 2.7344840700000002 6.5334223600000003 3.0638797400000000 O
atom 2.7956393700000000 6.4624845100000003 8.2885258999999998 O
atom 3.0132411800000001 1.4415142100000000 0.2315323200000000 O
atom 2.7567266300000002 1.3708972300000000 5.6059811899999996 O
atom 2.9366411299999999 6.3662595800000004 0.4258793400000000 O
atom 2.7407020800000002 6.4809787400000003 5.6630176099999998 O
atom 2.2681072200000001 3.8882563900000000 3.1351061900000001 O
atom 2.2035631000000002 3.8579476100000001 8.3616487199999998 O
atom 2.0932061800000001 9.2148708199999998 2.9383254499999998 O
atom 2.1668417299999998 9.0451213599999996 8.2125321600000003 O
atom 2.1930248600000000 3.8670757299999998 0.4832173900000000 O
atom 2.2309361700000001 3.9359611800000001 5.7226965300000003 O
atom 2.3977518700000000 8.9203093700000000 0.2656519900000000 O
atom 2.2477478099999999 9.0901130099999996 5.6024549099999996 O
atom 5.3101823100000001 1.6929834200000000 1.7710737800000000 O
atom 5.2672264499999999 1.7069322000000000 6.8795767799999998 O
atom 5.3246152300000000 6.9089748499999999 1.6822585600000000 O
atom 5.3254296700000001 6.8775254099999996 6.9110851699999998 O
atom 5.3245199599999999 0.9195719999999999 4.2748532600000004 O
atom 5.3461947199999997 0.9115279400000000 9.4826437000000006 O
atom 5.3511064399999997 6.0720993099999996 4.3307897500000001 O
atom 5.2965211500000002 5.9486427900000001 9.7037636400000000 O
atom 9.7766845700000005 4.3701555200000000 1.6841661100000000 O
atom 9.7804129100000008 4.3352034000000002 6.8436730399999997 O
atom 9.8814339300000000 9.6753144800000008 1.8320582599999999 O
atom 9.8042049299999992 9.5655024999999991 6.7125339000000004 O
atom 9.6833074700000008 3.4683754100000002 4.2459978500000002 O
atom 9.6622071700000003 3.4445141900000000 9.6583518200000000 O
atom 9.6644698800000004 8.5631366199999999 4.2131026299999998 O
atom 9.7395002000000002 8.4860794800000008 9.2126340800000008 O
atom 7.3509654500000003 2.2817875100000000 10.2429403499999996 O
atom 7.7685341699999997 1.3260678900000000 4.7394939599999999 O
atom 7.7918346800000000 6.4851438500000000 4.7519564499999998 O
atom 7.8598620800000001 1.3348500000000001 2.1243986100000001 O
atom 7.7812041499999998 1.3968294299999999 7.3586843399999999 O
atom 7.6240085999999998 6.3973440699999999 2.2364650400000001 O
atom 7.9343364999999997 6.4701012200000001 7.3155184000000002 O
atom 7.8013202899999996 5.8491257699999997 10.1358153600000005 O
atom 7.2775903099999999 3.9156777100000002 4.7502569399999999 O
atom 7.5847443600000002 9.7095811199999993 10.0049298600000007 O
atom 7.2398566899999999 9.0317089900000003 4.7420627299999998 O
atom 7.3589306299999997 3.8391170200000002 2.0571202099999999 O
atom 7.3089157699999996 3.9555163800000002 7.4609528400000000 O
atom 7.2054141200000004 9.1601852699999995 2.1995360900000001 O
atom 7.4059225099999999 9.1421299299999994 7.2442690699999996 O
