lattice_vector 10.0343105900000005 0.0014428300000000 -0.1096185400000000 
lattice_vector 0.0205764600000000 10.1726410699999992 -0.0051593400000000 
lattice_vector -0.0563986100000000 -0.0112365800000000 10.4859627799999995 
atom 1.3115140400000000 -0.0312530300000000 1.7946404100000000 Si
atom 1.3129435800000000 0.2174466200000000 6.9753339299999997 Hf
atom 1.4147001200000000 5.3275614100000004 1.7772355300000000 Hf
atom 1.3581804600000000 5.2556396699999999 7.0063436599999998 Hf
atom 1.1537826900000001 2.3364831800000001 4.0911103100000004 La
atom 1.4193890199999999 2.2855422600000002 9.6554122499999995 Hf
atom 1.3550466900000000 7.3999796900000003 4.4011941600000002 Hf
atom 1.3261077299999999 7.4270981400000000 9.6186505899999997 Hf
atom 3.6482734600000000 2.7563880500000000 1.6778142300000001 Hf
atom 3.5612438300000000 2.7423892099999998 6.9426940899999998 Hf
atom 3.5980821100000000 7.9109899400000003 1.7550163000000001 Hf
atom 3.5929680199999998 7.8421484499999998 7.0020468100000004 Hf
atom 3.6202048699999998 4.8682703900000002 4.3759221999999998 Hf
atom 3.5854624300000002 4.8615642100000001 9.5947842500000000 Hf
atom 3.5540349099999999 9.9683968800000002 4.3490587500000002 Hf
atom 3.6039489499999999 10.0009583800000001 9.5996251499999996 Hf
atom 6.4243903700000002 0.2142258400000000 0.7316116400000000 Hf
atom 6.3279447199999996 0.2028288000000000 5.9983403400000004 Hf
atom 6.4222152899999996 5.3164789800000003 0.7407040300000000 Hf
atom 6.3779404399999997 5.2913003999999999 6.0094328800000003 Hf
atom 6.3843209600000002 2.3191178099999998 3.3846421100000001 Hf
atom 6.3599320500000003 2.3317560799999999 8.6297069400000002 Hf
atom 6.3605706199999998 7.4022269500000002 3.3633506000000000 Hf
atom 6.3838650299999999 7.4102373300000002 8.6086464500000002 Hf
atom 8.7243164600000007 2.6949153699999999 0.8074926700000000 Hf
atom 8.5665717899999994 2.7614908100000002 6.0491377799999997 Hf
atom 8.6866024799999995 7.8688396599999999 0.7431505200000000 Hf
atom 8.6156178299999997 7.8231516699999997 5.9981712500000004 Hf
atom 8.5918985400000008 4.9054321700000001 3.3744069799999998 Hf
atom 8.6449954499999997 4.8337752600000004 8.6663408400000002 Hf
atom 8.5748792199999997 9.9214541599999997 3.4010258599999998 Hf
atom 8.6254342600000005 9.9635812200000000 8.5972292400000008 Hf
atom 0.5990800900000000 1.3915975700000001 1.0028895700000000 O
atom 0.1133237000000000 1.4859860300000001 6.0225633600000004 O
atom 0.3081457600000000 6.7150117500000004 0.8077046400000000 O
atom 0.2542429900000000 6.6516972499999998 6.0414899899999996 O
atom 0.2651874800000000 0.9239978599999999 8.6902042000000002 O
atom 0.2619166600000000 6.0424842700000001 3.3899765799999999 O
atom 0.2824079000000000 6.0060738999999996 8.7004704499999992 O
atom 4.7190564200000003 4.2213865200000003 0.7860517500000000 O
atom 4.6787513399999998 4.2098736299999997 6.0535645899999997 O
atom 4.7137131700000001 9.2939107399999994 0.7663152600000001 O
atom 4.6511834800000003 9.2814419099999999 6.0170147199999997 O
atom 4.6816837800000002 3.3575869599999999 3.4498634500000001 O
atom 4.6585468800000003 3.4191456800000002 8.6503884499999995 O
atom 4.6409586400000000 8.5104777800000004 3.4192044099999999 O
atom 4.6804285700000001 8.5103152299999998 8.6494524899999998 O
atom 2.5818153700000002 0.9796557200000000 2.6532907099999998 O
atom 2.7077334000000000 1.2216307500000001 8.1884340499999997 O
atom 2.7440095200000001 6.3994377199999999 3.0512480499999999 O
atom 2.7252616600000001 6.3163969099999999 8.2722374500000004 O
atom 3.0962602900000000 1.5412678200000001 0.1424651100000000 O
atom 2.7367320099999999 1.2555709799999999 5.6082121000000003 O
atom 2.7844768800000002 6.4991428200000003 0.4000986700000000 O
atom 2.7422792600000001 6.3818253599999997 5.6621008100000001 O
atom 2.4114509599999998 3.9111268099999998 2.9446020100000001 O
atom 2.2215713099999999 3.7617739299999999 8.3070742299999996 O
atom 2.0879597599999999 8.8922025300000005 3.0141393100000000 O
atom 2.2218189399999999 8.8720531200000003 8.3510984500000003 O
atom 2.2353784999999999 3.9243215700000000 0.4094822200000000 O
atom 2.2424106799999999 3.8663027699999999 5.6787065500000002 O
atom 2.1553380500000001 9.2099155300000000 0.5604336500000000 O
atom 2.2086403899999998 8.9016494999999995 5.6837853300000001 O
atom 5.3977414799999996 1.6808624599999999 1.6597296200000000 O
atom 5.3033278800000003 1.6842733800000000 6.9122778299999998 O
atom 5.3099665700000003 6.7678868400000001 1.6877207200000000 O
atom 5.3152352599999997 6.7555372499999997 6.9310446800000003 O
atom 5.2817709600000002 0.8450265900000000 4.2807142999999996 O
atom 5.3728314900000003 0.8064134900000000 9.4954932799999998 O
atom 5.3234391900000002 5.9626078600000003 4.3101737299999998 O
atom 5.3211910500000004 5.9508038799999996 9.5485902899999999 O
atom 9.8559702700000003 3.9840585700000002 1.9090775300000000 O
atom 9.7347846800000006 4.0551771399999996 7.1083307299999996 O
atom 9.8503297199999995 9.3325513299999994 1.7760296700000000 O
atom 9.7210689099999996 9.1735931700000002 7.0077281200000003 O
atom 9.5815360700000003 3.7200998500000000 4.5863833500000002 O
atom 9.7435992999999996 3.4263297200000000 9.7268733199999993 O
atom 9.7210627299999999 8.6046994399999992 4.3725855500000002 O
atom 9.7004774200000004 8.5753289400000003 9.6182595099999997 O
atom 7.7924420300000001 1.2455984400000000 9.9770617999999995 O
atom 7.7455733899999997 1.2412017200000001 4.6933523700000004 O
atom 7.7725267799999997 6.3511578899999996 9.9573263500000007 O
atom 7.7476140800000000 6.3481899899999998 4.6882558999999997 O
atom 7.8487486300000002 1.2633858300000000 2.1002599300000000 O
atom 7.7065044800000004 1.2625202200000001 7.3452838500000004 O
atom 7.7660313700000003 6.3894644100000004 2.0593981800000001 O
atom 7.7789910100000004 6.3440251200000004 7.3334449700000004 O
atom 7.2764616499999999 3.7702351500000000 9.9889250599999997 O
atom 7.1513915099999998 3.7729702299999999 4.7195906599999997 O
atom 7.2527520399999998 8.8733459299999993 9.9356412299999999 O
atom 7.2214481800000003 8.8657343399999995 4.6896703700000000 O
atom 7.3179607500000001 3.8137872100000001 2.0709740800000001 O
atom 7.2381785299999999 3.8403227200000001 7.3666580899999996 O
atom 7.3157197099999998 8.9162933399999993 2.0662503000000001 O
atom 7.2392534299999998 8.9041159200000006 7.3038582999999999 O
