lattice_vector 10.0591443100000006 -0.0544900600000000 -0.0237335500000000 
lattice_vector -0.0225030300000000 10.4388593000000007 0.0073086500000000 
lattice_vector -0.0265449600000000 0.0205825200000000 5.0233802799999996 
atom 1.2555265099999999 0.0854483800000000 1.2505418300000000 La
atom 1.3007351400000000 5.3911544400000002 1.2747854000000001 Hf
atom 6.4081178699999999 0.1441650300000000 1.2579532899999999 Hf
atom 6.3616546700000001 5.3555280999999999 1.2703208800000001 Hf
atom 1.2149907000000000 2.5490522300000000 3.6870552299999999 Hf
atom 1.3379965300000001 7.6558718099999998 3.7845773700000001 Hf
atom 6.3307126699999996 2.4164049300000001 3.7822256099999998 Hf
atom 6.3575832900000000 7.5982037499999997 3.7814614700000000 Hf
atom 3.7099563500000001 2.8286973199999998 1.3438391700000001 Hf
atom 3.7050085300000002 7.9204119400000002 1.2135863700000000 Hf
atom 8.6408992100000006 2.7898248300000001 1.2653711999999999 Hf
atom 8.6553735199999995 7.9371907799999999 1.2831705300000000 Hf
atom 3.6202682899999998 5.0277957300000002 3.8078392200000000 Hf
atom 3.7588165600000001 10.1563497700000003 3.6523498700000001 Hf
atom 8.6660217199999998 5.0298094500000001 3.7791368699999999 Hf
atom 8.6289942600000007 10.2215548399999996 3.7859126200000000 Hf
atom 0.3273140800000000 2.1555783800000001 1.8798428599999999 O
atom 0.3493322800000000 7.1793747600000000 1.9726763700000001 O
atom 5.4100642600000004 1.8935481900000000 1.9417032000000001 O
atom 5.3712587899999997 7.0711194300000004 1.9726862500000000 O
atom 0.3623816200000000 0.7699371800000000 4.1516983800000000 O
atom 0.3174029900000000 5.9390907999999998 4.4771560499999996 O
atom 5.3645900700000002 0.6728542300000000 4.4667592799999998 O
atom 5.3252711300000000 5.8679920100000000 4.5080527100000003 O
atom 4.6695420099999998 4.4902111900000001 2.0156120700000000 O
atom 4.6550075199999998 9.7176707199999992 1.8698089200000001 O
atom 9.6262483200000002 4.5685322399999997 1.9505478100000000 O
atom 9.4225667200000007 9.6513595399999996 2.0226403999999998 O
atom 4.5989213800000002 3.2433684800000000 4.4997918600000002 O
atom 4.7262068099999999 8.4761741300000004 4.4631669199999999 O
atom 9.6070549900000000 3.3084798100000001 4.4543632400000002 O
atom 9.7515489300000002 8.5546403499999997 4.5675068699999999 O
atom 2.8284192699999999 1.3509159300000000 2.6572725899999998 O
atom 2.6895372599999998 6.3860664299999996 2.5075659400000001 O
atom 7.7247255099999999 1.2219595400000001 2.5285026600000000 O
atom 7.7194029100000003 6.4219885400000001 2.5057384200000001 O
atom 2.6722733999999999 6.5635233599999996 5.0210313299999996 O
atom 7.7173844799999998 1.3659743000000000 5.0293181999999996 O
atom 7.7061369300000004 6.5552583200000001 5.0153890299999997 O
atom 2.2637992900000001 3.9471836900000001 5.0399201400000004 O
atom 2.4344514899999998 9.1599333699999992 4.9073509900000003 O
atom 7.2657557900000000 3.9784031099999999 5.0193893699999999 O
atom 7.3138685299999997 9.1618971100000000 5.0552180299999998 O
atom 2.2879179000000001 3.8944784000000001 2.5017823400000001 O
atom 2.4323223100000000 8.8902684399999998 2.5078913200000001 O
atom 7.2936233000000001 3.8307046800000002 2.5236904899999999 O
atom 7.1987800799999997 9.0230093700000005 2.5484059800000001 O
