lattice_vector 10.1735489999999995 0.0018570000000000 0.8486920000000000 
lattice_vector 0.0129370000000000 10.3530390000000008 0.0030380000000000 
lattice_vector 0.8582240000000000 -0.0095740000000000 10.4603540000000006 
atom 1.4857060000000000 0.1353700000000000 1.6031489999999999 La
atom 1.9144540000000001 0.1668320000000000 6.8842499999999998 Hf
atom 1.5478010000000000 5.3829240000000000 1.6359020000000000 Hf
atom 1.9869810000000001 5.3700440000000000 6.8779839999999997 Hf
atom 6.6132640000000000 0.2178300000000000 2.0725090000000002 Hf
atom 7.1048140000000002 0.1531890000000000 7.3386380000000004 Hf
atom 6.6163540000000003 5.3798690000000002 2.0647210000000000 Hf
atom 7.0791290000000000 5.4142840000000003 7.3033970000000004 Hf
atom 1.7573430000000001 2.3709709999999999 4.2789370000000000 Hf
atom 2.1507010000000002 2.3959519999999999 9.4898509999999998 Hf
atom 1.7942380000000000 7.5031160000000003 4.2810579999999998 Hf
atom 2.1965370000000002 7.5182830000000003 9.4796619999999994 Hf
atom 6.9058890000000002 2.3871639999999998 4.6066409999999998 Hf
atom 7.2648390000000003 2.3624580000000002 9.9047789999999996 Hf
atom 6.8134629999999996 7.5199449999999999 4.6885389999999996 Hf
atom 7.3050459999999999 7.5428509999999998 9.9160249999999994 Hf
atom 3.7522359999999999 2.7929750000000002 1.3945909999999999 Hf
atom 4.2772309999999996 2.6963230000000000 6.6868069999999999 La
atom 3.8250050000000000 7.9458219999999997 1.3993390000000001 Hf
atom 4.1925809999999997 7.9738040000000003 6.6403569999999998 Hf
atom 8.8255850000000002 2.8448110000000000 1.7855280000000000 Hf
atom 9.2754279999999998 2.8121890000000000 7.0512389999999998 Hf
atom 8.8111390000000007 7.9215080000000002 1.8156120000000000 Hf
atom 9.3113050000000008 7.9519539999999997 7.0413100000000002 Hf
atom 3.9656899999999999 4.9327050000000003 3.9830999999999999 Hf
atom 4.4365709999999998 4.9815569999999996 9.2635670000000001 Hf
atom 3.9977710000000002 10.1095000000000006 4.0217749999999999 Hf
atom 4.4242619999999997 10.1115019999999998 9.2354380000000003 Hf
atom 9.0883140000000004 4.9717630000000002 4.4316860000000000 Hf
atom 9.4833259999999999 4.9604140000000001 9.6380739999999996 Hf
atom 9.0148480000000006 10.0865430000000007 4.4777160000000000 Hf
atom 9.4947459999999992 10.1235870000000006 9.7008880000000008 Hf
atom 0.4037470000000000 1.9478560000000000 0.8236440000000000 O
atom 0.8598390000000000 1.7799529999999999 6.1611060000000002 O
atom 0.4454610000000000 6.9488170000000000 0.8751280000000000 O
atom 0.8698380000000000 6.8924870000000000 6.0972700000000000 O
atom 5.5203230000000003 1.7540830000000001 1.2809040000000000 O
atom 6.2934749999999999 1.7701469999999999 6.4924200000000001 O
atom 5.5662039999999999 6.9375090000000004 1.3057040000000000 O
atom 5.9855739999999997 6.9714820000000000 6.5509610000000000 O
atom 0.5225430000000000 0.8795740000000000 3.6258940000000002 O
atom 0.9919350000000000 0.8498850000000000 8.7472309999999993 O
atom 0.6558850000000001 6.0189740000000000 3.4765190000000001 O
atom 1.0494969999999999 6.0273940000000001 8.6954399999999996 O
atom 5.7424130000000000 0.8352200000000000 3.9258970000000000 O
atom 6.1480050000000004 0.8537590000000000 9.0996659999999991 O
atom 5.7135499999999997 6.0263640000000001 3.8871169999999999 O
atom 6.2136310000000003 6.0217879999999999 9.1969360000000009 O
atom 4.8613920000000004 4.3545769999999999 2.1228790000000002 O
atom 5.3204779999999996 4.5420059999999998 7.4387720000000002 O
atom 4.8744470000000000 9.5366149999999994 2.1521740000000000 O
atom 5.3007289999999996 9.5531590000000008 7.3872200000000001 O
atom 9.9360250000000008 4.3874500000000003 2.5758749999999999 O
atom 10.3845550000000006 4.3468970000000002 7.8096240000000003 O
atom 9.6935590000000005 9.4927139999999994 2.6468080000000000 O
atom 10.3691960000000005 9.4826829999999998 7.8555820000000001 O
atom 5.1793930000000001 3.4434480000000001 4.6224660000000002 O
atom 5.5210949999999999 3.4184899999999998 9.9848070000000000 O
atom 5.0944089999999997 8.6022549999999995 4.8212520000000003 O
atom 5.6168630000000004 8.6223139999999994 10.0254410000000007 O
atom 10.1710689999999992 3.4438100000000000 5.2181230000000003 O
atom 10.5501489999999993 3.4442010000000001 10.3893450000000005 O
atom 10.2114689999999992 8.6032030000000006 5.2207929999999996 O
atom 10.6369140000000009 8.6197230000000005 10.4818259999999999 O
atom 3.0878369999999999 1.4075830000000000 2.8463940000000001 O
atom 3.2822469999999999 1.1802750000000000 8.0918589999999995 O
atom 3.0301520000000002 6.4564729999999999 2.7381090000000001 O
atom 3.4423910000000002 6.5109370000000002 7.9928619999999997 O
atom 8.0899439999999991 1.3497560000000000 3.1542309999999998 O
atom 8.5329650000000008 1.3201840000000000 8.4149150000000006 O
atom 8.0870680000000004 6.5019359999999997 3.1770999999999998 O
atom 8.5538439999999998 6.5184430000000004 8.3947380000000003 O
atom 3.0884570000000000 1.1042730000000001 5.3395000000000001 O
atom 3.7439000000000000 1.3137449999999999 10.5254320000000003 O
atom 3.2645700000000000 6.4153289999999998 5.3801800000000002 O
atom 3.6683020000000002 6.4020289999999997 10.6072369999999996 O
atom 8.4098469999999992 1.2520050000000000 5.7682190000000002 O
atom 8.7187719999999995 1.2441370000000000 11.0215800000000002 O
atom 8.3299140000000005 6.4425179999999997 5.7740060000000000 O
atom 8.7533689999999993 6.4020630000000001 11.0153420000000004 O
atom 2.3046700000000002 3.9329250000000000 0.2982840000000000 O
atom 2.6572309999999999 3.9688539999999999 5.4331810000000003 O
atom 2.4428550000000002 8.9590709999999998 0.1756130000000000 O
atom 2.7140819999999999 9.0326059999999995 5.5556359999999998 O
atom 7.3423900000000000 3.9377450000000001 0.6878000000000000 O
atom 7.8244550000000004 3.9506190000000001 5.9193110000000004 O
atom 7.3935269999999997 9.0955200000000005 0.7311620000000000 O
atom 7.8268849999999999 9.0822529999999997 5.9648190000000003 O
atom 2.4820099999999998 3.8396880000000002 2.8744930000000002 O
atom 2.8688110000000000 3.9142109999999999 8.2249829999999999 O
atom 2.6473900000000001 8.8818909999999995 2.9776989999999999 O
atom 2.9355359999999999 8.9745369999999998 8.1206569999999996 O
atom 7.6165139999999996 3.8698000000000001 3.3010069999999998 O
atom 8.0203959999999999 3.8319930000000002 8.5408849999999994 O
atom 7.4751370000000001 8.9961310000000001 3.3679749999999999 O
atom 8.0477229999999995 8.9954429999999999 8.5733929999999994 O
