lattice_vector 9.9550474900000001 0.0408952200000000 -0.0519019400000000 
lattice_vector 0.0570038500000000 10.2088815900000007 -0.0212092000000000 
lattice_vector 0.0524159500000000 0.0146305200000000 10.3970938400000001 
atom 1.0588163799999999 0.2579094100000000 2.1923038300000002 Si
atom 1.4243229500000001 0.2050286700000000 6.9085865300000000 Hf
atom 1.4230936400000000 5.3428275500000000 1.7360086200000000 Hf
atom 1.4909289800000001 5.2957286400000001 6.8998808900000004 Hf
atom 1.4431074500000001 2.4373640600000002 4.3082372500000004 Hf
atom 1.5322608499999999 2.2727325700000001 9.5785099700000007 Hf
atom 1.4424615400000000 7.4296754800000002 4.2576574699999998 Hf
atom 1.5114098400000000 7.4905196600000004 9.4946162399999992 Hf
atom 3.4984091500000001 2.8289685400000000 1.7217981800000000 Hf
atom 3.6604569300000001 2.7262665600000000 6.9382755999999999 Hf
atom 3.5459688900000002 7.9294245500000002 1.6437304300000000 Hf
atom 3.7193577599999998 7.8769970999999996 6.8742662000000001 Hf
atom 3.9599450500000000 4.8703722300000001 4.7880530099999996 Si
atom 3.6800059300000001 4.9028095499999997 9.5027420500000002 Hf
atom 3.6143498900000002 10.0449947200000000 4.2488122500000003 Hf
atom 3.7126299899999999 10.0293462299999998 9.5270033099999996 Hf
atom 6.3362340000000001 0.2844432800000000 0.8288839200000000 Hf
atom 6.3665684599999999 0.2288058700000000 6.0128234300000001 Hf
atom 6.3792055899999998 5.3359882499999998 0.7847024100000000 Hf
atom 6.5354707300000001 5.3696828900000000 6.0610293799999999 Hf
atom 6.2722521100000002 2.4496032699999999 3.4529990599999998 Hf
atom 6.4613212300000002 2.3823735199999998 8.6267703900000008 Hf
atom 6.2953706800000004 7.4286962599999997 3.3728677700000000 Hf
atom 6.4855837300000001 7.4924659800000004 8.6052772199999996 Hf
atom 8.6580517599999993 2.7389466100000002 0.8568388500000000 Hf
atom 8.6305341900000005 2.7891845800000001 5.9949918699999998 Hf
atom 8.6526476100000007 7.9321410900000000 0.7894739600000000 Hf
atom 8.6725983099999997 7.9056590499999997 5.9622940499999997 Hf
atom 8.5847820200000005 4.9318265999999999 3.3616897500000000 Hf
atom 8.7350413600000003 4.9043004699999999 8.6417910399999993 Hf
atom 8.5182271699999994 10.0177665800000000 3.4159735200000001 Hf
atom 8.6915539800000001 10.0510156500000001 8.5790782599999993 Hf
atom 0.5710868000000000 1.5070301500000001 1.0656105800000000 O
atom 0.4276018700000000 1.7784744699999999 6.0992437500000003 O
atom 0.3934312300000000 6.8529647300000001 0.8485976600000000 O
atom 0.4987627400000000 6.8281457600000000 6.0466601100000004 O
atom 0.2896060100000000 0.8256562500000000 3.5742318200000001 O
atom 0.4366778600000000 0.8100765700000000 8.6782835400000007 O
atom 0.3300102200000000 5.9395634800000003 3.4720828400000001 O
atom 0.4953055200000000 5.9051697900000004 8.6665634399999991 O
atom 4.6409895800000003 4.2930940599999996 0.8567934100000000 O
atom 4.7438528900000003 4.3570147500000003 6.1796189600000000 O
atom 4.7103712700000004 9.4299308800000006 0.8573098400000000 O
atom 4.6814520499999999 9.4332004699999992 6.0175947499999998 O
atom 4.4525999799999996 3.5928277400000002 3.6937031000000000 O
atom 4.7160494999999996 3.3830013299999999 8.6526110000000003 O
atom 4.5727322600000004 8.4934333300000002 3.4304010300000001 O
atom 4.7446518800000002 8.5175790300000003 8.6063148599999995 O
atom 2.5627398000000001 1.2169620800000001 2.8827329100000001 O
atom 2.8287968399999999 1.2333179599999999 8.1478104400000007 O
atom 2.6625951600000000 6.5378172899999996 2.8776644500000002 O
atom 2.8775636699999998 6.3568803999999997 8.1167196700000002 O
atom 3.0267144899999998 1.4880687699999999 0.2552049900000000 O
atom 2.7893065400000001 1.3049924200000000 5.5670308799999999 O
atom 2.8093181000000000 6.4100979200000001 0.3360566400000000 O
atom 2.9750704099999998 6.2443247299999998 5.4429124199999999 O
atom 2.0456732799999999 3.7449696600000002 2.8872687300000002 O
atom 2.2936090600000001 3.7733167600000002 8.1750506000000005 O
atom 2.0897728099999999 9.1169147200000005 2.8593820900000000 O
atom 2.3298232699999999 8.9086943400000003 8.1236908600000000 O
atom 2.2075669900000001 3.9077178799999999 0.3617123800000000 O
atom 2.4950008200000000 3.9015225700000000 5.4908814699999997 O
atom 2.3262663500000000 8.9519202599999996 0.2909864100000000 O
atom 2.3129206000000000 8.9067040800000008 5.5217978399999996 O
atom 5.2824452700000002 1.8109030100000001 1.7742202499999999 O
atom 5.4149993199999997 1.7824726399999999 6.8584429800000004 O
atom 5.3166361200000001 6.8568973399999997 1.6475877000000001 O
atom 5.4815359399999997 6.8946221599999999 6.8417558600000001 O
atom 5.2918018000000000 0.8772962900000000 4.2648083200000002 O
atom 5.4548696400000001 0.8481275500000000 9.4584893000000001 O
atom 5.2642079900000001 5.8955162300000001 4.3371618900000000 O
atom 5.4376821099999999 5.9477417099999998 9.4294330599999991 O
atom 9.5902654700000003 4.3282721300000002 1.6271066900000000 O
atom 9.7082434000000006 4.3014279399999999 6.8560093400000000 O
atom 9.7320212999999995 9.4932279499999996 1.7103110900000000 O
atom 9.6982396000000008 9.4290717900000001 6.8014048400000000 O
atom 9.6174253600000004 3.4210792799999998 4.2507902199999998 O
atom 9.7329606900000005 3.3536375399999998 9.5384324399999993 O
atom 9.6350122400000000 8.5130500799999993 4.2191003399999998 O
atom 9.7013569200000003 8.5276707999999992 9.4275707499999992 O
atom 7.8549555599999996 1.2940930700000000 9.9536719199999997 O
atom 7.7004723899999998 1.3120563100000000 4.7320672100000003 O
atom 7.8576759000000003 6.4078729000000001 9.9237372100000005 O
atom 7.7357956100000003 6.4101304600000004 4.6991450900000000 O
atom 7.7078498000000000 1.3422094499999999 2.1655500800000000 O
atom 7.8014144999999999 1.3285068000000000 7.3223984099999999 O
atom 7.7296406500000003 6.4381474499999998 2.1051165300000001 O
atom 7.8973756399999999 6.4334373100000004 7.3277581200000004 O
atom 7.3265237499999998 3.8241790500000001 9.9558094900000000 O
atom 7.2222295699999997 3.8673677000000000 4.7416688200000001 O
atom 7.3086478599999998 8.9746894299999997 9.9221843399999994 O
atom 7.2070899199999996 8.9291585100000006 4.7027321700000000 O
atom 7.1893701200000004 3.8593970199999998 2.1331467100000001 O
atom 7.3133420999999998 3.8936266499999999 7.3539886399999999 O
atom 7.2451260700000004 8.9757406300000007 2.1213022700000002 O
atom 7.3063289500000002 8.9846740300000008 7.2977771100000002 O
