lattice_vector 10.1509961299999993 -0.0299883700000000 0.7826429000000000 
lattice_vector 0.0105761900000000 10.2811570999999997 0.0635580500000000 
lattice_vector 0.7836714000000000 0.0387008100000000 10.4578299000000001 
atom 1.1848691000000000 0.3294339600000000 2.0790963400000000 Si
atom 1.7608492099999999 0.3796003700000000 7.0152966100000000 Hf
atom 1.5768894300000000 5.3769068899999999 1.6495090800000001 Hf
atom 1.8963617900000000 5.3776215299999999 6.9230995499999999 Hf
atom 6.6913389600000004 0.1820592300000000 1.9685893699999999 Hf
atom 6.9643176300000000 0.2398467600000000 7.2617847400000004 Hf
atom 6.6033660599999999 5.3379423299999997 2.0448387399999999 Hf
atom 7.0320516399999997 5.3057689799999999 7.3399633199999998 Hf
atom 1.6373034300000000 2.4664024100000002 4.2976199700000004 Hf
atom 2.2190077700000002 2.3279262900000002 9.5923508200000001 Hf
atom 1.7231185400000000 7.6810582700000003 4.2012233800000001 La
atom 2.1258899800000002 7.5455741400000003 9.4487457999999993 Hf
atom 6.8031750899999999 2.4169771999999998 4.6554597299999996 Hf
atom 7.1830744199999996 2.3673654900000001 9.9318536399999999 Hf
atom 6.7778910500000000 7.4833251599999997 4.6817764600000000 Hf
atom 7.2239884700000001 7.4561763200000000 9.9196615599999998 Hf
atom 3.7378108000000001 2.7635977000000000 1.3848525100000000 Hf
atom 4.1151239600000000 2.8070525100000001 6.6327299200000001 Hf
atom 3.7574244600000002 8.0013290700000006 1.2333110300000001 Hf
atom 4.3129150100000002 7.7852921799999999 6.7352159000000000 Hf
atom 8.9186641099999999 2.7451167399999998 1.8118319000000001 Hf
atom 9.1604988299999999 2.8052921099999999 7.0470855099999996 Hf
atom 8.9268664999999991 7.9324937999999996 1.8206373300000001 Hf
atom 9.1764715399999996 7.9015327099999997 7.0735728699999996 Hf
atom 3.9518342600000000 4.9645845099999999 4.0097641199999998 Hf
atom 4.3523948299999997 4.9313771800000001 9.2609979899999999 Hf
atom 4.0194541399999997 10.2455293399999992 3.9392505999999998 La
atom 4.3736604899999998 10.1285061100000000 9.2058286400000000 Hf
atom 9.0246125399999997 4.9583743499999997 4.3802350099999998 Hf
atom 9.4751896400000000 4.8871362600000001 9.6982683600000001 Hf
atom 8.8537269700000003 10.0768290599999997 4.5001183600000001 Hf
atom 9.3772549099999996 10.0565931699999993 9.6693400300000008 Hf
atom 0.5786723200000000 1.5270674300000000 0.9950394100000000 O
atom 0.6968449799999999 1.8091204299999999 6.1002695300000003 O
atom 0.5025917800000000 6.9357752300000000 0.8895620500000000 O
atom 0.7651417400000000 6.9016243599999996 6.2593919800000002 O
atom 5.5064496299999997 1.7067705300000000 1.3283001500000000 O
atom 5.8450019299999996 1.7420270800000000 6.4729781099999997 O
atom 5.5099883600000004 6.8234890600000000 1.2345589800000001 O
atom 6.0413094799999998 6.9044714699999998 6.6231403100000001 O
atom 0.5632093700000000 0.7667273600000000 3.5983234099999999 O
atom 0.9709379800000000 0.9135004000000000 8.7526756300000006 O
atom 0.6293060500000000 5.9365377900000000 3.4468834300000002 O
atom 1.0574556500000001 5.9235978999999999 8.7943487600000001 O
atom 6.0178747599999998 0.7650660000000000 3.8622348500000001 O
atom 6.1374693799999998 0.8412051699999999 9.1164123400000001 O
atom 5.7536489000000000 5.9194569399999999 3.9292744499999999 O
atom 6.1026845600000001 5.9631085700000002 9.1256281500000007 O
atom 4.8687270099999997 4.2814961699999996 2.1916433500000001 O
atom 5.2379627099999997 4.3170823599999997 7.3867075900000003 O
atom 5.0067651900000003 9.3548686399999994 2.0517904400000000 O
atom 5.2326431400000004 9.4825242500000009 7.3962223800000002 O
atom 9.9706145300000006 4.2656369500000002 2.5563261399999999 O
atom 10.2973580100000000 4.2856454199999998 7.8308695899999998 O
atom 9.9763036300000003 9.5070627999999999 2.6696542499999998 O
atom 10.2846569100000007 9.4705361000000003 7.7992863300000002 O
atom 4.9626205700000003 3.3185934000000001 4.7340330899999996 O
atom 5.4886765700000000 3.4587230099999999 10.0503358100000000 O
atom 4.8478702299999998 8.3287840000000006 4.8674686999999999 O
atom 5.5412682200000001 8.5675862100000000 9.9393344799999994 O
atom 10.0426619200000005 3.3961006600000001 5.1672214800000003 O
atom 10.5892193199999998 3.3475485400000000 10.4854065700000003 O
atom 9.8597531299999996 8.5364936999999994 5.2533374100000003 O
atom 10.5340908199999994 8.5590011599999993 10.4020715100000007 O
atom 2.5859387300000001 1.4726822300000000 2.6080721499999999 O
atom 3.3531252700000000 1.3524953099999999 7.9898840900000003 O
atom 3.1025435699999999 6.5141264100000003 2.6634440599999998 O
atom 3.4007299400000002 6.4510802800000002 8.0396660499999992 O
atom 8.1931765399999996 1.3345043200000000 3.1078647600000000 O
atom 8.4490516000000007 1.3354704100000001 8.3755150000000000 O
atom 8.0786642000000004 6.4764508599999999 3.1511826100000002 O
atom 8.4763663400000002 6.4241147500000002 8.4303850499999999 O
atom 2.9732286600000002 1.2530978699999999 5.4806733300000001 O
atom 3.7962808400000001 1.3585043100000000 10.4629118099999996 O
atom 3.2528972800000000 6.3357403699999999 5.5009931700000001 O
atom 3.5886584500000001 6.3836662100000003 10.5695132300000001 O
atom 8.2153058399999992 1.2690254599999999 5.7773216900000000 O
atom 8.6755702699999997 1.2411950599999999 10.9707819999999998 O
atom 8.2489426399999992 6.3721819499999999 5.7717195099999996 O
atom 8.7200559200000001 6.3755752699999997 11.0310212599999993 O
atom 2.2992199900000001 3.8771813700000002 0.3221507300000000 O
atom 2.6373511500000002 3.9037732699999999 5.5422137500000002 O
atom 2.3988047300000002 8.9503764799999992 -0.0556026400000000 O
atom 7.4216785700000001 3.8410318399999999 0.7357110500000000 O
atom 7.7198571500000002 3.9045604500000000 5.9380892799999998 O
atom 7.4386524300000003 8.9896591600000004 0.7070863200000000 O
atom 7.5853907800000000 9.0613045999999997 5.9565057899999996 O
atom 2.4937772900000001 3.9002060099999998 2.9517085800000000 O
atom 2.8943251399999999 3.7999458200000000 8.1740476399999995 O
atom 2.2915973900000002 9.2993299100000009 2.4300123199999999 O
atom 2.7870439400000002 8.9371229900000007 7.7723523999999999 O
atom 7.5937512800000002 3.8077125500000002 3.3079795600000002 O
atom 7.9496698500000003 3.8039205800000002 8.5882732300000004 O
atom 7.5776247799999998 8.9132923500000008 3.3172180899999999 O
atom 7.9597908100000003 8.9425968400000002 8.5590295600000008 O
