lattice_vector 10.1766740000000002 0.0031220000000000 0.8475940000000000 
lattice_vector 0.0058110000000000 10.3473159999999993 -0.0085270000000000 
lattice_vector 0.8548970000000000 0.0019520000000000 10.4698189999999993 
atom 1.4889310000000000 0.1380550000000000 1.5948760000000000 La
atom 1.9568770000000000 0.2109570000000000 6.8886010000000004 Hf
atom 1.5731290000000000 5.3909079999999996 1.6051640000000000 Hf
atom 1.9408030000000001 5.4184510000000001 6.8817050000000002 Hf
atom 6.6202709999999998 0.1703700000000000 2.0464530000000001 Hf
atom 7.0627610000000001 0.2378660000000000 7.3352760000000004 Hf
atom 6.6373290000000003 5.3767930000000002 2.0504899999999999 Hf
atom 7.0622470000000002 5.4165029999999996 7.2935819999999998 Hf
atom 1.7644910000000000 2.3711810000000000 4.2861820000000002 Hf
atom 2.1827740000000002 2.4056860000000002 9.4846459999999997 Hf
atom 1.7521350000000000 7.5515759999999998 4.2720909999999996 Hf
atom 2.2033839999999998 7.5393220000000003 9.4659040000000001 Hf
atom 6.7640190000000002 2.4732470000000002 4.6213749999999996 La
atom 7.2872459999999997 2.3715109999999999 9.9281059999999997 Hf
atom 6.8158479999999999 7.5296200000000004 4.6689939999999996 Hf
atom 7.3029440000000001 7.5426200000000003 9.8923330000000007 Hf
atom 3.7736980000000000 2.7916089999999998 1.4061410000000001 Hf
atom 4.1156740000000003 2.8022900000000002 6.6850379999999996 Hf
atom 3.8172969999999999 7.9339350000000000 1.3619420000000000 Hf
atom 4.1878869999999999 7.9831909999999997 6.6214589999999998 Hf
atom 8.8622200000000007 2.8400989999999999 1.7750420000000000 Hf
atom 9.2904359999999997 2.8177599999999998 7.0632869999999999 Hf
atom 8.8236159999999995 7.9273509999999998 1.7986489999999999 Hf
atom 9.2730879999999996 8.0018890000000003 7.0354219999999996 Hf
atom 3.9147710000000000 4.9959309999999997 3.9864649999999999 Hf
atom 4.4370149999999997 4.9470219999999996 9.2396639999999994 Hf
atom 3.9708220000000001 10.1095009999999998 4.0019770000000001 Hf
atom 4.4395550000000004 10.1185460000000003 9.2196440000000006 Hf
atom 9.1299689999999991 5.0050450000000000 4.4268869999999998 Hf
atom 9.4806960000000000 4.9611650000000003 9.6414530000000003 Hf
atom 8.9962859999999996 10.1404029999999992 4.4902660000000001 Hf
atom 9.5125030000000006 10.1374089999999999 9.6729199999999995 Hf
atom 0.4532830000000000 1.9700400000000000 0.8161750000000000 O
atom 0.8789080000000000 1.7888930000000001 6.1664060000000003 O
atom 0.4565360000000000 6.9423000000000004 0.8468920000000000 O
atom 0.8354790000000000 6.9250619999999996 6.0954030000000001 O
atom 5.5504970000000000 1.7621979999999999 1.3187469999999999 O
atom 5.8346970000000002 1.7064109999999999 6.6875380000000000 O
atom 5.5536599999999998 6.9077650000000004 1.2613420000000000 O
atom 5.9288959999999999 6.8993190000000002 6.5126450000000000 O
atom 0.5484280000000000 0.8820890000000000 3.6555480000000000 O
atom 1.0806830000000001 0.8372210000000000 8.7587399999999995 O
atom 0.6732490000000000 6.0531920000000001 3.4532389999999999 O
atom 1.0526359999999999 6.0333449999999997 8.7046559999999999 O
atom 5.7430659999999998 0.6077500000000000 3.8748790000000000 O
atom 6.1936540000000004 0.8161860000000000 9.1851389999999995 O
atom 5.7341470000000001 5.9641849999999996 3.9067090000000002 O
atom 6.1693949999999997 6.0254089999999998 9.1312060000000006 O
atom 4.9094579999999999 4.2923549999999997 2.2094520000000002 O
atom 5.3200120000000002 4.3156549999999996 7.4029020000000001 O
atom 4.8355040000000002 9.5171229999999998 2.0762540000000000 O
atom 5.3241660000000000 9.4749140000000001 7.4141100000000000 O
atom 10.0250090000000007 4.3694220000000001 2.5761769999999999 O
atom 10.3838419999999996 4.3598270000000001 7.8301140000000000 O
atom 9.7327390000000005 9.4309449999999995 2.6919849999999999 O
atom 10.3913399999999996 9.5146429999999995 7.8428979999999999 O
atom 4.7663570000000002 3.4111799999999999 4.8327859999999996 O
atom 5.5557949999999998 3.4554010000000002 10.0435219999999994 O
atom 5.0460170000000000 8.5416869999999996 4.7863090000000001 O
atom 5.6145060000000004 8.6171199999999999 9.9972790000000007 O
atom 10.1910410000000002 3.4521250000000001 5.2139040000000003 O
atom 10.5864340000000006 3.4617849999999999 10.3860899999999994 O
atom 10.1887749999999997 8.6406290000000006 5.2375959999999999 O
atom 10.6516979999999997 8.6429299999999998 10.4791600000000003 O
atom 3.0999450000000000 1.4034400000000000 2.8540060000000000 O
atom 3.4037069999999998 1.3214740000000000 7.9934599999999998 O
atom 3.0336259999999999 6.4716180000000003 2.7065210000000000 O
atom 3.4420030000000001 6.5104720000000000 7.9686529999999998 O
atom 8.1751319999999996 1.2789459999999999 3.0787450000000001 O
atom 8.5406010000000006 1.3516809999999999 8.4440910000000002 O
atom 8.0897690000000004 6.5314540000000001 3.1629950000000000 O
atom 8.5283809999999995 6.5207860000000002 8.3801349999999992 O
atom 3.2047500000000002 1.2223470000000001 5.4116249999999999 O
atom 3.7553120000000000 1.3249949999999999 10.5047110000000004 O
atom 3.2022919999999999 6.4308449999999997 5.3612580000000003 O
atom 3.6715970000000002 6.3944489999999998 10.5670520000000003 O
atom 8.3478589999999997 1.2194010000000000 5.9146299999999998 O
atom 8.7515319999999992 1.2526580000000000 11.0115239999999996 O
atom 8.3219080000000005 6.4918800000000001 5.7612300000000003 O
atom 8.7517569999999996 6.4082889999999999 11.0004299999999997 O
atom 2.3358989999999999 3.9309470000000002 0.2705680000000000 O
atom 2.5860639999999999 3.9432779999999998 5.5578279999999998 O
atom 2.4479039999999999 8.9544589999999999 0.1401390000000000 O
atom 2.7062860000000000 9.0890439999999995 5.5371379999999997 O
atom 7.3648910000000001 3.9280059999999999 0.6705280000000000 O
atom 7.9332929999999999 4.0564770000000001 5.9974109999999996 O
atom 7.4043840000000003 9.0708490000000008 0.6872190000000000 O
atom 7.7739450000000003 9.0936219999999999 5.9470429999999999 O
atom 2.4871210000000001 3.8558880000000002 2.8867229999999999 O
atom 2.9360610000000000 3.8656320000000002 8.1490609999999997 O
atom 2.6221610000000002 8.8800150000000002 2.9524420000000000 O
atom 2.9325530000000000 9.0165670000000002 8.1038850000000000 O
atom 7.7457240000000001 3.9889079999999999 3.2004340000000000 O
atom 8.0183180000000007 3.8389660000000001 8.5593079999999997 O
atom 7.4793390000000004 8.9865890000000004 3.3331990000000000 O
atom 8.0479299999999991 9.0178239999999992 8.5545690000000008 O
