lattice_vector 10.0010917900000003 -0.0186592500000000 -0.0411750600000000 
lattice_vector 0.0086422500000000 10.3917133300000000 -0.0225864900000000 
lattice_vector -0.0325544200000000 -0.0243737000000000 10.0533967900000007 
atom 1.2596252900000000 0.0731770500000000 1.2573318300000000 La
atom 1.3173414000000001 0.1525746900000000 6.2700221000000003 Hf
atom 1.3172759400000000 5.3634475600000000 1.2414092999999999 Hf
atom 1.3174703299999999 5.3367171899999999 6.2514543099999997 Hf
atom 6.3324620600000001 0.1470704800000000 1.2191121800000000 Hf
atom 6.2964190999999996 0.1565179600000000 6.2425512899999998 Hf
atom 6.3142420599999998 5.3299559800000003 1.2311686300000000 Hf
atom 6.3250712000000000 5.3343293200000002 6.2722302100000000 Hf
atom 1.3302793200000000 2.4293220299999998 3.7810926800000000 Hf
atom 1.3274973600000000 2.4064668100000000 8.7438319500000006 Hf
atom 1.3306652400000001 7.6059785700000004 3.7657690900000000 Hf
atom 1.4668587399999999 7.5237723599999997 8.7142556399999993 Hf
atom 6.3133100100000004 2.4055567700000000 3.7244526699999998 Hf
atom 6.3083444999999996 2.4179313499999999 8.7713399499999998 Hf
atom 6.3043443699999999 7.5810123300000001 3.8011753800000001 Hf
atom 6.3563943299999996 7.5850773699999996 8.7631137300000006 Hf
atom 3.6326687000000000 2.7499692200000001 1.2586248099999999 Hf
atom 3.6468545699999999 2.7364644899999999 6.2533000000000003 Hf
atom 3.7089595100000001 7.9192158099999999 1.2216785400000001 Hf
atom 3.6722071199999999 7.9549344399999997 6.2257530799999996 Hf
atom 8.6373843000000008 2.7800659300000001 1.2370911899999999 Hf
atom 8.6500082000000003 2.7686965200000002 6.2297315199999996 Hf
atom 8.5389560000000007 7.8910737099999997 1.3631463100000001 Hf
atom 8.6623696700000004 7.9304468300000002 6.2547878099999998 Hf
atom 3.6354035599999999 5.0050916100000000 3.7429160200000000 Hf
atom 3.6676518599999999 4.9528617900000000 8.7917677500000000 Hf
atom 3.6520975400000002 10.2171190799999998 3.7258987900000000 Hf
atom 3.6691045799999999 10.1914356200000000 8.7469646700000006 Hf
atom 8.6469342900000008 4.9958307700000004 3.7521401999999999 Hf
atom 8.6462259499999998 4.9871827399999997 8.7797357799999993 Hf
atom 8.6115099599999994 10.1910807099999996 3.7585671500000002 Hf
atom 8.5721905100000004 10.2678682999999999 8.6603365300000004 Hf
atom 0.2683741600000000 2.0409524000000001 2.0557326499999999 O
atom 0.3633782600000000 1.9348466700000000 6.8827488499999996 O
atom 0.3544386800000000 7.1583622099999999 1.9238188300000001 O
atom 0.3739715600000000 7.0930498699999998 6.9502443300000003 O
atom 5.3774037200000002 1.8988425300000000 1.8801657300000001 O
atom 5.3362796799999996 1.8925584000000000 6.9566752799999998 O
atom 5.3443832999999996 7.0487524700000002 1.9666906900000001 O
atom 5.3542500500000001 7.0831021900000000 6.9579268499999998 O
atom 0.3401547100000000 0.6610774800000000 4.4250267299999999 O
atom 0.3026646700000000 0.6658011400000000 9.2225334399999994 O
atom 0.3493631100000000 5.8666095000000000 4.4580622200000004 O
atom 0.3024113400000000 5.9933570800000000 9.4884640299999994 O
atom 5.3458661200000002 0.6667550900000000 4.4414605600000003 O
atom 5.3917343700000000 0.6358922700000000 9.4193402299999995 O
atom 5.3207812099999998 5.8555209000000001 4.4775953099999999 O
atom 5.3520548799999998 5.8579423200000003 9.4683637500000000 O
atom 4.6361147400000000 4.4798945699999999 1.9415598999999999 O
atom 4.6408644600000004 4.4717845699999996 6.9704759799999998 O
atom 4.6141115399999997 9.7270817399999991 1.8661657400000000 O
atom 4.6366171899999999 9.6861442899999997 6.9392161600000000 O
atom 9.5864757399999991 4.5724660300000002 1.8947029099999999 O
atom 9.6409562700000002 4.4930774700000002 6.9689578000000001 O
atom 9.3817191799999993 9.6150640400000000 1.9769291700000000 O
atom 9.6078468899999994 9.6745324200000002 6.9011166199999998 O
atom 4.6172944100000004 3.2543789599999999 4.4330019800000002 O
atom 4.6420992999999999 3.2647988799999998 9.4889248300000002 O
atom 4.6468601999999999 8.4846528600000006 4.4644282100000003 O
atom 4.7357803000000001 8.4828188099999995 9.5001190500000003 O
atom 9.6321429799999994 3.2952271700000000 4.4528683800000000 O
atom 9.6501399800000005 3.2804839900000000 9.4744181699999999 O
atom 9.6193599400000007 8.4326489999999996 4.4242122699999999 O
atom 2.7986990600000001 1.3268243500000001 2.5727780500000001 O
atom 2.6896447600000002 1.1858807899999999 7.4944087100000001 O
atom 2.6689968799999999 6.3605107399999996 2.4720901000000000 O
atom 2.7104710299999999 6.3783416500000003 7.5044344699999996 O
atom 7.6589992999999996 1.1930444200000001 2.4827390999999999 O
atom 7.6709213099999998 1.2229764100000000 7.4715665700000002 O
atom 7.6559270599999998 6.3863304200000002 2.5158700700000001 O
atom 7.7064064700000001 6.3861338900000000 7.5097246899999996 O
atom 2.6741071900000000 1.3464893800000000 5.0263749300000002 O
atom 2.7455831100000001 1.3866396100000000 9.9483319500000000 O
atom 2.6915200100000001 6.5591449500000003 4.9953897400000002 O
atom 2.7341902500000002 6.4725974400000004 10.0144456599999998 O
atom 7.6700508699999999 1.3723736799999999 4.9896578299999996 O
atom 7.6878063699999997 1.3661352899999999 10.0016756099999995 O
atom 7.6922916700000004 6.5321835300000002 5.0066455500000000 O
atom 7.6881530199999997 6.5356379999999996 10.0307656200000004 O
atom 2.2956640799999999 3.9662015899999998 5.0014708199999998 O
atom 2.2613737299999999 3.9464045300000001 10.0231459300000001 O
atom 2.2824413799999999 9.1666697599999996 4.9812571900000000 O
atom 2.3664247899999999 8.9823746999999994 9.8974925099999993 O
atom 7.2711216299999997 3.9555967900000000 4.9870201500000002 O
atom 7.2676091700000001 3.9567550900000001 10.0067462599999999 O
atom 7.2834806900000002 9.1314320099999993 5.0083319900000003 O
atom 7.4510310300000002 9.1079313800000001 10.0095341300000005 O
atom 2.2552956000000002 3.8302842899999998 2.4854831300000000 O
atom 2.2961678000000001 3.7939354100000000 7.5032777399999997 O
atom 2.4453633300000002 8.8654808400000000 2.5549505600000000 O
atom 2.3037877000000000 8.9877048399999993 7.4529824400000004 O
atom 7.2819105300000002 3.8063633499999998 2.4812046099999998 O
atom 7.2950538600000003 3.7978942700000000 7.5053033300000003 O
atom 7.1237513300000002 8.9738183199999995 2.5040193600000000 O
atom 7.2700445399999998 8.9984216000000004 7.4926735400000002 O
