lattice_vector 9.8940206499999999 -0.0329516100000000 0.1130622900000000 
lattice_vector -0.0263227700000000 10.4166016100000007 -0.2010938700000000 
lattice_vector 0.0242559800000000 -0.1249233000000000 9.9593854499999992 
atom 1.2099225499999999 0.3735732300000000 1.1156178699999999 Si
atom 1.3462393200000000 0.1353856800000000 6.2426455100000000 Hf
atom 1.2652692900000000 5.3756000999999998 1.1253910800000000 Hf
atom 1.2908973900000000 5.2622522199999997 6.0898516300000001 Hf
atom 6.2258215999999997 0.1500593700000000 1.2831303500000000 Hf
atom 6.2507864299999998 0.0371771700000000 6.2468002299999998 Hf
atom 6.1439958299999997 5.5664135400000001 1.0714744800000000 Si
atom 6.2800001999999999 5.3272811200000003 6.1985086699999998 Hf
atom 1.3721743399999999 2.3114062500000001 3.6410597800000000 Hf
atom 1.3219562100000000 2.4205448600000001 8.7169041800000002 Hf
atom 1.3414619299999999 7.5046689200000003 3.6767069299999999 Hf
atom 1.3068890399999999 7.5907257000000001 8.5392551700000006 Hf
atom 6.3017773300000002 2.2799375000000000 3.8337624099999998 Hf
atom 6.2673280000000000 2.3654910000000000 8.6961271599999996 Hf
atom 6.3058244600000002 7.5033186399999998 3.5971880399999998 Hf
atom 6.2554445699999999 7.6126820999999998 8.6723292900000004 Hf
atom 3.8349584200000000 2.8185579199999999 1.0887936199999999 Hf
atom 3.6434515400000000 2.7157190899999999 6.1898864199999997 Hf
atom 3.6377446400000002 7.9021095700000004 1.1249691399999999 Hf
atom 3.6410155799999999 7.9211640599999997 6.1253042500000001 Hf
atom 8.5982780400000003 2.6771677700000001 1.2821001100000000 Hf
atom 8.6015508700000005 2.6962938799999998 6.2823791699999996 Hf
atom 8.7681098599999991 8.0103270200000001 1.0451329700000000 Hf
atom 8.5773064100000003 7.9074950700000004 6.1459894899999998 Hf
atom 3.6996121600000000 4.9441304700000002 3.6395174099999998 Hf
atom 3.6201494900000002 5.0320542300000000 8.6083296899999997 Hf
atom 3.5539162800000001 10.1027055200000007 3.5460634799999999 Hf
atom 3.5028341400000000 10.2091303999999994 8.6607650799999991 Hf
atom 8.5142277600000007 4.8779004500000003 3.7030926100000001 Hf
atom 8.4627947999999993 4.9839037800000003 8.8175896300000005 Hf
atom 8.6331751600000004 10.1362955100000001 3.5962363900000001 Hf
atom 8.5539777699999995 10.2238785500000002 8.5644270000000002 Hf
atom 0.3919095000000000 1.8313046399999999 1.8221851300000000 O
atom 0.3141418200000000 1.8254049299999999 7.0002665700000000 O
atom 0.2671568700000000 7.0512769999999998 1.9226769500000001 O
atom 0.3551108000000000 7.0642324800000003 6.7615573800000002 O
atom 5.2277720700000003 1.8262338400000000 2.0797852899999998 O
atom 5.3152786399999998 1.8393790600000000 6.9185549899999996 O
atom 5.3258680399999996 7.0239060899999997 1.7779974000000001 O
atom 5.2479902000000003 7.0173948399999997 6.9556877899999998 O
atom 0.3668832200000000 0.6488283000000000 4.4844380900000003 O
atom 0.3362564000000000 0.6398884100000000 9.5468883400000006 O
atom 0.3327468400000000 5.7825745700000004 4.3317723600000004 O
atom 0.2071122300000000 5.9644370999999996 9.4250857299999993 O
atom 5.2929499499999997 0.5577655900000000 4.4885182099999996 O
atom 5.1675341899999996 0.7396657900000000 9.5825465899999998 O
atom 5.3007611099999998 5.8407241699999997 4.4403202400000001 O
atom 5.2700337199999998 5.8321212700000000 9.5029564200000003 O
atom 4.9009829900000002 4.5509177999999997 1.7839365700000001 O
atom 4.6038174500000002 4.4608234900000001 6.8669111100000002 O
atom 4.6881433799999996 9.5842378799999999 1.8721290399999999 O
atom 4.5734323100000003 9.6611490300000007 6.8665914600000004 O
atom 9.6489298600000009 4.3590194899999997 2.0295330800000002 O
atom 9.5337173100000001 4.4362334099999998 7.0236005900000000 O
atom 9.8345691899999998 9.7425986499999997 1.7400684000000000 O
atom 9.5378045900000004 9.6527651700000003 6.8228968099999996 O
atom 4.6564461499999998 3.2434340800000001 4.4383083499999998 O
atom 4.5679763500000004 3.2641183200000001 9.2433350099999991 O
atom 4.6602290399999999 8.4026517599999995 4.3864967999999998 O
atom 4.5321889200000003 8.4880265999999995 9.3020536000000007 O
atom 9.6204389900000002 3.1776500400000001 4.5433670900000003 O
atom 9.4925638299999999 3.2630602999999998 9.4591009800000005 O
atom 9.5899212100000000 8.4351403200000004 4.3942507600000003 O
atom 9.5013431799999992 8.4558281900000001 9.1997660299999993 O
atom 2.3392507800000000 0.7232640700000000 2.4441481700000001 O
atom 2.6795327599999998 1.1774799499999999 7.5154758299999997 O
atom 2.6681178299999999 6.1851126499999998 2.3323532800000000 O
atom 2.6293666299999998 6.3518163599999999 7.3410049099999997 O
atom 7.6286615299999996 0.9602957900000000 2.4894487399999998 O
atom 7.5895366299999996 1.1266404600000000 7.4978478600000003 O
atom 7.2736246099999997 5.9157612600000000 2.3999081000000002 O
atom 7.6132223500000000 6.3692136899999996 7.4715299399999999 O
atom 2.7121305000000002 1.3172810300000000 4.9340413700000001 O
atom 2.5499334999999999 1.3604735500000000 10.0690004799999997 O
atom 2.7181640900000001 6.4834948099999998 4.8642625600000002 O
atom 2.6004886500000000 6.5709469699999996 9.8047086599999993 O
atom 7.6784289200000000 1.2585886600000000 5.0214294099999996 O
atom 7.5610938299999999 1.3457407900000000 9.9618758599999992 O
atom 7.6456542499999998 6.5092086199999999 4.8902682799999999 O
atom 7.4826804400000002 6.5522735699999997 10.0253836199999995 O
atom 2.3166233300000001 3.9056554600000002 4.8705950199999997 O
atom 2.2982729700000002 3.9756919000000002 9.8523392199999993 O
atom 2.2773020800000001 9.1102984500000002 4.9098061099999999 O
atom 2.1395748399999999 9.3189785199999999 10.0307927100000001 O
atom 7.2375904499999999 3.8855214700000000 5.0668389100000004 O
atom 7.0999248200000000 4.0941809800000000 10.1878169799999991 O
atom 7.2501599399999996 9.0974285399999992 4.8265119800000003 O
atom 7.2316565700000002 9.1675349599999993 9.8079288499999997 O
atom 2.5122821700000002 3.5725378000000001 2.3973844700000000 O
atom 2.2609473800000002 3.7522124099999998 7.3887204799999999 O
atom 2.4906687199999999 8.6427723299999997 2.5211302199999999 O
atom 2.2534207199999998 8.9913378900000005 7.4010341300000002 O
atom 7.4514226499999996 3.4176733100000001 2.6783557800000000 O
atom 7.2137870399999997 3.7660475000000000 7.5580481900000001 O
atom 7.4449643800000000 8.7653050900000000 2.3528583900000002 O
atom 7.1946426499999996 8.9441155000000006 7.3442794100000004 O
