lattice_vector 10.0439358500000004 0.0248334100000000 -0.1691586200000000 
lattice_vector 0.0346248400000000 10.2506201400000005 0.0652665100000000 
lattice_vector -0.0645634900000000 0.0344846100000000 10.4445226200000008 
atom 1.0459318799999999 0.2959615000000000 2.2241215699999999 Si
atom 1.3336190200000000 0.2810251700000000 6.9472437400000002 Hf
atom 1.4171247400000000 5.3515528300000001 1.7767000700000000 Hf
atom 1.3865004999999999 5.3226253999999997 7.0324548299999998 Hf
atom 1.3721887300000000 2.4474047900000002 4.3770654200000001 Hf
atom 1.4376969100000001 2.3116542999999998 9.6650727599999993 Hf
atom 1.4029445599999999 7.5293708300000004 4.3275157699999998 Hf
atom 1.3873139299999999 7.5225659800000004 9.6071966799999995 Hf
atom 3.6105912000000000 2.7677493399999999 1.7191542099999999 Hf
atom 3.5961249000000000 2.7872441499999998 6.9699202199999997 Hf
atom 3.6077316200000000 7.9636747899999998 1.6834104900000000 Hf
atom 3.4940666100000000 7.9751536800000000 6.9447445999999999 Hf
atom 3.6066969400000000 4.9707303999999999 4.3550657499999996 Hf
atom 3.6042024499999998 4.9258823100000004 9.6009865600000008 Hf
atom 3.6067613100000000 10.0966538099999994 4.3214626200000001 Hf
atom 3.6167163200000001 10.0769254499999992 9.5994181699999999 Hf
atom 6.4351271199999998 0.2419929900000000 0.7211858300000000 Hf
atom 6.3511655700000000 0.2170742900000000 5.9634266399999998 Hf
atom 6.4481515900000002 5.3601922399999999 0.7543030700000000 Hf
atom 6.3991433500000001 5.2314499100000003 5.9204073900000003 Hf
atom 6.3918955100000003 2.3608900400000001 3.3401193600000001 Hf
atom 6.3883004799999998 2.3752234099999998 8.5778493299999994 Hf
atom 6.3801642599999999 7.4949994400000000 3.3606552800000000 Hf
atom 6.3713113000000003 7.5945898200000004 8.7337696299999994 Hf
atom 8.7399071599999996 2.7510986800000001 0.7588132400000001 Hf
atom 8.6275784699999996 2.7860586299999999 5.9519950100000001 Hf
atom 8.7542479100000001 7.9635074899999996 0.7722111400000000 Hf
atom 8.6812114600000001 7.7909391100000001 6.1230962900000003 La
atom 8.6568088900000006 4.9474752999999998 3.3075234000000000 Hf
atom 8.6039630500000008 4.9197933300000001 8.5996459299999994 Hf
atom 8.5692255700000004 10.0218008500000000 3.4357159799999999 Hf
atom 8.6656801199999993 10.1454226199999997 8.6136367000000007 Hf
atom 0.5704645100000000 1.5557149500000000 1.1076549800000000 O
atom 0.3885325400000000 1.8890400500000000 6.1725051100000004 O
atom 0.4179664200000000 6.8877665400000003 0.9305214400000000 O
atom 0.6651320100000000 6.9032471099999997 6.1104172900000000 O
atom 0.2788032700000000 0.8248546500000000 3.6261339299999999 O
atom 0.3520054900000000 0.8741662400000000 8.7853165799999999 O
atom 0.3602215500000000 5.9548815900000003 3.5350188800000000 O
atom 0.2521290300000000 6.0251454700000000 8.7002161099999995 O
atom 4.7259955099999997 4.2515559800000000 0.8210132200000000 O
atom 4.6441013399999997 4.3177211700000004 6.0756234600000001 O
atom 4.7921296199999999 9.3723410699999992 0.8114621400000001 O
atom 4.6610176699999997 9.3540490300000005 6.0239024600000004 O
atom 4.6841714000000003 3.4536427100000000 3.4420677300000002 O
atom 4.6784081799999999 3.4596516099999999 8.6381170100000002 O
atom 4.6016203000000004 8.5879388500000005 3.4094310800000001 O
atom 4.6113836499999996 8.5314102500000004 8.6133232100000008 O
atom 2.5213841900000000 1.2730488600000001 2.8907155800000002 O
atom 2.7409023399999999 1.2803872100000000 8.1869029100000006 O
atom 2.7586202900000001 6.4862089899999997 3.0192622999999998 O
atom 2.7425479199999998 6.4095454700000003 8.2674601499999998 O
atom 3.0539200300000000 1.4340388799999999 0.2497123900000000 O
atom 2.7642125100000001 1.3605847000000000 5.5616113800000004 O
atom 2.7986907300000001 6.3822903400000000 0.4295222400000000 O
atom 2.9456764500000001 6.4741585199999996 5.6314296099999996 O
atom 2.2551209600000002 3.8754990399999998 3.0743398300000000 O
atom 2.2230014599999999 3.8154075399999998 8.3142591299999999 O
atom 2.1083763900000001 9.1712501199999998 2.8902238499999999 O
atom 2.1762783200000002 8.9753487500000002 8.2114231800000006 O
atom 2.2470033100000002 3.8816882000000001 0.4735168200000000 O
atom 2.2182778399999998 3.9206475300000001 5.6649783899999999 O
atom 2.3943783800000000 8.9244136699999999 0.3070952400000000 O
atom 2.2078552700000000 9.0793652399999996 5.5885364400000004 O
atom 5.3573777600000003 1.6985710800000000 1.6681374899999999 O
atom 5.3083775500000003 1.7198730000000000 6.8695726099999996 O
atom 5.3470887700000000 6.8352276500000002 1.6741569700000001 O
atom 5.2848639400000001 0.9066778599999999 4.2536428500000003 O
atom 5.3827064599999996 0.8423874000000000 9.4376227099999994 O
atom 5.3057850699999998 6.0632884400000000 4.3420102099999998 O
atom 5.3091821699999997 6.0394456400000003 9.5130769900000001 O
atom 9.7294511499999992 4.3046368499999996 1.5769397900000000 O
atom 9.5969948400000007 4.4301594800000004 6.7761657000000000 O
atom 9.8154420600000005 9.5509337599999995 1.6601205200000000 O
atom 9.6440674099999999 9.6975378699999997 6.8359483599999997 O
atom 9.6396957499999996 3.4095436100000001 4.1746680600000001 O
atom 9.6998641400000007 3.4105482600000001 9.4955289300000008 O
atom 9.7143699699999999 8.5320435900000007 4.0896406100000000 O
atom 9.6617506100000003 8.5605468600000005 9.4131438999999997 O
atom 7.8010464400000004 1.3280291900000001 9.9004111800000008 O
atom 7.7547915600000001 1.2743482900000001 4.6786327400000003 O
atom 7.8105520300000002 6.4454814300000001 9.9518508699999995 O
atom 7.7107210000000004 6.2954799100000001 4.6033789399999998 O
atom 7.8148205700000002 1.3141396800000000 2.0582636900000000 O
atom 7.7580049400000002 1.3461092200000000 7.2644848499999997 O
atom 7.8101293900000002 6.4678808999999999 2.0529036299999999 O
atom 7.3336430699999999 6.2979491000000003 7.4278533400000004 O
atom 7.2582671599999999 3.8609083800000001 9.9244528699999996 O
atom 7.2328156500000000 3.8133178600000002 4.6853738600000003 O
atom 7.2908924099999997 9.0176574899999995 9.9868108699999993 O
atom 7.1523512299999998 9.0080497099999999 4.6514161700000001 O
atom 7.3073763999999999 3.8565291700000000 2.0582963300000001 O
atom 7.2756337400000000 3.8083466600000002 7.2856419299999997 O
atom 7.3359218899999998 8.9968365299999995 2.0902091800000000 O
atom 7.1354420899999997 9.0985030299999998 7.4547519199999996 O
