lattice_vector 10.0569810000000004 -0.0069880000000000 -0.0131830000000000 
lattice_vector 0.0065120000000000 10.4215809999999998 -0.0137180000000000 
lattice_vector -0.0615530000000000 -0.0293020000000000 10.0701739999999997 
atom 1.2195419999999999 0.0617250000000000 1.2165470000000000 La
atom 1.1888890000000001 0.0470270000000000 6.2517889999999996 La
atom 1.3506410000000000 5.3786329999999998 1.2509550000000000 Hf
atom 1.3198110000000001 5.3641940000000004 6.2861370000000001 Hf
atom 6.3707430000000000 0.1621690000000000 1.2565620000000000 Hf
atom 6.3400780000000001 0.1474980000000000 6.2916809999999996 Hf
atom 6.3552350000000004 5.3536149999999996 1.2545610000000000 Hf
atom 6.3245670000000000 5.3390409999999999 6.2896939999999999 Hf
atom 1.3347329999999999 2.4700160000000002 3.7413799999999999 Hf
atom 1.3038529999999999 2.4552879999999999 8.7764910000000000 Hf
atom 1.3637490000000001 7.6137059999999996 3.7851260000000000 Hf
atom 1.3329029999999999 7.5990050000000000 8.8202599999999993 Hf
atom 6.3530860000000002 2.4177830000000000 3.7592629999999998 Hf
atom 6.3222280000000000 2.4031150000000001 8.7944779999999998 Hf
atom 6.3566750000000001 7.6004870000000002 3.7826830000000000 Hf
atom 6.3259150000000002 7.5859629999999996 8.8179999999999996 Hf
atom 3.6793309999999999 2.7644750000000000 1.2541450000000001 Hf
atom 3.6485870000000000 2.7498230000000001 6.2893530000000002 Hf
atom 3.7245020000000002 7.9452290000000003 1.2303510000000000 Hf
atom 3.6938140000000002 7.9306400000000004 6.2656070000000001 Hf
atom 8.6569800000000008 2.8080840000000000 1.2443010000000001 Hf
atom 8.6262120000000007 2.7934820000000000 6.2796029999999998 Hf
atom 8.6647580000000008 7.9280320000000000 1.2640600000000000 Hf
atom 8.6336639999999996 7.9133920000000000 6.2991169999999999 Hf
atom 3.6613989999999998 5.0095029999999996 3.7706149999999998 Hf
atom 3.6306959999999999 4.9948110000000003 8.8056839999999994 Hf
atom 3.7125249999999999 10.2350809999999992 3.7273770000000002 Hf
atom 3.6816970000000002 10.2203470000000003 8.7623940000000005 Hf
atom 8.6961610000000000 5.0242860000000000 3.7804240000000000 Hf
atom 8.6653970000000005 5.0095929999999997 8.8154939999999993 Hf
atom 8.6142900000000004 10.2137170000000008 3.7779330000000000 Hf
atom 8.5835749999999997 10.1990879999999997 8.8127469999999999 Hf
atom 0.3321540000000000 2.1316269999999999 1.9251810000000000 O
atom 0.3015780000000000 2.1170719999999998 6.9601309999999996 O
atom 0.3627750000000000 7.1503370000000004 1.9663280000000001 O
atom 0.3319940000000000 7.1358329999999999 7.0013420000000002 O
atom 5.4107510000000003 1.9184319999999999 1.9181690000000000 O
atom 5.3799609999999998 1.9036960000000001 6.9535520000000002 O
atom 5.3893339999999998 7.0805480000000003 1.9696689999999999 O
atom 5.3586410000000004 7.0658989999999999 7.0049619999999999 O
atom 0.3043380000000000 0.7337810000000000 4.1269700000000000 O
atom 0.2736760000000000 0.7189060000000000 9.1620349999999995 O
atom 0.3262440000000000 5.9162410000000003 4.4833189999999998 O
atom 0.2956850000000000 5.9014230000000003 9.5184449999999998 O
atom 5.4083470000000000 0.6651550000000001 4.4437040000000003 O
atom 5.3774579999999998 0.6504830000000000 9.4788289999999993 O
atom 5.3435069999999998 5.8800660000000002 4.4949190000000003 O
atom 5.3127529999999998 5.8654180000000000 9.5301100000000005 O
atom 4.6751180000000003 4.4967540000000001 1.9640690000000001 O
atom 4.6445759999999998 4.4821169999999997 6.9991680000000001 O
atom 4.6700910000000002 9.7370950000000001 1.9110990000000001 O
atom 4.6395160000000004 9.7225640000000002 6.9463160000000004 O
atom 9.6692479999999996 4.5793999999999997 1.9470270000000001 O
atom 9.6385719999999999 4.5646160000000000 6.9825020000000002 O
atom 9.4113729999999993 9.6509630000000008 2.0125139999999999 O
atom 9.3808539999999994 9.6360299999999999 7.0475490000000001 O
atom 4.6666509999999999 3.2839920000000000 4.4635129999999998 O
atom 4.6357410000000003 3.2691680000000001 9.4987680000000001 O
atom 4.7400169999999999 8.5084149999999994 4.4919589999999996 O
atom 4.7090660000000000 8.4936349999999994 9.5270550000000007 O
atom 9.6790819999999993 3.3205260000000001 4.4782419999999998 O
atom 9.6481790000000007 3.3057650000000001 9.5135780000000008 O
atom 9.7718989999999994 8.5631050000000002 4.5779589999999999 O
atom 9.7409490000000005 8.5482759999999995 9.6133380000000006 O
atom 2.8250540000000002 1.3194020000000000 2.5513219999999999 O
atom 2.7941900000000000 1.3049320000000000 7.5864079999999996 O
atom 2.7063649999999999 6.3818039999999998 2.4971009999999998 O
atom 2.6755710000000001 6.3672680000000001 7.5322440000000004 O
atom 7.7188150000000002 1.2248559999999999 2.5110090000000000 O
atom 7.6881079999999997 1.2101999999999999 7.5461869999999998 O
atom 7.7359859999999996 6.4096529999999996 2.4922350000000000 O
atom 7.7052459999999998 6.3950849999999999 7.5274369999999999 O
atom 2.7461229999999999 1.4010929999999999 4.9646999999999997 O
atom 2.7153410000000000 1.3864019999999999 9.9997170000000004 O
atom 2.7023880000000000 6.5412770000000000 5.0219250000000004 O
atom 2.6717339999999998 6.5264009999999999 10.0571579999999994 O
atom 7.7261519999999999 1.3674059999999999 5.0320289999999996 O
atom 7.6955320000000000 1.3526130000000001 10.0668009999999999 O
atom 7.7148659999999998 6.5443379999999998 5.0011749999999999 O
atom 7.6841080000000002 6.5296890000000003 10.0362860000000005 O
atom 2.2974329999999998 3.9831059999999998 5.0154690000000004 O
atom 2.2667020000000000 3.9685210000000000 10.0502490000000009 O
atom 2.4362370000000002 9.0764589999999998 4.9275760000000002 O
atom 2.4052120000000001 9.0619920000000000 9.9625710000000005 O
atom 7.3036070000000004 3.9739409999999999 5.0096540000000003 O
atom 7.2728229999999998 3.9592040000000002 10.0447080000000000 O
atom 7.3260850000000000 9.1345569999999991 5.0505459999999998 O
atom 7.2954580000000000 9.1198809999999995 10.0854789999999994 O
atom 2.2989809999999999 3.8493919999999999 2.4834670000000001 O
atom 2.2681460000000002 3.8347940000000000 7.5184629999999997 O
atom 2.4405070000000002 8.9039260000000002 2.5320200000000002 O
atom 2.4096820000000001 8.8891609999999996 7.5672050000000004 O
atom 7.3258020000000004 3.8313890000000002 2.5071979999999998 O
atom 7.2950730000000004 3.8167170000000001 7.5423950000000000 O
atom 7.2124360000000003 9.0124279999999999 2.5284380000000000 O
atom 7.1819290000000002 8.9976439999999993 7.5635289999999999 O
