lattice_vector 10.0703071600000005 0.0142767700000000 0.7795101800000001 
lattice_vector 0.0148670000000000 10.2428216499999998 0.0054902000000000 
lattice_vector 0.8260419100000000 -0.0513282900000000 10.4251944200000004 
atom 1.3799327500000000 0.1294685300000000 1.8563953900000001 Si
atom 1.8937814200000000 0.1860624400000000 6.8064174399999997 Hf
atom 1.5473475299999999 5.3505764300000003 1.6545825599999999 Hf
atom 1.9213616600000001 5.2921556100000000 6.8502380000000000 Hf
atom 6.5515479200000000 0.2365732600000000 2.0112976599999999 Hf
atom 6.9575111800000000 0.1790471900000000 7.2570380400000003 Hf
atom 6.6502283400000000 5.2918623199999999 1.8945650900000000 Hf
atom 6.9532808900000003 5.2947775200000002 7.2287022500000004 Hf
atom 1.7544729699999999 2.3641254500000000 4.1618535899999998 Hf
atom 2.2155344000000001 2.2480080700000000 9.4480638700000004 Hf
atom 1.6437357800000001 7.4850652100000001 4.2523052999999997 Hf
atom 2.1273339199999999 7.4243462200000003 9.4499232499999994 Hf
atom 6.7807418899999998 2.3006641999999999 4.6338830499999997 Hf
atom 7.1862699699999997 2.3119486199999999 9.8476706299999996 Hf
atom 6.8281485999999996 7.5238573000000004 4.6136034500000003 Hf
atom 7.1394063200000000 7.4430653099999997 9.8788561799999997 Hf
atom 3.7217338500000001 2.7884643900000001 1.3448611399999999 Hf
atom 4.1351161899999997 2.7206649899999999 6.5746484199999999 Hf
atom 3.6588206400000001 8.0088773999999994 1.3794124900000000 Hf
atom 4.1172067700000001 7.8596062499999997 6.5944310000000002 Hf
atom 8.9111769299999999 2.6957536200000001 1.7822031199999999 Hf
atom 9.1822762299999994 2.7342247500000001 6.9727420100000002 Hf
atom 8.8098690200000007 7.9446997300000000 1.7678947800000000 Hf
atom 9.1400326700000001 7.8534456900000000 7.0216831700000002 Hf
atom 4.1738200900000004 5.1093279200000001 4.0754661399999996 La
atom 4.3427955499999999 4.8790949000000001 9.1958311399999992 Hf
atom 3.9195552199999999 10.0146936699999998 3.9423860300000002 Hf
atom 4.3463994899999996 10.0521902099999991 9.2201183499999999 Hf
atom 8.9543411499999994 4.8820701599999996 4.3707329399999999 Hf
atom 9.4214802399999993 4.8307659500000000 9.5904513500000004 Hf
atom 8.9907387199999995 10.0456334500000004 4.3795348699999996 Hf
atom 9.4014012099999995 10.0060135500000005 9.5899517799999998 Hf
atom 0.6297075300000000 1.4909925900000001 0.9157536400000000 O
atom 0.8128743100000000 1.6410821400000000 5.9785804000000002 O
atom 0.4145858600000000 6.8290106499999998 0.8472798900000000 O
atom 0.7119099800000001 6.7399799700000003 6.0626978999999999 O
atom 5.4896883499999998 1.7416404500000000 1.2497569300000000 O
atom 5.9042977600000004 1.6796979100000000 6.4969280600000001 O
atom 5.4582605400000004 6.8643597800000000 1.3084411100000000 O
atom 5.7371224400000003 6.6136717300000001 6.1983591699999998 O
atom 0.6600210600000000 0.7916743000000001 3.3644564699999999 O
atom 1.0360724600000000 0.8191245400000000 8.6330394199999994 O
atom 0.5855264900000000 5.9616951599999997 3.4573650800000002 O
atom 1.0481353400000000 5.9383627600000004 8.6793503899999997 O
atom 5.6939118600000000 0.7556906100000000 3.8705589400000000 O
atom 6.1299355300000000 0.7663953400000000 9.0793991999999992 O
atom 6.0352635599999997 6.0140751999999997 8.9869585700000005 O
atom 4.9482147899999998 4.2867453700000002 2.0405803900000001 O
atom 5.2261534200000002 4.2369546400000004 7.3556204699999999 O
atom 4.8314683000000000 9.4186885900000004 2.1520695700000001 O
atom 5.2607578999999998 9.3298616800000005 7.3537348700000003 O
atom 9.8868430400000005 4.2672699999999999 2.5607217300000000 O
atom 10.2856063500000001 4.2011636200000000 7.7986599900000000 O
atom 9.9990453200000005 9.4189566399999993 2.5752012400000002 O
atom 10.2738714000000009 9.3437378100000004 7.7795119000000001 O
atom 5.0514173400000004 3.2076677199999999 4.7734951499999996 O
atom 5.5325505100000001 3.4516972199999998 9.9641710499999991 O
atom 4.9642105299999999 8.3589282399999991 4.6280500099999999 O
atom 5.3745686700000004 8.4886426299999993 9.9911897100000004 O
atom 10.0551081399999998 3.3760482900000000 5.1316943200000003 O
atom 10.5709238200000009 3.3468390700000001 10.4361142099999995 O
atom 10.0038339700000005 8.5336099900000004 5.1997917100000004 O
atom 10.4931410899999999 8.5176721299999993 10.3976048799999994 O
atom 2.8342976300000000 1.1855198400000000 2.5103191900000001 O
atom 3.3762996799999998 1.2361494099999999 7.8411338900000001 O
atom 2.8734353499999998 6.6031559700000004 2.7084047500000001 O
atom 3.3979501800000000 6.4010120400000003 7.9487333199999997 O
atom 8.0442997399999996 1.3041076599999999 3.1126765900000000 O
atom 8.4525256399999993 1.2935178700000001 8.3298344499999999 O
atom 7.9395305100000000 6.4586310300000003 3.1207076100000002 O
atom 8.4052640600000004 6.3903190099999998 8.3455747299999992 O
atom 3.1833935599999998 1.2348086199999999 5.2271532799999996 O
atom 3.8580046200000000 1.4422644600000001 10.3033407900000000 O
atom 2.9951043700000000 6.4742314399999996 5.4566962300000004 O
atom 3.5978485800000000 6.4005299100000004 10.5470284900000006 O
atom 8.2457422800000000 1.1865993300000000 5.7335895600000004 O
atom 8.6801157300000007 1.1946179900000000 10.9479678899999993 O
atom 8.1861468899999998 6.3432722799999999 5.7250186999999997 O
atom 8.6692360500000003 6.3336422900000002 10.9064198099999992 O
atom 2.2877558800000002 3.9574267200000000 0.2704010700000000 O
atom 2.6292510899999999 3.8192286300000000 5.5540035300000001 O
atom 2.2334013000000001 9.3759305800000003 0.4757913100000000 O
atom 2.7008442000000001 9.0097467699999996 5.4969032899999997 O
atom 7.4214564500000000 3.8423692800000002 0.6550123500000000 O
atom 7.7185429599999997 3.8464615800000002 5.8851841000000000 O
atom 7.3067160600000003 9.0207276499999995 0.6873210700000000 O
atom 7.6484937899999998 8.9512729699999998 5.8878276200000004 O
atom 2.4921447300000001 3.7675703999999999 2.8357471699999999 O
atom 2.9071634500000001 3.7421138200000001 8.1214509899999996 O
atom 2.3206448599999998 9.0377924400000005 2.8848449700000001 O
atom 2.8871625299999999 8.8785437300000005 8.1492037499999999 O
atom 7.5266848000000000 3.7767579499999999 3.2590053499999998 O
atom 7.9194241099999996 3.7718035200000002 8.4898847800000006 O
atom 7.5940916900000000 8.9468018600000008 3.2660065999999999 O
atom 7.9155983900000004 8.8753532699999997 8.5247778200000006 O
