lattice_vector 10.1029322700000002 -0.0251119100000000 -0.0051785000000000 
lattice_vector 0.0239864700000000 10.0039129599999992 0.0182294600000000 
lattice_vector 0.0037866800000000 -0.0167731400000000 9.9860383200000005 
atom 1.2611524300000001 -0.0053915700000000 1.2572208300000001 Si
atom 1.2630592300000001 -0.0138258300000000 6.2502282899999999 Si
atom 1.2728219999999999 4.9971280599999996 1.2658209300000001 Hf
atom 1.2748545899999999 4.9885526300000000 6.2589896100000004 Hf
atom 6.3124494300000000 -0.0178301500000000 1.2542007200000000 Hf
atom 6.3144915099999999 -0.0262742000000000 6.2472240200000000 Hf
atom 6.3246143500000001 4.9840076099999999 1.2634644700000000 Hf
atom 6.3267106699999998 4.9755850300000004 6.2565102399999999 Hf
atom 1.2681462699999999 2.4808100600000000 3.7578635000000000 Hf
atom 1.2700575500000000 2.4723468000000000 8.7508785299999996 Hf
atom 1.2803765700000000 7.5040417100000001 3.7671399200000000 Hf
atom 1.2824066100000000 7.4956024299999999 8.7601129600000007 Hf
atom 6.3193736600000001 2.5088938600000001 3.7555793600000000 Hf
atom 6.3214135300000001 2.5004873100000000 8.7484678999999996 Hf
atom 6.3317656700000002 7.4507004500000003 3.7644199600000001 Hf
atom 6.3337493699999996 7.4421757099999999 8.7573367199999996 Hf
atom 3.7684579899999999 2.4636584600000000 1.3234113599999999 Hf
atom 3.7703566899999998 2.4552598699999999 6.3164968000000004 Hf
atom 3.7812049900000000 7.5161272400000003 1.2056576299999999 Hf
atom 3.7830582200000000 7.5078375599999996 6.1986179200000002 Hf
atom 8.8689186099999997 2.4511851000000000 1.1937369400000000 Hf
atom 8.8707431299999993 2.4426965200000001 6.1867470899999999 Hf
atom 8.8809700800000009 7.5037644800000001 1.3302390799999999 Hf
atom 8.8829132400000006 7.4954358299999999 6.3231791099999999 Hf
atom 3.8122857699999999 -0.0161835600000000 3.7517059900000000 Hf
atom 3.8142369600000001 -0.0247378700000000 8.7448769800000008 Hf
atom 3.7939341400000002 4.9859216100000001 3.7610765900000001 Hf
atom 3.7959544599999999 4.9769663700000004 8.7541302000000005 Hf
atom 8.8147937899999995 -0.0284858200000000 3.7491253400000000 Hf
atom 8.8168671500000002 -0.0369425500000000 8.7423396800000006 Hf
atom 8.8570146500000000 4.9732178400000002 3.7586049600000000 Hf
atom 8.8590418399999997 4.9649973599999999 8.7516738800000002 Hf
atom -0.2960208900000000 1.5101121300000000 -0.3235406800000000 O
atom -0.2941117900000000 1.5017154600000000 4.6695254300000002 O
atom -0.1462992100000000 6.4591924100000000 -0.0370599900000000 O
atom -0.1444518200000000 6.4508467899999999 4.9560019799999999 O
atom 4.8048093500000002 1.2955848200000000 0.0134253800000000 O
atom 4.8067084800000002 1.2874137999999999 5.0063358400000002 O
atom 4.8984411600000000 6.3075252800000001 0.0063516300000000 O
atom 4.9003373799999999 6.2992163999999997 4.9993690300000004 O
atom 0.3241819100000000 0.9816832100000000 2.2192097799999999 O
atom 0.3261795700000000 0.9732991800000000 7.2122337300000003 O
atom 0.1683679400000000 6.0891993600000003 2.5129402500000002 O
atom 0.1703472600000000 6.0808092900000004 7.5059064600000003 O
atom 5.2823267400000002 1.1704294700000000 2.5234659800000001 O
atom 5.2842701900000000 1.1619188100000000 7.5164169899999997 O
atom 5.2262626000000001 6.1606615099999997 2.5304911600000000 O
atom 5.2283420100000004 6.1520160099999996 7.5235303399999998 O
atom -0.1528473000000000 3.5406765400000002 2.5708292600000000 O
atom -0.1508388700000000 3.5322760299999998 7.5637339900000002 O
atom -0.2780946900000000 8.4905150999999996 2.8572763600000002 O
atom -0.2761547400000000 8.4820496199999997 7.8502733700000000 O
atom 4.8928744799999997 3.6673553600000002 2.5213188600000001 O
atom 4.8948184399999999 3.6588625399999999 7.5144399100000001 O
atom 4.8235365100000003 8.6796394200000009 2.5147273100000000 O
atom 4.8255203099999999 8.6711287899999991 7.5077873999999998 O
atom 0.1623132700000000 3.9092907200000000 0.0202939700000000 O
atom 0.1642414100000000 3.9009839199999998 5.0133035899999996 O
atom 0.3430494100000000 9.0157390199999998 0.3141960300000000 O
atom 0.3449665400000000 9.0072965600000003 5.3072365799999996 O
atom 5.2197471699999998 3.8128496300000001 -0.0032879600000000 O
atom 5.2217118800000000 3.8046128100000001 4.9899142100000002 O
atom 5.3000567199999997 8.8023047400000003 0.0040628700000000 O
atom 5.3018449099999998 8.7940226700000004 4.9971313700000000 O
atom 2.8255939699999999 1.4973592000000000 2.8428711799999999 O
atom 2.8275272199999999 1.4888984199999999 7.8358865099999999 O
atom 2.6998605400000000 6.4480584800000003 2.5746513100000001 O
atom 2.7019924500000001 6.4396316000000002 7.5677226800000001 O
atom 7.8265230199999998 1.2841690400000001 2.4994388000000001 O
atom 7.8285203799999996 1.2755572399999999 7.4925280499999998 O
atom 7.7572971199999996 6.2963897099999997 2.5248292299999999 O
atom 7.7594385600000004 6.2878342299999996 7.5177716700000001 O
atom 2.2025774999999999 0.9806073600000000 0.2986666800000000 O
atom 2.2045504100000000 0.9721446700000000 5.2916933300000002 O
atom 2.3834831500000000 6.0877563700000001 0.0232948900000000 O
atom 2.3855346599999998 6.0792539200000002 5.0162175800000002 O
atom 7.3485940799999998 1.1691372200000001 -0.0111292300000000 O
atom 7.3504845799999998 1.1608538399999999 4.9819337900000003 O
atom 7.4288848400000003 6.1588650700000001 -0.0000239600000000 O
atom 7.4307502000000003 6.1506467000000002 4.9929937000000004 O
atom 2.6922861400000002 3.5379018400000000 -0.0446704400000000 O
atom 2.6941113099999998 3.5295449400000001 4.9484449799999997 O
atom 2.8411815200000001 8.4882859800000006 -0.3117254500000000 O
atom 2.8430072399999999 8.4798803100000004 4.6812954800000002 O
atom 7.7500109699999999 3.6642372399999998 0.0007545500000000 O
atom 7.7519851299999996 3.6558683300000001 4.9937571900000002 O
atom 7.8436339700000000 8.6759966300000002 0.0251381100000000 O
atom 7.8455295600000001 8.6676846800000007 5.0180544100000004 O
atom 2.3790063400000001 3.8998528900000000 2.5071383500000000 O
atom 2.3809623100000001 3.8912983500000000 7.5001125000000002 O
atom 2.2227998200000001 9.0084201299999993 2.2334692800000000 O
atom 2.2247156800000001 9.0000169099999994 7.2265110400000001 O
atom 7.4238701599999999 3.8034238600000001 2.5259071500000001 O
atom 7.4258346399999997 3.7949449700000000 7.5189866199999997 O
atom 7.3678614800000002 8.7932587099999999 2.5360909000000000 O
atom 7.3698730499999998 8.7847748600000006 7.5291014499999998 O
