lattice_vector 10.0130556399999993 -0.0212168900000000 -0.0122174200000000 
lattice_vector 0.0058543200000000 10.3760775800000005 0.0105883700000000 
lattice_vector -0.0115580600000000 -0.0093281300000000 10.0132104500000008 
atom 1.2745399200000000 0.0278290400000000 1.2646900500000000 La
atom 1.3214793899999999 0.1587738300000000 6.2301219500000000 Hf
atom 1.3411543300000000 5.3732626899999998 1.2568992800000001 Hf
atom 1.3565139500000001 5.3361792699999997 6.2867700500000003 Hf
atom 6.3134905899999998 0.1486444200000000 1.2628677600000000 Hf
atom 6.3593471099999999 0.1612471600000000 6.2939468700000001 Hf
atom 6.3592435900000002 5.3228654999999998 1.2624534400000000 Hf
atom 6.3477785300000003 5.3222977800000004 6.2745002000000003 Hf
atom 1.3370595000000001 2.4307528500000002 3.7783258300000000 Hf
atom 1.3451662499999999 2.4141958300000002 8.7411772200000009 Hf
atom 1.3068998599999999 7.5529431000000002 3.8007437500000001 Hf
atom 1.3514512400000001 7.5909025999999997 8.7569304300000006 Hf
atom 6.3457955400000001 2.4246215699999998 3.7551281200000002 Hf
atom 6.3444869600000002 2.4015396099999999 8.7798129199999995 Hf
atom 6.3437338700000003 7.5765269899999996 3.8058880799999999 Hf
atom 6.3828098799999999 7.5664439400000001 8.7652948100000003 Hf
atom 3.6362582500000000 2.7486998800000002 1.2682025800000001 Hf
atom 3.6670042700000001 2.7398441400000002 6.2644253399999998 Hf
atom 3.7792530599999998 7.8448945700000001 1.1741909600000000 Hf
atom 3.6891830900000002 7.9275553900000002 6.2405224099999996 Hf
atom 8.6679343899999992 2.7575210299999999 1.2592016600000000 Hf
atom 8.6808842300000002 2.7521856900000001 6.2610133399999999 Hf
atom 8.6104507399999992 7.9310531900000001 1.2944762999999999 Hf
atom 8.6765977999999997 7.9200878599999998 6.2688063700000001 Hf
atom 3.6590084900000002 5.0047479900000003 3.7585791600000000 Hf
atom 3.6705787399999998 4.9781331499999997 8.7772688799999994 Hf
atom 3.7349519899999999 10.2520451799999996 3.7867234700000001 Hf
atom 3.6835562700000000 10.1905666499999992 8.7397064899999997 Hf
atom 8.6641932700000002 4.9930409300000003 3.7635584199999998 Hf
atom 8.6782491400000001 4.9776225500000004 8.7776471100000002 Hf
atom 8.6090409300000008 10.1873452100000002 3.8096372800000000 Hf
atom 8.6531518900000002 10.1669122999999999 8.7671662999999995 Hf
atom 0.3035532100000000 2.0386009999999999 2.0290568699999998 O
atom 0.3970275100000000 1.9301297200000000 6.8561642400000000 O
atom 0.4242203200000000 7.2132651799999996 1.9342238100000000 O
atom 0.3666222100000000 7.0853455399999996 6.9443579700000004 O
atom 5.3569735700000001 1.8824627000000000 1.9357332899999999 O
atom 5.3625028300000004 1.8870950300000000 6.9647233100000001 O
atom 5.4119749500000003 7.0549954799999997 1.9641766000000001 O
atom 5.3724581499999999 7.0760665400000002 6.9444574399999999 O
atom 0.3399627900000000 0.6738054300000000 4.4077323799999997 O
atom 0.3201318700000000 0.7354033300000000 9.2475055200000007 O
atom 0.3719667800000000 5.8608502800000002 4.4499168899999999 O
atom 0.3570108500000000 5.8858520800000003 9.4552515699999997 O
atom 5.3909319399999998 0.6727551000000001 4.4668177000000000 O
atom 5.3795935000000004 0.6427580400000000 9.4289289299999997 O
atom 5.3551710899999998 5.8461031099999996 4.4665295800000004 O
atom 5.3508759299999999 5.8635140799999999 9.4868498700000004 O
atom 4.6503081300000000 4.4866399100000001 1.9567326800000000 O
atom 4.6555542799999996 4.4770036900000001 6.9627705300000002 O
atom 4.4873739800000001 9.6797352500000002 1.9055515199999999 O
atom 4.6445417200000003 9.6769533200000009 6.9187404099999998 O
atom 9.6157977300000006 4.5757835599999996 1.9144933500000001 O
atom 9.6633072099999993 4.4810728099999997 6.9664020999999998 O
atom 9.3735325199999995 9.6478588900000002 2.0343903299999999 O
atom 9.6314750399999998 9.6626796899999992 6.9289493699999998 O
atom 4.6327897299999998 3.2564097500000000 4.4457115299999996 O
atom 4.6621145100000003 3.2689525800000001 9.4672450900000005 O
atom 4.6471069700000003 8.4597849800000002 4.4436131999999997 O
atom 4.7260873300000004 8.4476191899999993 9.4269775500000002 O
atom 9.6434649199999996 3.2874753200000000 4.4567657100000000 O
atom 9.6511758400000005 3.2584498000000002 9.4592826199999998 O
atom 9.6288704099999993 8.4274982800000000 4.4539023200000001 O
atom 9.7137644400000003 8.4932693599999993 9.5361568200000004 O
atom 2.7838696900000000 1.3081124200000001 2.5798364999999999 O
atom 2.6981972200000000 1.1925654500000000 7.4779159499999999 O
atom 2.7248792300000000 6.4545622800000002 2.4975666300000001 O
atom 2.7191343200000002 6.3886295400000002 7.5045495999999998 O
atom 7.6601389500000003 1.2120603400000001 2.5214015800000000 O
atom 7.7225992500000000 1.2084794699999999 7.5154466099999997 O
atom 7.7228240000000001 6.4086959700000001 2.5168600500000000 O
atom 7.7196026900000003 6.3738892399999996 7.5052060999999997 O
atom 2.7005398899999999 1.3514194100000001 5.0226894700000004 O
atom 2.7615968700000000 1.3941147199999999 9.9355304800000006 O
atom 2.7045365000000001 6.5396213999999997 5.0099832800000001 O
atom 2.7069223600000001 6.4919609600000001 9.9914778399999999 O
atom 7.6875787700000000 1.3715671300000001 5.0222339700000003 O
atom 7.6965881100000004 1.3270628400000000 10.0343567700000005 O
atom 7.7229491599999998 6.5202216399999999 5.0129687699999996 O
atom 7.7160501699999999 6.5108805500000004 10.0093252699999997 O
atom 2.3066617200000001 3.9625321100000002 5.0102829800000004 O
atom 2.2855348100000001 3.9527681200000000 10.0157383499999995 O
atom 2.2730620400000001 9.1560857999999996 4.8373395800000001 O
atom 2.4290860900000002 8.9994201300000007 9.9193743500000000 O
atom 7.2937929700000002 3.9468896299999998 5.0005804100000004 O
atom 7.2937911000000000 3.9396619500000001 10.0031546799999997 O
atom 7.2842462100000001 9.1178598900000001 5.0459156099999998 O
atom 7.3085629900000004 9.1011604599999991 10.0342325599999995 O
atom 2.2748241100000000 3.8590545700000001 2.5043043100000002 O
atom 2.3151420300000001 3.8033819800000002 7.4998234200000002 O
atom 2.2927419699999998 8.9818391299999991 7.4206951300000004 O
atom 7.3076865900000003 3.8092863000000001 2.5038361299999998 O
atom 7.3107763099999996 3.7890637300000001 7.5074745099999998 O
atom 7.1279484799999997 8.9943253100000007 2.5346598700000000 O
atom 7.3107227000000004 8.9766747599999999 7.5239643599999999 O
