lattice_vector 9.9602010199999995 -0.0260965500000000 -0.1588627700000000 
lattice_vector 0.0340785200000000 10.2065327200000002 0.0185476600000000 
lattice_vector -0.1399207900000000 -0.0158399300000000 10.4183610699999996 
atom 1.0610242900000000 0.2756993500000000 2.1755433700000002 Si
atom 1.2331734400000001 0.1793671000000000 6.8960874099999998 Hf
atom 1.4800877500000000 5.3990838600000002 1.7799562000000000 Hf
atom 1.2931573500000000 5.2192858400000004 7.0070567700000002 Hf
atom 1.3290371400000001 2.3969681000000000 4.3680667599999996 Hf
atom 1.3511979599999999 2.2323588100000000 9.6163751899999994 Hf
atom 0.9702515200000000 7.3542833700000001 4.8341976799999999 Si
atom 1.3202759500000001 7.4451148299999996 9.4976067299999993 Hf
atom 3.5613269299999999 2.7478212599999998 1.7047249000000000 Hf
atom 3.5085448700000001 2.7250131000000000 6.9335827700000001 Hf
atom 3.5532941000000000 7.9233461099999998 1.6270530700000001 Hf
atom 3.4917223599999998 7.8027009999999999 6.8274373700000002 Hf
atom 3.5109966600000000 4.9317487699999996 4.2930497599999997 Hf
atom 3.4975196700000000 4.8378393500000003 9.5533911699999994 Hf
atom 3.4627118900000000 9.9744336800000006 4.1889365400000003 Hf
atom 3.5361868699999999 9.9683669399999992 9.4875354999999999 Hf
atom 6.3981706200000001 0.2116757300000000 0.7208306500000000 Hf
atom 6.1766341200000001 0.1878813500000000 5.9160494500000000 Hf
atom 6.4094606699999996 5.3028608999999998 0.7501863400000000 Hf
atom 6.2828787600000000 5.2688946600000000 5.9589679400000000 Hf
atom 6.3153688399999997 2.3352701400000000 3.3289763799999998 Hf
atom 6.2932015400000001 2.3120101800000001 8.5750505799999992 Hf
atom 6.2905847699999997 7.4075685399999998 3.3006945200000000 Hf
atom 6.2520889100000003 7.4085688300000001 8.5763260599999995 Hf
atom 8.6967272100000006 2.7248637800000002 0.8130398100000000 Hf
atom 8.4665042400000008 2.7155756300000000 5.9337160500000001 Hf
atom 8.6820170500000007 7.8728186300000003 0.7261639300000000 Hf
atom 8.3774891399999998 7.8405016800000000 5.9986328000000002 Hf
atom 8.6174038999999993 4.9426276400000004 3.3660597100000000 Hf
atom 8.5115275199999996 4.8189686399999996 8.5985653899999992 Hf
atom 8.5228859000000003 9.9104194900000007 3.3978377300000000 Hf
atom 8.4912896599999996 9.9761853600000006 8.5437882300000005 Hf
atom 0.5672145500000000 1.5193438399999999 1.0823297599999999 O
atom 0.2456511700000000 1.7331000599999999 6.0949504799999996 O
atom 0.4295075500000000 6.8753702499999996 0.9077782100000000 O
atom 0.2089400700000000 6.8367887400000003 6.2427691500000000 O
atom 0.2916642900000000 0.7631786800000000 3.6022831000000002 O
atom 0.2584270900000000 0.8024216600000000 8.6771473399999994 O
atom 0.4933052000000000 6.1372793100000003 3.7073885000000000 O
atom 0.2880912200000000 5.8425419900000000 8.7543564299999996 O
atom 4.6863590600000000 4.2397143300000000 0.8192899900000000 O
atom 4.5282706199999998 4.2855339800000003 6.0506905199999999 O
atom 4.7490356399999998 9.3470344399999998 0.7704644800000000 O
atom 4.4476408599999999 9.3505884800000008 5.9604072400000003 O
atom 4.5929605599999999 3.3815627699999999 3.4418190700000002 O
atom 4.5559963600000000 3.3432770000000001 8.6242626399999995 O
atom 4.5673143800000000 8.4969199700000004 3.3736806700000002 O
atom 4.5346148800000003 8.4507862700000000 8.5523406400000006 O
atom 2.5041314799999999 1.3220595100000001 2.9066044999999998 O
atom 2.6346712800000001 1.2006052000000000 8.1337185900000009 O
atom 2.9431979600000000 6.3168259999999998 2.8612509500000001 O
atom 2.6990005699999999 6.2974167400000001 8.1492007100000006 O
atom 3.0329039099999999 1.4206550800000000 0.2288908200000000 O
atom 2.6373254500000001 1.2043502699999999 5.5534013000000000 O
atom 2.7876586200000002 6.3714896799999998 0.3317327100000000 O
atom 2.4334809800000001 6.3850453600000003 5.5025132399999999 O
atom 2.1688694300000000 3.8433631400000001 3.0713067399999998 O
atom 2.1211811900000002 3.7342586899999999 8.2725999899999998 O
atom 2.1826639100000000 9.2347187900000005 2.6396454000000000 O
atom 2.1123925799999999 8.8407667599999993 8.0466059399999992 O
atom 2.2227686200000001 3.8721495199999998 0.4664081400000000 O
atom 2.1465834699999999 3.8023761100000000 5.6680407900000001 O
atom 2.3865396799999998 8.8826011900000008 0.1809305200000000 O
atom 1.9857653500000001 8.7341601299999994 5.3411125300000002 O
atom 5.3434510299999998 1.7149562500000000 1.6175408700000000 O
atom 5.2259909599999999 1.7008904899999999 6.8140393599999998 O
atom 5.3593446399999998 6.8403106899999999 1.5692999599999999 O
atom 5.2449204299999996 6.8039922400000004 6.7999299799999999 O
atom 5.1848295799999997 0.8213743100000001 4.1843896899999997 O
atom 5.3026578600000001 0.7661919700000001 9.3813469000000005 O
atom 5.2767956199999997 5.9297405699999999 4.2327406999999999 O
atom 5.2431141600000002 5.8785171800000002 9.4260221899999994 O
atom 9.6845613099999994 4.2929457900000001 1.6878835700000001 O
atom 9.5079720400000003 4.2004883000000000 6.8342620099999998 O
atom 9.7225367400000007 9.4215428600000006 1.6686746699999999 O
atom 9.4686505600000004 9.3604730699999994 6.7643279900000000 O
atom 9.5458715400000003 3.3694593300000002 4.1987861400000002 O
atom 9.5677566600000006 3.2958364800000002 9.5304255700000002 O
atom 9.5996891200000007 8.3599951600000004 4.2755832500000004 O
atom 9.5245080600000005 8.4400735499999993 9.3710832199999992 O
atom 7.7087951800000001 1.2320765700000000 9.8960822900000007 O
atom 7.6255030000000001 1.2051986600000000 4.6562180299999998 O
atom 7.6742052899999997 6.3232053900000000 9.8944816899999992 O
atom 7.6847149400000001 6.3451779699999999 4.6729325199999998 O
atom 7.7784266000000004 1.2632948500000001 2.0886965300000000 O
atom 7.6220484700000002 1.2581532099999999 7.2480448700000002 O
atom 7.7841071299999998 6.3972009800000000 2.0660329800000001 O
atom 7.6478181000000003 6.3515232399999997 7.3049403100000001 O
atom 7.1537753200000003 3.7493170000000000 9.9276762800000000 O
atom 7.1590895500000000 3.8134536099999998 4.6658465900000001 O
atom 7.1387143499999999 8.8817516899999998 9.8750498199999992 O
atom 7.1209174099999997 8.8801447299999996 4.6632550100000003 O
atom 7.2703091899999999 3.8288235500000001 2.0900042200000000 O
atom 7.1158640599999998 3.8065452400000002 7.2923983400000001 O
atom 7.2748046400000002 8.9221143299999994 2.0650958600000000 O
atom 7.0586068800000001 8.9274439099999991 7.2717072600000003 O
