lattice_vector 10.0672374100000006 -0.0462159400000000 -0.0201507000000000 
lattice_vector 0.0285011600000000 10.2555688699999994 0.0538741400000000 
lattice_vector -0.0277401900000000 0.0244196100000000 10.4755195800000003 
atom 1.0848477700000001 0.2755297500000000 2.2572768299999999 Si
atom 1.3048003300000000 0.2144266100000000 6.9112401900000000 Hf
atom 1.3550370000000000 5.2846628000000004 1.8039994800000001 Hf
atom 1.3815793599999999 5.3452789699999999 7.0829462300000001 Hf
atom 1.3765356399999999 2.4401449999999998 4.4180688000000004 Hf
atom 1.4236539200000000 2.2744905700000002 9.7140601199999992 Hf
atom 1.3205637100000001 7.4818174500000003 4.4420937299999999 Hf
atom 1.4299138800000000 7.5223010099999996 9.6252411000000002 Hf
atom 3.5841908500000002 2.7613094100000000 1.7671314499999999 Hf
atom 3.6404264999999998 2.8172307999999999 7.0096032900000003 Hf
atom 3.6159178800000000 7.8371026300000004 1.7051094000000000 La
atom 3.6430191500000002 7.8706137800000002 7.0096060299999996 Hf
atom 3.6165648899999998 4.9367108200000001 4.4270185299999998 Hf
atom 3.6275632000000000 4.8771058600000003 9.6555539899999996 Hf
atom 3.6186924600000001 10.0801019800000002 4.4035820299999999 Hf
atom 3.5356999800000000 10.1594498099999999 9.3710337399999997 Hf
atom 6.2708506699999997 0.0138081600000000 0.9392307600000001 La
atom 6.3768769799999996 0.2060024700000000 6.0858968800000000 Hf
atom 6.4932958100000002 5.2967500300000001 0.8411883300000000 Hf
atom 6.4278833999999998 5.3401670299999999 6.1040280899999999 Hf
atom 6.3803326699999996 2.3798952999999998 3.4851701300000002 Hf
atom 6.4192752700000000 2.3005434299999998 8.7046736399999993 Hf
atom 6.4970882599999999 7.4670857300000000 3.4713330700000000 Hf
atom 6.4416775599999996 7.4407775400000000 8.7404048700000008 Hf
atom 8.6976507800000000 2.6374000199999998 0.8848270800000000 Hf
atom 8.6318512300000005 2.7584780599999998 6.0965689500000000 Hf
atom 8.8092216499999996 7.8643680399999996 0.8899904100000000 Hf
atom 8.6368283699999999 7.8634501700000001 6.1377545299999996 Hf
atom 8.6468986000000001 4.8748488099999996 3.4682919900000000 Hf
atom 8.6975125099999993 4.8366052499999999 8.7517756700000007 Hf
atom 8.6354697500000004 10.0232041600000006 3.5938108500000001 Hf
atom 8.6774961400000006 10.0157294599999993 8.7534783100000002 Hf
atom 0.5922915100000000 1.5015167300000001 1.0861153299999999 O
atom 0.3005713100000000 1.7499868300000001 6.1193902099999997 O
atom 0.4500898900000000 6.9103155999999997 0.9644857600000000 O
atom 0.3172484000000000 6.8287374900000000 6.1587652000000004 O
atom 0.2921870000000000 0.8671997900000000 3.6214611600000000 O
atom 0.3429531000000000 0.8367950700000000 8.7286248600000000 O
atom 0.2870719500000000 5.9838024200000000 3.5263924400000000 O
atom 0.3392071300000000 5.9902893099999996 8.7839095100000009 O
atom 4.6648774800000004 4.3562494699999998 0.9596579300000000 O
atom 4.6674020900000004 4.3434124000000001 6.1554653899999998 O
atom 4.6464582900000000 9.4246828499999999 6.1558716200000001 O
atom 4.6249499600000004 3.4113464699999998 3.5747533599999999 O
atom 4.6860112500000000 3.3696923200000000 8.7461587000000005 O
atom 4.8670525099999997 8.7815694799999999 3.4187558400000002 O
atom 4.6791202900000002 8.5027660399999991 8.8664235100000006 O
atom 2.5523433099999999 1.2430003700000001 2.8997242499999998 O
atom 2.6671603300000002 1.2930144100000001 8.1274241000000007 O
atom 2.6743875600000000 6.3680473800000001 3.1584532200000002 O
atom 2.8019386800000001 6.3868392700000003 8.3060717400000001 O
atom 3.1076689300000000 1.4063761299999999 0.2026133800000000 O
atom 2.7614268000000002 1.3408497800000001 5.5848972999999997 O
atom 2.6453703000000002 6.2406909500000003 0.3547895300000000 O
atom 2.7538903299999999 6.4466637400000000 5.7264965999999999 O
atom 2.2336003299999998 3.8506607900000001 3.1157887299999998 O
atom 2.2508225799999999 3.8147534200000002 8.3549172299999999 O
atom 2.0597792300000002 9.1824093599999994 3.0579089300000000 O
atom 2.2316901599999999 8.9430763899999999 8.1635923800000008 O
atom 2.2281633900000002 3.8013817200000002 0.5033678700000001 O
atom 2.2291704000000001 3.8880648099999999 5.7266634999999999 O
atom 2.4850022599999999 9.0549280299999992 0.1873546800000000 O
atom 2.2572353399999998 8.9967137299999997 5.6338579700000002 O
atom 5.3411919000000001 1.8300344700000000 1.7909619999999999 O
atom 5.3587348199999996 1.7462568000000001 6.9294504799999999 O
atom 5.7047757099999998 7.0301072700000002 1.5932356299999999 O
atom 5.4048848100000004 6.8708897999999996 6.9747251700000001 O
atom 5.3304418800000004 0.8899097300000000 4.3688003300000000 O
atom 5.3443658300000001 0.7449260500000000 9.4112032699999997 O
atom 5.3438277599999999 6.0219147900000003 4.3218683999999996 O
atom 5.3975503500000004 5.9122446899999996 9.5791852199999994 O
atom 9.7319948699999994 4.1517192600000001 1.7736567200000000 O
atom 9.7277021599999998 4.2015342699999998 7.0416966299999997 O
atom 9.8909104800000005 9.4517682099999991 1.8718621400000000 O
atom 9.6908230199999998 9.3657490100000000 6.9996885999999998 O
atom 9.6949753699999999 3.3933885199999998 4.3950957099999997 O
atom 9.7635023299999997 3.3227493099999998 9.7079375999999993 O
atom 9.6927047700000006 8.5138316799999991 4.4413368000000002 O
atom 9.7923804400000005 8.5498831000000006 9.6500986300000005 O
atom 7.8466938199999996 1.2323261700000001 10.0132505999999992 O
atom 7.7637494199999999 1.2535802800000000 4.8268741200000003 O
atom 7.8798458000000000 6.3302211499999999 10.0634976700000003 O
atom 7.8022228100000000 6.3755717599999997 4.8172097699999998 O
atom 7.8464213200000001 1.2822911600000000 2.2618258000000000 O
atom 7.7861640699999999 1.2683410900000001 7.4066913400000001 O
atom 7.9144457499999996 6.3299142200000000 2.1886481899999999 O
atom 7.8167429200000003 6.3720338800000000 7.4505991500000004 O
atom 7.3080940600000002 3.7579757200000001 10.0649657799999996 O
atom 7.2545099000000004 3.8350236299999998 4.8123383500000001 O
atom 7.3843662999999999 8.8270197800000005 10.0277821399999993 O
atom 7.2592808900000003 8.9425121500000007 4.8673457100000004 O
atom 7.2937043299999997 3.8074997700000002 2.1686975300000002 O
atom 7.2706042699999998 3.8441283199999998 7.4306636499999996 O
atom 7.5808324599999999 8.8343082499999994 2.3145220300000000 O
atom 7.2686366099999997 8.9660306900000002 7.4529598500000001 O
