lattice_vector 10.1045130400000005 0.0255301900000000 0.7753998100000000 
lattice_vector 0.0275710800000000 10.2288963800000001 0.0034393900000000 
lattice_vector 0.8721108900000000 -0.0003808300000000 10.4662109500000007 
atom 1.3536996299999999 0.0969093100000000 1.8487055800000001 Si
atom 1.9432310900000000 0.2297827500000000 6.8361964500000001 Hf
atom 1.5645974600000001 5.3074335100000001 1.6386331400000000 Hf
atom 1.9874862799999999 5.3126313600000001 6.8469194499999997 Hf
atom 6.5384618100000003 0.1420664400000000 1.9921106300000000 La
atom 7.0125711099999997 0.2370339700000000 7.2669356199999999 Hf
atom 6.5640191999999997 5.3552413799999998 2.0086705800000000 Hf
atom 7.0414020900000001 5.3259483699999999 7.2881455800000001 Hf
atom 1.7273137999999999 2.3328478300000000 4.1829644000000004 Hf
atom 2.2433881000000002 2.2832725900000002 9.4849557000000004 Hf
atom 1.7247221399999999 7.4443444500000000 4.2508442200000003 Hf
atom 2.2231200699999998 7.4430646200000004 9.4203825499999994 Hf
atom 6.7901070099999998 2.3553349799999999 4.6565485600000001 Hf
atom 7.2650062499999999 2.3945455899999999 9.8834117500000005 Hf
atom 6.7658810000000003 7.4234330999999996 4.7151132699999998 Hf
atom 7.2376324399999996 7.4623383099999998 9.8874002500000007 Hf
atom 3.7150097299999998 2.7600751600000000 1.3225101800000001 Hf
atom 4.1793938500000003 2.7959579600000000 6.5905398799999997 Hf
atom 3.6308768400000000 7.9469358600000000 1.3644101500000001 Hf
atom 4.1983286199999998 7.9201874500000002 6.6256195199999999 Hf
atom 8.8893209100000004 2.7131582999999999 1.7908455999999999 Hf
atom 9.2371016000000008 2.7874677999999999 7.0031754399999997 Hf
atom 8.9439042499999992 7.8661587300000004 1.6897048900000000 Hf
atom 9.2288728899999999 7.8838375599999999 7.0071149699999999 Hf
atom 3.9725304800000001 4.9083453800000001 3.9769771399999998 Hf
atom 4.4121822699999997 4.9134712299999999 9.2107412400000008 Hf
atom 3.8977498800000001 10.0165188700000005 4.0064958800000001 Hf
atom 4.4353294999999999 10.0978315799999994 9.2483814100000004 Hf
atom 9.0111333200000008 4.9061235400000003 4.3744886599999999 Hf
atom 9.5073824899999995 4.8758622999999996 9.6545627300000003 Hf
atom 9.0700126599999997 10.0620269899999997 4.4588517400000001 Hf
atom 9.5027461700000000 10.0327775700000004 9.5795287800000004 Hf
atom 0.6207160200000000 1.4542639500000001 0.9124127800000000 O
atom 0.8129276900000000 1.6493375600000000 5.9817008400000002 O
atom 0.4932768600000000 6.7847117600000004 0.7956269700000000 O
atom 0.8482930300000000 6.7816051599999998 6.0708033199999996 O
atom 5.4833730799999998 1.8828627000000000 1.1977457100000000 O
atom 5.9240102700000001 1.7575187800000001 6.5053153799999999 O
atom 5.4675310599999998 6.8612067799999998 1.2181125799999999 O
atom 5.9149848199999999 6.8129202400000004 6.4681493899999998 O
atom 0.6775071200000000 0.7656152100000000 3.3893769200000001 O
atom 1.0830084400000000 0.8733522800000000 8.6293246099999994 O
atom 0.6243890100000000 5.9644002900000004 3.4391332299999999 O
atom 1.1081259299999999 5.9694849600000000 8.6824076399999992 O
atom 5.5498209100000002 0.9296774400000000 3.9746508199999999 O
atom 6.1982747800000002 0.8491580100000000 9.1039266100000003 O
atom 5.7044824199999997 5.9653286500000000 3.8499081899999998 O
atom 6.1138109700000003 6.0293237399999997 9.0405052599999998 O
atom 4.8250438800000000 4.3259578799999998 2.1446068500000002 O
atom 5.2969726200000000 4.2830347000000000 7.3922914999999998 O
atom 4.7040939599999998 9.2199167299999996 2.3526507400000001 O
atom 5.3214908100000002 9.3915557700000001 7.4214435700000001 O
atom 9.9469379799999995 4.2512546499999999 2.5778029299999998 O
atom 10.3887793100000003 4.2285213500000003 7.8287973500000003 O
atom 9.9363917199999996 9.4088137199999995 2.5914546700000001 O
atom 10.3729587599999995 9.3626343999999992 7.7816518700000001 O
atom 5.0823385700000001 3.4604432200000002 4.7985285700000002 O
atom 5.5854716000000000 3.5353521200000002 10.0070396299999995 O
atom 5.1008222200000004 8.5655420699999993 4.8259027300000001 O
atom 5.4922588299999999 8.5949718199999996 10.0851062900000006 O
atom 10.1131272400000007 3.4230703999999998 5.1566833299999999 O
atom 10.6600222700000007 3.4233885800000001 10.5028654699999997 O
atom 10.1095238599999995 8.5230629100000002 5.2065101800000004 O
atom 10.6953445100000000 8.5884150399999992 10.3928968899999994 O
atom 2.8185716900000002 1.1735696400000000 2.5136325799999999 O
atom 3.4255160099999999 1.2978309600000000 7.8627729300000002 O
atom 2.9790698799999999 6.4690683900000003 2.7281108500000002 O
atom 3.4473023800000000 6.4334911500000000 7.9205037599999999 O
atom 8.1391882399999993 1.3667064499999999 3.2375379799999999 O
atom 8.5117478999999996 1.3390348200000000 8.3289524400000001 O
atom 8.0243888800000001 6.6128760499999997 3.1248073199999999 O
atom 8.5182513100000001 6.4342109699999996 8.3780121899999997 O
atom 3.1671557699999999 1.2874169099999999 5.2797966199999999 O
atom 3.8975774200000002 1.4879300700000000 10.3283263600000002 O
atom 3.2290134400000001 6.3660705000000002 5.3314665699999999 O
atom 3.6775422899999999 6.4186607899999997 10.5435578400000001 O
atom 8.2681979000000005 1.2494632999999999 5.7703957600000004 O
atom 8.8357246099999998 1.3124206100000000 10.8851776999999998 O
atom 8.2741041099999997 6.3447182499999997 5.7559981400000000 O
atom 8.7380637199999995 6.3259559599999999 10.9728231199999993 O
atom 2.2808985399999999 3.9337797600000002 0.2625524200000000 O
atom 2.6881067000000001 3.8758157799999999 5.4814290600000000 O
atom 2.2341596300000002 9.3484960899999994 0.4774332500000000 O
atom 2.7187606799999999 8.9865768799999994 5.5146930100000002 O
atom 7.4106077900000003 3.8695721100000000 0.7077910700000000 O
atom 7.7719285100000004 3.8814731400000002 5.9166393499999996 O
atom 7.5062276900000002 8.8649660400000005 0.5568568500000000 O
atom 7.7507710000000003 9.0041707899999999 5.8430785800000002 O
atom 2.5131227900000002 3.7674959299999999 2.8885621900000000 O
atom 2.9543419000000002 3.7805230100000000 8.1215681400000008 O
atom 2.2394995700000000 8.9718505799999999 2.8762153200000000 O
atom 2.9795156600000001 8.9212181200000007 8.1602621299999996 O
atom 7.5627271399999998 3.8356773000000000 3.2852686599999998 O
atom 8.0175429800000000 3.8342670600000002 8.5387634699999992 O
atom 7.9885291100000000 8.9209872099999998 8.4853067699999993 O
