lattice_vector 10.1413080000000004 -0.0153120000000000 -0.0522960000000000 
lattice_vector -0.0159690000000000 10.2989110000000004 0.0184800000000000 
lattice_vector -0.0169130000000000 -0.0071480000000000 10.4757370000000005 
atom 1.3451109999999999 0.1046950000000000 1.7127699999999999 La
atom 1.4000870000000001 0.1986460000000000 7.0320999999999998 Hf
atom 1.3870549999999999 5.3527060000000004 1.7715080000000001 Hf
atom 1.4635730000000000 5.3368229999999999 6.9764869999999997 Hf
atom 1.3927140000000000 2.3336429999999999 4.4204520000000000 Hf
atom 1.4314439999999999 2.3652690000000001 9.6236999999999995 Hf
atom 1.3830000000000000 7.4854469999999997 4.4198160000000000 Hf
atom 1.4362299999999999 7.5234690000000004 9.6471900000000002 Hf
atom 3.6331229999999999 2.7669809999999999 1.7788839999999999 Hf
atom 3.6702599999999999 2.7579229999999999 7.0076359999999998 Hf
atom 3.7038430000000000 7.8887359999999997 1.7957660000000000 Hf
atom 3.6250460000000002 7.9374310000000001 7.0070439999999996 Hf
atom 3.6416979999999999 4.9136009999999999 4.3733350000000000 Hf
atom 3.6279560000000002 4.9156870000000001 9.6235979999999994 Hf
atom 3.6513779999999998 10.0810709999999997 4.4267240000000001 Hf
atom 3.6837640000000000 10.0982979999999998 9.6293650000000000 Hf
atom 6.4885370000000000 0.2112030000000000 0.8091310000000000 Hf
atom 6.4747849999999998 0.2133290000000000 6.0593149999999998 Hf
atom 6.4166040000000004 5.3277159999999997 0.8218450000000000 Hf
atom 6.4489970000000003 5.3449559999999998 6.0243120000000001 Hf
atom 6.4460040000000003 2.3689860000000000 3.4249079999999998 Hf
atom 6.4831570000000003 2.3599839999999999 8.6536340000000003 Hf
atom 6.4755219999999998 7.4885229999999998 3.4441590000000000 Hf
atom 6.3966640000000003 7.5373080000000003 8.6554749999999991 Hf
atom 8.6848349999999996 2.7616429999999998 0.8088810000000000 Hf
atom 8.7236680000000000 2.7933170000000000 6.0121300000000000 Hf
atom 8.6642759999999992 7.9025460000000001 0.8040140000000000 Hf
atom 8.7174750000000003 7.9405559999999999 6.0314870000000003 Hf
atom 8.7163579999999996 4.9282089999999998 3.4004379999999998 Hf
atom 8.7711970000000008 5.0222790000000002 8.7197560000000003 La
atom 8.6369969999999991 10.0891230000000007 3.4748519999999998 Hf
atom 8.7134129999999992 10.0734510000000004 8.6797330000000006 Hf
atom 0.3657950000000000 1.9416070000000001 0.9194400000000000 O
atom 0.3404280000000000 1.7391430000000001 6.1876629999999997 O
atom 0.3358210000000000 6.9367380000000001 0.9181310000000000 O
atom 0.3260800000000000 6.8758419999999996 6.1699970000000004 O
atom 0.2292430000000000 0.8516840000000000 3.6801930000000000 O
atom 0.3979880000000000 0.7501630000000000 8.8304899999999993 O
atom 0.3357550000000000 5.9863270000000002 3.5207340000000000 O
atom 0.6608710000000000 5.9122599999999998 8.7777159999999999 O
atom 4.6866969999999997 4.2600800000000003 0.8594560000000000 O
atom 4.7221830000000002 4.2529769999999996 6.0740189999999998 O
atom 4.7700030000000000 9.4149609999999999 0.8642649999999999 O
atom 4.7314109999999996 9.4036659999999994 6.0950040000000003 O
atom 4.7300709999999997 3.4672890000000001 3.4601080000000000 O
atom 4.7294879999999999 3.4325260000000002 8.6976499999999994 O
atom 4.7714119999999998 8.6127079999999996 3.4820090000000001 O
atom 4.7200559999999996 8.6347470000000008 8.6740030000000008 O
atom 2.8391679999999999 1.3208210000000000 3.1705890000000001 O
atom 2.7960430000000001 1.2528180000000000 8.2824069999999992 O
atom 2.7798370000000001 6.3813969999999998 3.0663190000000000 O
atom 2.9124430000000001 6.4234030000000004 8.2813210000000002 O
atom 2.9069360000000000 1.3717349999999999 0.3564090000000000 O
atom 2.7769949999999999 1.2647510000000000 5.7176609999999997 O
atom 2.7710180000000002 6.3912389999999997 0.4719030000000000 O
atom 2.7735580000000000 6.4365709999999998 5.6680130000000002 O
atom 2.2370510000000001 3.8373830000000000 3.0571329999999999 O
atom 2.2857170000000000 3.8158880000000002 8.2761659999999999 O
atom 2.3677589999999999 8.8716620000000006 3.1638099999999998 O
atom 2.2527759999999999 8.9803920000000002 8.3012789999999992 O
atom 2.2402799999999998 3.8814449999999998 0.4403450000000000 O
atom 2.3006980000000001 3.8435500000000000 5.6656120000000003 O
atom 2.4786079999999999 8.8838559999999998 0.3676350000000000 O
atom 2.2441730000000000 9.0179799999999997 5.7163539999999999 O
atom 5.3867719999999997 1.6944459999999999 1.7349749999999999 O
atom 5.3862420000000002 1.6597379999999999 6.9724430000000002 O
atom 5.3803549999999998 6.7910769999999996 1.7772559999999999 O
atom 5.3291469999999999 6.8131089999999999 6.9692069999999999 O
atom 5.3940570000000001 0.8739040000000000 4.3585399999999996 O
atom 5.4295879999999999 0.8667390000000000 9.5730920000000008 O
atom 5.3691519999999997 6.0223430000000002 4.3562659999999997 O
atom 5.3306730000000000 6.0110440000000001 9.5870979999999992 O
atom 9.7183480000000007 4.3765549999999998 1.6023460000000000 O
atom 9.8872359999999997 4.2749969999999999 6.7526679999999999 O
atom 9.4396070000000005 9.5137330000000002 1.6735730000000000 O
atom 9.7647549999999992 9.4398510000000009 6.9302910000000004 O
atom 9.7761230000000001 3.3879340000000000 4.2450109999999999 O
atom 9.7506190000000004 3.1854170000000002 9.5130700000000008 O
atom 9.7742540000000009 8.5499100000000006 4.2813980000000003 O
atom 9.7646929999999994 8.4892939999999992 9.5332270000000001 O
atom 7.8763310000000004 1.2455780000000001 9.9920190000000009 O
atom 7.8158180000000002 1.2834570000000001 4.7668239999999997 O
atom 7.6217530000000000 6.5420590000000001 10.0836649999999999 O
atom 7.8560679999999996 6.4080570000000003 4.7350479999999999 O
atom 7.8308320000000000 1.3109450000000000 2.1566139999999998 O
atom 7.8794750000000002 1.2896330000000000 7.3756100000000000 O
atom 7.8475700000000002 6.4454310000000001 2.1497250000000001 O
atom 7.7324849999999996 6.5542920000000002 7.2873340000000004 O
atom 7.2096010000000001 3.7551830000000002 10.0759950000000007 O
atom 7.3396229999999996 3.8622139999999998 4.7146260000000000 O
atom 7.3293460000000001 9.0348170000000003 9.9795429999999996 O
atom 7.3267189999999998 8.9894569999999998 4.7834190000000003 O
atom 7.3203990000000001 3.8739750000000002 2.1502430000000001 O
atom 7.2773500000000002 3.8060930000000002 7.2620160000000000 O
atom 7.1878650000000004 9.0025099999999991 2.1698170000000001 O
atom 7.3205049999999998 9.0447170000000003 7.3849640000000001 O
