lattice_vector 5.0666179099999997 -0.0125424300000000 0.3771592100000000 
lattice_vector -0.0222814700000000 10.3733208799999996 -0.0759111900000000 
lattice_vector 0.8468562800000000 -0.0677357400000000 10.4349003200000006 
atom 1.4875105399999999 0.1195470400000000 1.5893074400000000 La
atom 1.9536403000000000 0.1788214600000000 6.8407280400000001 Hf
atom 1.5077975299999999 5.3958395799999996 1.5646836200000001 Hf
atom 1.9256272000000001 5.3546253500000001 6.8088754600000003 Hf
atom 1.6608124000000000 2.3755127400000000 4.2888292000000003 Hf
atom 2.1719498300000000 2.3441830299999999 9.3950881200000005 Hf
atom 1.7232255299999999 7.4385667299999998 4.2199164600000003 Hf
atom 2.1872425299999998 7.5222721500000000 9.3852228600000007 Hf
atom 3.7794152900000002 2.8876831400000000 1.1943344800000000 Hf
atom 4.1471901300000003 2.7663628199999999 6.5624218499999998 Hf
atom 3.7406051800000002 7.9392727499999998 1.3263591100000001 Hf
atom 4.1551135700000001 7.9299422399999999 6.5421786800000001 Hf
atom 3.9305115800000001 4.8999513900000000 3.9145770799999999 Hf
atom 4.3710332799999998 4.9469426299999997 9.1151100599999992 Hf
atom 3.9437969000000002 10.0273570400000001 4.0122240700000003 Hf
atom 4.4163532300000004 10.0814320599999991 9.1146776099999993 Hf
atom 0.4432275800000000 1.9747038500000000 0.7821101900000000 O
atom 0.8613516800000000 1.7849759599999999 6.1733088699999996 O
atom 0.4940914100000000 7.0359368199999999 0.8962228800000001 O
atom 0.8535889700000000 6.9164317100000003 6.0865220899999999 O
atom 0.6087532600000000 0.7766456500000000 3.6726626200000001 O
atom 1.1262547900000000 0.7529941600000000 8.7064511899999992 O
atom 0.6558392700000000 5.8936729400000001 3.4688047399999999 O
atom 1.0738056899999999 5.9602617499999999 8.6676221099999999 O
atom 4.7976013499999999 4.4224724300000000 2.0407525700000000 O
atom 5.2265571800000004 4.3438379999999999 7.2590424899999997 O
atom 4.4056036799999996 9.7444425599999995 2.0283753400000002 O
atom 5.2568992600000000 9.4863925400000007 7.2634014599999999 O
atom 4.9883190600000002 3.3540011000000001 4.6998383300000004 O
atom 5.4743956300000001 3.4062999000000000 9.8173822800000003 O
atom 5.0233097100000004 8.4811759099999993 4.6588828600000003 O
atom 5.5886631400000004 8.6049534100000002 9.9482522299999996 O
atom 3.4393096700000001 1.2884844700000000 7.8863579599999998 O
atom 2.9892547199999999 6.4030406500000003 2.6721926699999998 O
atom 3.4176781900000002 6.4831565199999996 7.8856303600000004 O
atom 3.1635200000000001 1.2051699300000001 5.2656857099999996 O
atom 3.7251494300000001 1.2642245400000001 10.4445068699999997 O
atom 3.2072889700000000 6.3639820199999999 5.2932876799999997 O
atom 3.6445276899999999 6.3647818699999998 10.5029713600000001 O
atom 2.2684942600000002 3.9972960999999998 0.1763683700000000 O
atom 2.6630785900000000 3.9014954799999999 5.4472218200000002 O
atom 2.4254119599999999 8.9837261900000005 0.0782704000000000 O
atom 2.6857697300000001 9.0512102399999996 5.4753350799999998 O
atom 2.5026108100000002 3.6554621100000002 2.8075134600000000 O
atom 2.9013412199999999 3.8024113499999999 8.0301595500000005 O
atom 2.4735425700000002 8.8099269099999997 2.9376400199999999 O
atom 2.9152868900000000 8.9831365299999995 8.0132777799999992 O
