lattice_vector 10.1202739299999998 -0.0210070000000000 0.0690824100000000 
lattice_vector -0.0118541100000000 10.3283217599999997 -0.0031604200000000 
lattice_vector 0.0460441900000000 -0.0045378100000000 10.4517829199999994 
atom 1.4904699400000001 -0.0186516300000000 1.9288041700000000 Hf
atom 1.4538654300000000 0.1468977000000000 6.9992331200000004 Hf
atom 1.4166687200000001 5.3291127800000000 1.7899747200000000 Hf
atom 1.4599908500000001 5.3759359000000000 7.0040091300000000 Hf
atom 1.4552071300000000 2.3567439800000001 4.4103538300000000 Hf
atom 1.2668149399999999 2.5715648899999999 9.3721923799999995 La
atom 1.4236625199999999 7.4555268600000000 4.4169099200000002 Hf
atom 1.4197252600000001 7.4948723299999997 9.6393882099999999 Hf
atom 3.7349682999999998 2.6390992799999999 1.6365940200000000 La
atom 3.7470537799999999 2.7713866299999999 6.9925431500000004 Hf
atom 3.6835145599999999 7.9109453099999998 1.8002103800000000 Hf
atom 3.6879684300000002 7.9589929000000001 7.0473804199999996 Hf
atom 3.6972647300000001 4.8934312799999997 4.3986507399999999 Hf
atom 3.7315474100000001 5.0216728599999998 9.6242468399999996 Hf
atom 3.7195994300000002 10.0706273700000004 4.4535078400000003 Hf
atom 3.5954682299999998 10.1116026800000007 9.6475792100000000 Hf
atom 6.4640341399999999 0.1572330600000000 0.8701655300000000 Hf
atom 6.5201086500000001 0.1911553500000000 6.1041440199999997 Hf
atom 6.4143066199999996 5.4731387299999996 0.8682044300000000 Hf
atom 6.4780314900000002 5.3787369500000004 6.0780119099999999 Hf
atom 6.5122465399999996 2.3698996000000001 3.5799544200000000 Hf
atom 6.4618163400000004 2.3400833900000002 8.7265101000000005 Hf
atom 6.4952783199999997 7.5359537999999997 3.4886004900000001 Hf
atom 6.4792359900000003 7.5569503899999999 8.6755993399999998 Hf
atom 8.3119960299999995 2.8982598799999999 0.9565828800000000 Hf
atom 8.7806771200000000 2.7636270000000001 6.1525004499999998 Hf
atom 8.7236065499999995 7.9257744199999998 0.8710381600000000 Hf
atom 8.7455193700000002 7.9328148000000001 6.0604621700000001 Hf
atom 8.7613064400000003 4.9166868399999997 3.5206072800000001 Hf
atom 8.6952145400000003 4.9739090199999998 8.7205492600000003 Hf
atom 8.7413653700000005 10.1237959699999998 3.4838035600000001 Hf
atom 8.7353979600000002 10.0445931900000005 8.6830400000000001 Hf
atom 0.3797218100000000 1.6521475600000000 6.0971797299999997 O
atom 0.3026971300000000 6.8182973300000000 0.8761151000000000 O
atom 0.3208346600000000 6.8044925300000001 6.0571656699999998 O
atom 0.3388460100000000 0.9619633800000000 3.3533233800000000 O
atom 0.3442381800000000 0.6699442000000000 8.6759392599999998 O
atom 0.3356003300000000 6.0356789600000003 3.4626233200000001 O
atom 0.3704581900000000 5.9848291400000004 8.6993525700000003 O
atom 4.6724931800000000 4.5884766499999996 0.9508613100000000 O
atom 4.7625320899999997 4.3382421799999999 6.1721662600000000 O
atom 4.6002078900000001 9.6483117499999995 1.0385130800000000 O
atom 4.7490271499999999 9.4987040399999998 6.1893137600000001 O
atom 4.7920906199999997 3.3613707700000002 3.6919753000000002 O
atom 4.7265245399999998 3.3591428400000001 8.8303447199999994 O
atom 4.7245259300000004 8.5367281100000003 3.5746819500000000 O
atom 4.7208065499999998 8.6105381600000008 8.7905157999999997 O
atom 2.7879529999999999 1.1063343100000000 3.1775514600000001 O
atom 2.9244556199999998 1.1811690900000000 8.2095280299999995 O
atom 2.8168544199999999 6.3973095700000000 3.0727272100000000 O
atom 2.7971812500000000 6.4969375500000002 8.3141004899999995 O
atom 2.2955349500000000 1.1047034700000000 0.4555697300000000 O
atom 2.8357935300000001 1.2903302100000000 5.6916716400000000 O
atom 2.7951352100000002 6.4940983200000000 0.4774342700000000 O
atom 2.8235873699999998 6.4422280199999999 5.7006061700000004 O
atom 2.2415947500000000 3.8650350800000002 3.1301355100000001 O
atom 2.5308663299999998 4.0245433500000001 8.1518862500000004 O
atom 2.3064068199999999 8.9156084500000006 3.1122121100000002 O
atom 2.2687898600000000 9.0010497899999997 8.3271490600000000 O
atom 2.2195555599999999 4.0583862599999998 0.3833203100000000 O
atom 2.3235408899999999 3.8501492499999999 5.6794837600000001 O
atom 2.2892346500000000 8.9179889299999999 0.4964417300000000 O
atom 2.3143287500000000 8.9983076900000007 5.7040501600000004 O
atom 5.8650662999999996 1.8885725099999999 1.6789811900000000 O
atom 5.5070347200000000 1.7523935300000000 6.9488019000000003 O
atom 5.4946266200000000 7.0764735400000003 1.6829492399999999 O
atom 5.4324654099999998 6.9228788400000001 6.9523929500000001 O
atom 5.4834968399999999 0.7846709600000000 4.3331710100000000 O
atom 5.3727057199999999 0.8526158200000000 9.6527466700000009 O
atom 5.4495635800000004 5.9870419300000002 4.3275091000000003 O
atom 5.4625716999999998 6.0574627699999999 9.5297903799999997 O
atom 9.7693316699999997 4.0820654899999997 1.8787457599999999 O
atom 9.9246728500000003 4.1034088200000003 7.2200894499999997 O
atom 9.7841598199999993 9.4814141400000000 1.7331780699999999 O
atom 9.8035435700000004 9.3724408700000001 6.9834516999999998 O
atom 9.8450202000000004 3.4796402400000002 4.5258144500000004 O
atom 9.4586461600000007 3.5198440000000000 9.8546541399999992 O
atom 9.8529287399999994 8.6160371199999997 4.3784798399999998 O
atom 9.7880571900000000 8.5202269899999994 9.6163285999999992 O
atom 7.8708485599999998 1.2708102600000000 10.0687752300000000 O
atom 7.9073900500000001 1.2569112300000000 4.8577021499999997 O
atom 7.8793932099999999 6.4556910199999997 10.0201262399999997 O
atom 7.8694199200000003 6.4320139000000003 4.7967013999999999 O
atom 8.0666101200000000 1.3305738199999999 2.2699379300000002 O
atom 7.8918641699999998 1.2557993500000000 7.4557650799999999 O
atom 7.8828834700000003 6.4863584200000002 2.2084589000000001 O
atom 7.8643983500000001 6.4560743900000004 7.3989890699999998 O
atom 7.0978660299999996 3.8707912100000001 10.0831134400000000 O
atom 7.4056406900000002 3.8425080000000000 4.8618245299999998 O
atom 7.3470928300000002 9.0053673399999994 10.0259084000000005 O
atom 7.3711836499999999 9.0092174800000002 4.7929525499999999 O
atom 7.2418247100000004 4.0243514300000003 2.2884209000000002 O
atom 7.3833666300000003 3.8757703700000001 7.4463611299999997 O
atom 7.3558053900000004 9.0820483900000006 2.2018199799999998 O
atom 7.3470734100000001 9.0236038700000005 7.3816280000000001 O
