lattice_vector 10.0791273900000000 0.0422382200000000 -0.2078322100000000 
lattice_vector 0.0308417200000000 10.2860292300000005 -0.0380921800000000 
lattice_vector -0.0742827800000000 0.0030308800000000 10.4732006999999996 
atom 1.0303518199999999 0.3657775700000000 2.1730923500000001 Si
atom 1.3099046500000000 0.2337169700000000 6.8762671900000001 Hf
atom 0.9800560600000000 5.0792537199999996 1.2983805700000000 La
atom 1.3313771400000001 5.3366260900000002 7.0351589499999996 Hf
atom 1.2593501400000000 2.5814293300000002 4.3188009999999997 Hf
atom 1.4589516000000000 2.2432525999999999 9.6509817200000008 Hf
atom 1.2993676900000000 7.5560362599999999 4.0384618300000001 La
atom 1.4231488800000001 7.6098412399999997 9.5281007399999993 Hf
atom 3.6740396700000000 2.7791685699999999 1.6637118200000001 Hf
atom 3.5721087300000001 2.7837641899999999 6.9703548199999998 Hf
atom 3.6917944199999999 8.1441558199999999 1.4332661200000001 Hf
atom 3.5998619000000001 7.9464883799999999 6.8019711500000000 Hf
atom 3.7076601899999999 4.8256230000000002 4.4585216399999998 Hf
atom 3.6500039300000000 4.9561901300000004 9.5493341600000008 Hf
atom 3.5513828699999999 10.2122261900000009 4.1984689499999996 Hf
atom 3.6507665899999999 10.1214503699999998 9.3815178899999996 Hf
atom 6.4943321500000000 0.2505712400000000 0.6364096800000000 Hf
atom 6.3351330700000004 0.2179631000000000 5.9257623900000000 Hf
atom 6.4646050700000002 5.4142607500000004 0.6915293600000000 Hf
atom 6.4349248299999999 5.3825655799999996 5.9682826699999998 Hf
atom 6.4067726299999999 2.3611455299999999 3.3039633600000000 Hf
atom 6.4032549999999997 2.3822730800000000 8.5273023099999996 Hf
atom 6.3352552299999996 7.5116431400000003 3.2859344500000001 Hf
atom 6.4222544700000004 7.5364610699999997 8.5250020699999993 Hf
atom 8.6736312299999998 2.6999682200000001 0.7312486100000000 Hf
atom 8.6392352999999993 2.8300255700000001 5.9767610299999996 Hf
atom 8.7760365999999994 8.0374698700000007 0.6481785900000000 Hf
atom 8.6294582000000002 7.9276862299999999 5.9140633600000001 Hf
atom 8.5665541199999993 4.9011202699999998 3.3377329400000000 Hf
atom 8.6835056300000009 4.9419173399999998 8.6116256100000008 Hf
atom 8.5437175199999995 10.1022391999999996 3.3110071300000001 Hf
atom 8.6909667299999995 10.1181545600000007 8.4405992699999999 Hf
atom 0.5820700000000000 1.4220029000000001 0.9359404700000000 O
atom 0.2658892000000000 1.7085947200000000 6.0128740399999998 O
atom 0.5169968500000000 7.2410886200000002 0.9344956300000000 O
atom 0.2186307200000000 6.7543458200000002 6.1911078399999999 O
atom 0.2331694300000000 0.9020162600000000 3.5611796199999999 O
atom 0.2658963900000000 0.9373845800000000 8.6441016099999999 O
atom 0.1028707900000000 5.9116276000000001 3.2881504900000000 O
atom 0.3718258400000000 5.9326882999999997 8.9070222700000006 O
atom 4.7869197500000000 4.3233463700000003 0.7774834400000000 O
atom 4.7431094399999996 4.2153758500000000 6.0400127499999998 O
atom 4.8508933599999997 9.4443086899999997 0.6183198400000000 O
atom 4.6390337700000002 9.4611745000000003 5.8958295900000000 O
atom 4.7078045900000003 3.3747969900000001 3.4121839999999999 O
atom 4.7109832400000000 3.4703846899999999 8.6064423199999993 O
atom 4.4292471300000003 8.4906393599999994 3.3379458099999999 O
atom 4.7033535000000004 8.5939982100000005 8.4996044200000007 O
atom 2.4645729400000000 1.4531390799999999 2.8514384499999998 O
atom 2.7083940100000001 1.2476205899999999 8.1216346000000001 O
atom 2.7509224500000000 6.4259996399999997 8.1661143799999998 O
atom 3.0841565499999999 1.3935181299999999 0.1771325400000000 O
atom 2.7117963600000001 1.4222191000000000 5.4865063899999997 O
atom 2.8954473900000002 6.5083442299999996 0.3420702300000000 O
atom 2.8210894799999999 6.4226894300000001 5.5225625699999998 O
atom 2.3538962099999998 4.0852513500000001 3.0773767599999999 O
atom 2.2557124200000001 3.8160666700000001 8.2895413399999995 O
atom 2.2052925900000000 9.4031082599999998 2.5992681700000002 O
atom 2.2311421600000001 8.9850940900000005 8.0646575299999999 O
atom 2.4930029100000000 3.7575983200000000 0.2869725300000000 O
atom 2.2284692200000000 3.8919187499999999 5.7148749099999998 O
atom 2.4594992300000000 9.0565934699999993 0.0892542900000000 O
atom 2.2454894099999998 9.1592856800000000 5.4993813400000002 O
atom 5.3943371999999998 1.7066225500000001 1.5859315700000001 O
atom 5.3032450799999999 1.7072302900000000 6.8507542900000002 O
atom 5.3470390600000002 6.9199791700000004 1.5589258900000000 O
atom 5.3724815100000001 6.8755439999999997 6.7992374000000000 O
atom 5.3119149700000001 0.8489005800000000 4.1689363500000001 O
atom 5.4214213100000004 0.8620768200000000 9.4024306299999996 O
atom 5.3180386300000002 5.9954905199999997 4.1983328499999999 O
atom 5.4083724200000001 6.0253676900000004 9.4278406799999992 O
atom 9.7243655800000006 3.5721669999999999 2.1504070799999999 O
atom 9.7741362299999999 4.1349713499999998 7.1013601700000004 O
atom 9.7997067100000006 9.5934942799999998 1.6555928300000000 O
atom 9.7083263800000008 9.4617815000000007 6.7334386400000001 O
atom 9.7491257800000000 3.7913021100000002 4.5706611700000002 O
atom 9.8649035499999993 3.6058735099999999 9.8472243400000004 O
atom 9.5181365499999995 8.6567724199999994 4.2377721499999996 O
atom 9.7087242499999995 8.6395040099999996 9.3400929000000001 O
atom 7.8460042300000001 1.2789412099999999 9.8554096999999992 O
atom 7.7517573600000000 1.2949397899999999 4.6437819700000000 O
atom 7.8745074300000004 6.4560770900000000 9.9244071399999996 O
atom 7.7147815499999997 6.4380477100000002 4.6538063000000003 O
atom 7.7863837699999996 1.2930915400000000 2.0100828399999999 O
atom 7.7439197699999998 1.3196014300000001 7.2348039999999996 O
atom 7.7812845199999998 6.4687740099999997 2.0194497700000000 O
atom 7.8105297800000004 6.4279556600000003 7.3032293700000004 O
atom 7.3314722699999999 3.8401883600000000 9.8883043100000005 O
atom 7.2334148699999998 3.8177213900000000 4.6688179300000003 O
atom 7.3033902099999999 9.0260480300000001 9.8150032399999994 O
atom 7.1182056200000003 8.9974728299999995 4.5805377399999996 O
atom 7.2599423200000004 3.8887348500000001 1.9861849499999999 O
atom 7.2840060099999997 3.9148485000000002 7.2802390600000004 O
atom 7.3146769400000000 9.0331075799999994 1.9783421900000000 O
atom 7.2739841299999997 9.0284619900000003 7.2010705200000000 O
