lattice_vector 10.0883212199999992 0.0013786800000000 0.0090886700000000 
lattice_vector 0.0254988500000000 10.3116912500000009 0.0199599900000000 
lattice_vector 0.0140666400000000 -0.0124698700000000 10.4653216800000006 
atom 1.5207888100000000 0.0433320600000000 1.8960614600000001 Hf
atom 1.4032540300000000 0.1602125000000000 7.0240857600000002 Hf
atom 1.4600436800000001 5.4305780199999996 1.8415239500000000 Hf
atom 1.4235644500000000 5.3879604199999998 7.0223959200000001 Hf
atom 1.4231279200000000 2.3802462300000000 4.4195908299999997 Hf
atom 1.4024671099999999 2.5270199899999999 9.4493223099999994 La
atom 1.4320662300000000 7.5108044400000002 4.4685058800000004 Hf
atom 1.4214786500000001 7.4892272599999998 9.6562959999999993 Hf
atom 3.6365174599999999 2.8106419599999999 1.8152263700000000 Hf
atom 3.7411249899999999 2.7744450999999999 6.9873333200000003 Hf
atom 3.7205473699999998 7.8984190999999999 1.8052825100000001 Hf
atom 3.6864946600000001 7.9463112200000001 7.0717246300000003 Hf
atom 3.6695895100000002 4.9463671700000003 4.4329283300000002 Hf
atom 3.7464844099999999 4.9713114699999998 9.6573609000000005 Hf
atom 3.7349913600000000 10.0946269399999995 4.4827289900000000 Hf
atom 3.6409695700000002 10.0816948300000000 9.6566303399999995 Hf
atom 6.3603414300000001 0.1799987700000000 0.8280012100000000 Hf
atom 6.4931207799999999 0.2185838900000000 6.0786460499999997 Hf
atom 6.4958312200000004 5.3270053700000002 0.8642487800000000 Hf
atom 6.4716740599999998 5.3749073699999999 6.0684527900000003 Hf
atom 6.4072451099999999 2.3747985200000001 3.4899902400000000 Hf
atom 6.4843251100000003 2.3546064800000002 8.7207178699999996 Hf
atom 6.4871982600000004 7.5106737700000004 3.4549926599999998 Hf
atom 6.4717688200000003 7.5105826899999997 8.7027543099999995 Hf
atom 8.7963428799999992 2.6312478399999999 0.9751575000000000 La
atom 8.7085346799999996 2.7991994500000001 6.0853450100000002 Hf
atom 8.7117293199999999 7.9312870200000001 0.8287562900000000 Hf
atom 8.7084290499999994 7.9630280600000001 6.0585523400000003 Hf
atom 8.7342446000000002 4.9635188699999997 3.4864371099999998 Hf
atom 8.6609021399999992 4.9404898800000003 8.6765360299999994 Hf
atom 8.7008172199999994 10.1155519100000006 3.4313591699999999 Hf
atom 8.7049798500000009 10.0357231500000008 8.6829874000000000 Hf
atom 0.3605351300000000 1.6867132000000000 6.0959195099999999 O
atom 0.4015053900000000 6.9587837300000004 0.9646305200000000 O
atom 0.3723976400000000 6.9341933100000004 6.1623334700000001 O
atom 0.2433512200000000 1.1167690900000000 3.1573761199999999 O
atom 0.3497647000000000 0.6356630700000000 8.7711483000000001 O
atom 0.3903679200000000 6.0328149000000000 3.5926468800000002 O
atom 0.4090484000000000 5.8830576299999997 8.8104859900000001 O
atom 4.7395845699999999 4.2993857400000000 0.9248368700000000 O
atom 4.7549529300000000 4.2860202200000002 6.1005706899999996 O
atom 4.6748911399999997 9.4443412299999991 0.9150642300000000 O
atom 4.7737900800000004 9.4428792799999997 6.1615841400000004 O
atom 4.6767355500000001 3.4289887399999999 3.5285913199999999 O
atom 4.7389814899999996 3.3998757300000002 8.7622602199999999 O
atom 4.7632043900000003 8.6043704699999992 3.5147029999999999 O
atom 4.7340794500000003 8.6135111599999998 8.7650317599999994 O
atom 2.7855189899999999 1.2416901199999999 3.1611937399999999 O
atom 2.8921744100000000 1.1840704900000001 8.2174132800000006 O
atom 2.8326981400000002 6.4549854199999999 3.1346485700000000 O
atom 2.8094564200000001 6.4839622500000003 8.3584422699999994 O
atom 2.5840967699999999 1.2603300399999999 0.6168853900000000 O
atom 2.7942976399999999 1.2977418300000001 5.6990818100000000 O
atom 2.8363133800000000 6.4783848500000003 0.4927759100000000 O
atom 2.8157873599999999 6.4509131799999997 5.7387540399999999 O
atom 2.2651085599999998 3.8636377300000002 3.1034821199999998 O
atom 2.5027554900000002 4.0161778100000003 8.1647593000000001 O
atom 2.3223725000000002 8.9850399599999999 3.1293398699999999 O
atom 2.2716547000000000 8.9810901300000001 8.3417186500000007 O
atom 2.3378958999999999 3.9887160300000000 0.5371593500000000 O
atom 2.2812582199999998 3.8745121000000000 5.6681530200000001 O
atom 2.2825844399999999 8.9830636599999991 0.4835415600000000 O
atom 2.3219698000000002 9.0285102699999999 5.7322420500000000 O
atom 5.3170317599999999 1.7134665600000001 1.7616631000000000 O
atom 5.4603117699999997 1.7185437800000001 6.9785519899999997 O
atom 5.4342761599999996 6.8719515600000003 1.7555726500000000 O
atom 5.3931379000000002 6.8466421999999998 7.0122649800000003 O
atom 5.3941616899999998 0.8776740500000000 4.4131501499999999 O
atom 5.3030425799999996 0.8929515900000000 9.6388106400000009 O
atom 5.4138740099999998 6.0208406500000002 4.3692283300000003 O
atom 5.4303115699999998 6.0418925400000001 9.6283011900000002 O
atom 9.8322386900000005 4.4292897499999997 1.7813624600000000 O
atom 9.7825859400000006 4.3325781299999999 6.9202155000000003 O
atom 9.7540916899999992 9.6257561900000006 1.6040914100000001 O
atom 9.7518000899999997 9.4546513999999995 6.9220352099999998 O
atom 9.7599578200000003 3.4370651699999999 4.3637917799999997 O
atom 9.4473399699999998 3.2673940799999999 9.3266151799999992 O
atom 9.8301658399999994 8.6604606000000004 4.3224990500000002 O
atom 9.7244875799999999 8.4615768800000009 9.5339236300000003 O
atom 7.7399952799999996 1.1216031600000000 9.9786589499999998 O
atom 7.8676002000000000 1.2794223000000000 4.7858675599999998 O
atom 7.8745959200000000 6.4089846899999996 10.0305737700000002 O
atom 7.8624289300000001 6.4456403699999996 4.7812049300000004 O
atom 7.5895796899999999 1.1490944999999999 2.2621280399999999 O
atom 7.8706158899999998 1.2849479300000000 7.3956226200000001 O
atom 7.8759899300000002 6.4445728799999999 2.1718497299999999 O
atom 7.8480787400000001 6.4715553100000003 7.3844007300000003 O
atom 7.1939355500000000 3.8762834900000001 10.0118387500000008 O
atom 7.3300875300000001 3.8550016000000000 4.8110031800000002 O
atom 7.2931953299999996 8.9470871800000005 10.0345185499999996 O
atom 7.3520564799999999 9.0229067900000004 4.7669288999999999 O
atom 7.2873983899999999 3.9057027299999998 2.2642678100000002 O
atom 7.3113193499999998 3.8797210700000000 7.3871752500000003 O
atom 7.3865449400000003 8.9768927000000005 2.1677851399999999 O
atom 7.3238256399999999 9.0092602599999996 7.3881934100000004 O
