lattice_vector 9.9467747200000005 -0.0620278200000000 0.0586661000000000 
lattice_vector 0.0022364900000000 10.4125862500000004 -0.0388279900000000 
lattice_vector 0.0305764400000000 -0.0492807200000000 9.9991735800000008 
atom 1.1855437200000001 0.3745262400000000 1.1225809099999999 Si
atom 1.3150023500000001 0.2214102700000000 6.2197190200000003 Hf
atom 1.3476089499999999 5.3504260800000001 1.2272338599999999 Hf
atom 1.3799561800000000 5.3081880100000003 6.1989714200000003 Hf
atom 6.2965986599999999 0.1472834300000000 1.3450951600000001 Hf
atom 6.2641105200000000 0.0775830400000000 6.2768172099999999 Hf
atom 6.3267194000000000 5.3586365599999999 1.2738931099999999 Hf
atom 6.3542272300000002 5.3191276399999996 6.2768520900000002 Hf
atom 1.3389067699999999 2.3617577299999999 3.6614596800000001 Hf
atom 1.3306852000000000 2.4202582700000002 8.7587444500000000 Hf
atom 1.3414311999999999 7.5445178799999999 3.8057121299999999 Hf
atom 1.3314648800000000 7.7985366799999998 8.6952445699999998 La
atom 6.3240364600000003 2.3632767600000002 3.8115249699999998 Hf
atom 6.3402509199999999 2.3840161700000002 8.7632724599999996 Hf
atom 6.3629411500000002 7.5824402299999996 3.7683754700000001 Hf
atom 6.3156664600000001 7.5970903999999999 8.7957975400000006 Hf
atom 3.6931064999999998 2.7552870800000000 1.1916981400000000 Hf
atom 3.6756092599999999 2.7299488200000002 6.2410578100000000 Hf
atom 3.6420333600000001 7.9204993300000002 1.2982592300000000 Hf
atom 3.7638664500000001 7.8837604199999998 6.2180144100000003 Hf
atom 8.6084799400000005 2.7279584899999998 1.2702230000000001 Hf
atom 8.6248731200000002 2.6918668900000000 6.2776626200000001 Hf
atom 8.6917703300000007 7.9333676500000001 1.2998801700000000 Hf
atom 8.6376225400000006 7.9202662999999998 6.2488819900000001 Hf
atom 3.6779676499999998 4.9758148000000002 3.7397504200000000 Hf
atom 3.6559708099999999 5.0234382100000001 8.7454382699999993 Hf
atom 3.5989908399999999 10.1619303300000006 3.7176893400000002 Hf
atom 3.6684444900000002 10.2773888299999996 8.8689500799999994 Hf
atom 8.6336825699999995 4.9344785000000000 3.7694938400000000 Hf
atom 8.6353892200000004 4.9689755299999998 8.7828020400000000 Hf
atom 8.6725882599999995 10.1952098299999996 3.7233923600000001 Hf
atom 8.5778770600000005 10.1816254599999994 8.8015235700000005 Hf
atom 0.3872076600000000 1.8646794000000000 1.7831642100000000 O
atom 0.3202781000000000 1.8774707399999999 6.9894978300000004 O
atom 0.3865890600000000 7.1155923200000002 1.9319361300000000 O
atom 0.4059510200000000 7.0613217900000000 6.6150463700000000 O
atom 5.2560181699999999 1.8550651800000000 2.0608828300000002 O
atom 5.3145897000000000 1.8265630700000000 7.0014842899999996 O
atom 5.3473009600000001 7.0947174100000003 1.9849280700000000 O
atom 5.4281845999999998 7.0695248700000004 6.9518013400000003 O
atom 0.3433327800000000 0.6926150000000000 4.4935808100000001 O
atom 0.3783486100000000 0.6105786800000000 9.5682950400000006 O
atom 0.4190666200000000 5.7515308100000002 4.3369002300000004 O
atom 0.3197549700000000 5.8175921500000003 9.4945639600000007 O
atom 5.3224998399999999 0.6314034800000000 4.4921089399999996 O
atom 5.2895915000000002 0.7165952900000000 9.5880287899999992 O
atom 5.3732832300000002 5.8529316900000001 4.4578358600000003 O
atom 5.3750667900000000 5.8461648200000003 9.4390232800000007 O
atom 4.6422949600000001 4.4849192300000000 1.9252856899999999 O
atom 4.6617426999999996 4.4524757900000003 6.9313837300000003 O
atom 4.6772160200000004 9.6598916199999998 1.9866602000000000 O
atom 4.5676319599999999 9.6580652499999999 7.0232113800000002 O
atom 9.6168092200000004 4.3921492300000002 1.9910048600000001 O
atom 9.6203666099999996 4.4207818400000001 6.9736486199999996 O
atom 9.8770263499999995 9.7552389200000000 1.9066207500000001 O
atom 9.7816315100000004 9.5366307999999993 7.1309324099999998 O
atom 4.6647516500000004 3.2572809199999999 4.4833928600000004 O
atom 4.6480286900000003 3.2633609899999998 9.4339784000000009 O
atom 4.7147020299999998 8.4842794099999992 4.5031196900000001 O
atom 4.5065305699999998 8.4499755800000003 9.4097114499999996 O
atom 9.5914292499999991 3.1442757700000001 4.4421608600000004 O
atom 9.5697641400000002 3.1710495700000001 9.4493508300000002 O
atom 9.6049852399999995 8.4522208600000006 4.4294596500000001 O
atom 9.3410225100000002 8.4380599299999997 9.4997769299999995 O
atom 2.3880947600000000 0.8613473100000000 2.4194078800000001 O
atom 2.6663646999999999 1.1070000700000000 7.5196418700000001 O
atom 2.6745988000000001 6.2722572200000002 2.4945312799999999 O
atom 2.7808220800000001 6.3545809499999999 7.4132234600000002 O
atom 7.6865275400000002 1.1793543600000000 2.5262515300000001 O
atom 7.6474074999999999 1.1346826000000001 7.5151063300000001 O
atom 7.6912460100000004 6.3533853400000000 2.5286985400000002 O
atom 7.7232307499999999 6.3836278399999999 7.5363707099999999 O
atom 2.7120825300000000 1.3645676499999999 4.9301348500000000 O
atom 2.6093860699999998 1.4094955600000001 10.0384098000000002 O
atom 2.7620791499999999 6.5159736400000003 4.9605717499999997 O
atom 2.7917651800000001 6.4707774300000001 10.0420551099999997 O
atom 7.6688905600000004 1.2901586899999999 5.0321669900000003 O
atom 7.6485106900000002 1.3103918400000001 10.0253853900000003 O
atom 7.7111386900000003 6.5140751100000003 5.0163431200000002 O
atom 7.6625571700000004 6.5398234100000003 10.0526461600000001 O
atom 2.3037376100000002 3.9119428900000002 4.9479808399999996 O
atom 2.2975330999999999 3.9465857099999999 9.9512324700000008 O
atom 2.3189498300000002 9.1336108100000004 5.1836536999999998 O
atom 2.2683675299999999 9.4536826000000005 10.3006242599999993 O
atom 7.2883956500000000 3.9091528200000001 5.0252568300000000 O
atom 7.2822473900000002 3.9096270199999998 10.0187157899999999 O
atom 7.3174758100000004 9.1401920899999993 4.9946093999999999 O
atom 7.1173058200000003 9.1642871199999991 9.9960264100000007 O
atom 2.3559856199999998 3.6813585999999998 2.4526291200000001 O
atom 2.3174677799999999 3.7498816300000000 7.4716643100000004 O
atom 2.5167445900000001 8.7254403400000005 2.7335926399999999 O
atom 7.2456922600000002 3.7583958499999999 2.5154814900000000 O
atom 7.2725061899999996 3.7535882500000000 7.5081317900000002 O
atom 7.3775389200000001 8.9944458500000000 2.4945264900000002 O
atom 7.2851488199999999 8.9885918000000000 7.4946500199999999 O
