lattice_vector 10.0839751399999997 0.0504316700000000 0.7928350199999999 
lattice_vector 0.0623005200000000 10.2690983899999999 0.0179085200000000 
lattice_vector 0.8254127600000000 0.0114611000000000 10.4371247399999998 
atom 1.3730415000000000 0.1331090300000000 1.8043573200000000 Si
atom 1.9000984000000001 0.2493167000000000 6.8357865499999999 Hf
atom 1.5953416199999999 5.3797374800000002 1.6480770100000000 Hf
atom 1.9689143400000000 5.3350254799999997 6.8508259999999996 Hf
atom 6.5815102899999998 0.2600009500000000 2.0257071299999998 Hf
atom 6.9675936299999996 0.2908833100000000 7.2712883499999998 Hf
atom 6.5589299099999998 5.3431803200000001 1.9941475000000000 Hf
atom 6.9253172400000000 5.3654880299999999 7.3400180700000002 Hf
atom 1.7216243600000001 2.3442850499999999 4.1712754600000004 Hf
atom 2.1894257300000000 2.3160979199999998 9.4496019499999999 Hf
atom 1.7696054699999999 7.4920481800000003 4.2756453900000002 Hf
atom 2.1536602299999998 7.4828269100000000 9.4591607300000007 Hf
atom 6.7682437499999999 2.3858739199999999 4.6111435500000004 Hf
atom 7.2047061699999997 2.4105915900000001 9.8798159900000009 Hf
atom 6.7493585899999999 7.5991223200000002 4.5871642000000001 La
atom 7.1883121200000000 7.5441978399999998 9.8910291400000006 Hf
atom 3.7110573100000002 2.7565251599999998 1.3265930399999999 Hf
atom 4.1361088099999996 2.8064741299999998 6.5808348199999998 Hf
atom 3.7326162799999998 8.0263458599999993 1.4183880900000001 Hf
atom 4.1392140499999996 7.9668725499999997 6.6802226800000000 Hf
atom 8.8896098699999992 2.7473163999999999 1.7885571700000000 Hf
atom 9.1907003799999991 2.8557782899999999 6.9765977699999997 Hf
atom 8.8715609200000003 7.9864041800000001 1.7747393300000001 Hf
atom 9.2660806999999998 8.0196369500000007 7.0784129599999996 Hf
atom 3.9615351300000001 4.9147760500000004 3.9645574799999999 Hf
atom 4.3559252400000004 4.9510386999999998 9.2444444400000005 Hf
atom 3.9230258400000002 10.0995283100000002 3.9553811900000002 Hf
atom 4.4123958800000000 10.1578197600000006 9.2503966000000002 Hf
atom 9.0419093299999993 4.9147514499999998 4.2801259700000003 Hf
atom 9.4323717100000000 4.9467247600000004 9.6202474299999992 Hf
atom 9.0785589400000006 10.1231499899999999 4.4141111200000003 Hf
atom 9.4347173000000009 10.1256015700000006 9.6365959900000000 Hf
atom 0.6215164700000000 1.4969118299999999 0.9061934600000000 O
atom 0.8038980500000000 1.6934230699999999 5.9926183200000001 O
atom 0.4869381900000000 6.8475812500000002 0.8477752700000000 O
atom 0.8383086400000000 6.8209059200000004 6.0791170299999999 O
atom 5.4941856900000001 1.7747156300000000 1.2717911500000001 O
atom 5.9181298900000003 1.8208683500000000 6.4845473199999999 O
atom 5.5165745900000003 6.9558908199999996 1.3252791100000001 O
atom 5.8751475700000002 6.9024057299999999 6.6504611499999999 O
atom 0.6954998900000000 0.7616589200000000 3.3752652599999999 O
atom 1.0233123200000001 0.8801713300000000 8.6539900000000003 O
atom 0.6680442700000000 5.9621633100000002 3.4692817100000002 O
atom 1.0596630700000000 6.0054923400000000 8.6859324900000008 O
atom 5.6827963500000003 0.8375542100000000 3.8792752099999999 O
atom 6.1478013799999998 0.8546548200000000 9.1150396100000002 O
atom 5.7366529300000000 5.7545302200000004 3.8432930000000001 O
atom 6.1156344400000000 5.9838051900000000 9.1859728000000000 O
atom 4.7960317799999999 4.3287409700000001 2.0739398699999998 O
atom 5.2122121500000000 4.3188089800000000 7.4002446500000003 O
atom 4.9245257699999998 9.4317178800000008 2.2265529200000000 O
atom 5.2822532500000001 9.5023325900000000 7.3773015900000001 O
atom 9.9942752600000002 4.2519732200000000 2.5716508199999999 O
atom 10.3259948999999995 4.3036250300000001 7.8077403700000003 O
atom 10.1090184000000001 9.4685419000000000 2.5949734100000001 O
atom 10.3341600200000006 9.4784611000000005 7.8388768899999999 O
atom 5.0084261400000001 3.3700654700000001 4.7436832799999999 O
atom 5.5213914800000001 3.4918266800000000 9.9863103599999992 O
atom 4.7646652800000000 8.5405102999999993 4.8030969299999997 O
atom 5.4126622299999996 8.5802516799999999 10.0235782499999999 O
atom 10.0850386099999998 3.4182567900000000 5.1378817699999999 O
atom 10.5637635799999998 3.4609846900000001 10.4573807399999996 O
atom 10.0631358100000003 8.5139534099999992 5.1777173799999998 O
atom 10.5479874900000006 8.6288004600000008 10.4137136699999999 O
atom 2.8119025500000001 1.1848078099999999 2.4822242000000001 O
atom 3.3739016999999998 1.3232389000000000 7.8468497800000003 O
atom 3.0211140699999999 6.5025084599999996 2.7525308300000000 O
atom 3.3935223400000001 6.4646020799999997 7.9749258100000002 O
atom 8.0551247900000007 1.3589650099999999 3.1309054700000001 O
atom 8.4645378900000008 1.3912383699999999 8.3388518499999993 O
atom 8.1645207200000005 6.4174423699999998 3.0264600200000000 O
atom 8.4549779300000001 6.4953493099999999 8.2813065199999993 O
atom 3.1807572300000002 1.2777466500000001 5.2500156300000000 O
atom 3.8380519999999998 1.5200759100000001 10.2947241999999992 O
atom 3.2159005199999999 6.3612726500000001 5.3729108800000001 O
atom 3.6493916099999999 6.4913548800000003 10.5787960699999992 O
atom 8.2449319200000009 1.3572695699999999 5.7111594400000003 O
atom 8.6887019700000003 1.2928280900000000 10.9779217500000001 O
atom 8.6758787900000005 6.4376325300000001 10.9103774399999995 O
atom 2.2867107000000000 3.9701678800000000 0.2715429700000000 O
atom 2.6611533800000000 3.8810766999999999 5.4845120100000004 O
atom 2.3124051699999999 9.4368512100000004 0.5184924200000000 O
atom 2.5647906800000002 9.0397662299999997 5.5728717999999997 O
atom 7.3946592999999998 3.8966554400000000 0.6894868400000000 O
atom 7.7801284099999997 4.1057321199999999 5.8688282799999998 O
atom 7.3484452700000000 9.0716214799999992 0.6840341599999999 O
atom 7.8836430499999999 9.1836432600000002 5.9987978499999999 O
atom 2.5135606199999998 3.7644748200000002 2.8777442700000000 O
atom 2.9022360100000002 3.8090581100000001 8.1175866499999998 O
atom 2.4269102100000000 8.9947972600000003 2.9109771800000002 O
atom 2.9415277999999998 8.9715664400000001 8.2084915100000000 O
atom 7.5853063499999998 3.7857676499999999 3.2414428200000001 O
atom 7.9551047400000003 3.8516203000000000 8.5213715800000003 O
atom 7.7707117400000003 9.1092576699999999 3.1826892500000001 O
atom 7.9734139400000004 8.9959176299999992 8.5672479300000006 O
