lattice_vector 10.1354038200000005 0.0790131800000000 0.7413818900000000 
lattice_vector 0.0287227300000000 10.2706318499999991 0.0565316300000000 
lattice_vector 0.8540852400000000 0.0490313800000000 10.5176667399999992 
atom 1.2461895700000001 0.3914241800000000 2.2099384999999998 Si
atom 1.9356370599999999 0.2719310000000000 6.8347718000000004 Hf
atom 1.6003066200000000 5.1498797100000004 1.7653607899999999 Hf
atom 1.9651932900000000 5.3868498000000002 6.9443559300000004 Hf
atom 6.6463963499999998 0.2304887600000000 2.0060999200000000 Hf
atom 7.0432345700000001 0.3081859600000000 7.2936077800000003 Hf
atom 6.5746752300000004 5.3080608299999996 2.0052213399999999 Hf
atom 7.0243919799999999 5.4502373700000000 7.3400301299999997 Hf
atom 1.7339906400000000 2.4599512699999999 4.3559388900000000 Hf
atom 2.2733084500000000 2.2714314999999998 9.5820212999999992 Hf
atom 1.6807922900000001 7.5646086199999996 4.2897645600000001 Hf
atom 2.2727796200000001 7.6820342400000001 9.2836770400000006 Hf
atom 6.7925527900000002 2.4357981500000001 4.6741101000000000 Hf
atom 7.3026306099999996 2.4236732800000000 9.9223085100000006 Hf
atom 6.7751060200000000 7.5312441899999998 4.6582030799999998 Hf
atom 7.3332062400000000 7.5577596399999996 9.9396493199999991 Hf
atom 3.8005047200000002 2.6927159199999999 1.3337850200000001 Hf
atom 4.2047768400000001 2.8463989500000002 6.6701990300000000 Hf
atom 3.6969726199999999 7.9664845299999998 1.3676784000000000 La
atom 4.2160513599999998 7.9972746299999997 6.5584026000000000 Hf
atom 8.9077964400000003 2.7575075999999998 1.7944827900000000 Hf
atom 9.2362226700000001 2.9237119400000000 7.0463864400000000 Hf
atom 9.0927480700000007 7.8446286900000004 1.9351879900000000 La
atom 9.2392495900000000 8.0171608400000007 7.0496422200000000 Hf
atom 3.9781128899999998 4.9892432400000004 4.0547996499999996 Hf
atom 4.4075581799999997 4.9509545900000003 9.2835490600000004 Hf
atom 3.9740232500000001 10.1677248000000002 3.9954696500000000 Hf
atom 4.4748771100000004 10.1213347200000001 9.2176520300000000 Hf
atom 8.9828200200000001 5.0528597800000004 4.3903452500000002 Hf
atom 9.5558783199999997 4.9495209200000003 9.6977205600000005 Hf
atom 8.9555056499999992 10.1604873599999994 4.5069623099999996 Hf
atom 9.5247236900000001 10.1326768600000001 9.6875877900000003 Hf
atom 0.6645256700000000 1.5776191500000001 1.0429617799999999 O
atom 0.8288639300000000 1.7834831300000000 6.1156133099999996 O
atom 0.7933831099999999 6.7658536600000003 6.0004337999999997 O
atom 5.5755858900000002 1.7465496700000001 1.1994172900000000 O
atom 5.9297937200000002 1.8026311500000001 6.4953391700000003 O
atom 5.6180639200000000 6.7736157199999996 1.1310482300000000 O
atom 5.9052564900000002 6.8747126999999999 6.4464126799999999 O
atom 0.5323877600000000 0.9913282200000000 3.6176245400000000 O
atom 1.1135115799999999 0.8505501700000000 8.7273899400000001 O
atom 0.3748660300000000 6.3606650399999998 3.0649601500000001 O
atom 1.0756599499999999 6.0438828500000001 8.7363090600000000 O
atom 5.6559287300000003 1.0174513900000000 3.8532973699999999 O
atom 6.1966044499999997 0.9685809000000000 9.0701408699999995 O
atom 5.5763182699999998 6.1239397400000000 3.8045747900000002 O
atom 6.0781841900000000 6.1239693199999996 9.1030052399999999 O
atom 4.8343568000000001 4.2610019499999998 2.2260549200000002 O
atom 5.3101726800000000 4.3189310200000000 7.5172648999999998 O
atom 4.9076098000000004 9.6249313300000008 2.2703784100000002 O
atom 5.3567615399999999 9.5015658999999992 7.3680787499999996 O
atom 9.9299566899999991 4.3858341599999999 2.5397721700000000 O
atom 10.4160988499999991 4.3337053399999999 7.8722674300000000 O
atom 10.1043130800000007 9.7179889799999994 2.7422165500000002 O
atom 10.4248754199999993 9.4838408800000007 7.8183859800000004 O
atom 5.1073366499999997 3.5446178399999999 4.8842353300000001 O
atom 5.6152018899999998 3.5727416500000002 10.1111929899999993 O
atom 5.0571706100000000 8.6354048799999994 4.7658593400000004 O
atom 5.6862739600000003 8.7146741300000006 9.9468430899999998 O
atom 10.2048256899999998 3.6930061900000002 5.2385933500000004 O
atom 10.6889070700000008 3.4695380500000002 10.5508355799999993 O
atom 10.1124819600000002 8.7040327800000004 5.2547926399999998 O
atom 10.6596213599999992 8.6066831199999996 10.3570542200000002 O
atom 2.7361252000000000 1.3151601300000000 2.6323514000000001 O
atom 3.4147672400000002 1.3553896299999999 7.9074407100000004 O
atom 2.8156125099999998 6.3832842599999999 2.9116825999999998 O
atom 3.4860487500000001 6.5052851100000000 7.9730268200000003 O
atom 8.0636873500000004 1.3702341300000001 3.1376611500000000 O
atom 8.5673058999999991 1.4328783700000001 8.3839641199999999 O
atom 7.8668908899999996 6.3963795000000001 3.2224652800000002 O
atom 8.5064098799999996 6.5323049099999997 8.3928742700000001 O
atom 3.2168795900000000 1.3404000300000001 5.3138614600000000 O
atom 3.9103724799999999 1.3996691400000001 10.4366690599999998 O
atom 3.1908767400000002 6.4555448400000000 5.4084118099999996 O
atom 3.0586709800000000 6.3819366300000002 10.6951458699999993 O
atom 8.2831265199999997 1.3628549500000000 5.7757375599999996 O
atom 8.8207928500000001 1.3276762400000000 11.0201717400000003 O
atom 8.2868138800000004 6.4880680699999997 5.7703502300000000 O
atom 8.7920420499999992 6.3359968599999998 11.0037181200000003 O
atom 2.3752315799999999 3.8438715600000002 0.3232622800000000 O
atom 2.7193811499999998 3.9519299999999999 5.5901468599999999 O
atom 2.2665689200000001 9.0532795000000004 -0.0619529900000000 O
atom 2.6909098899999999 9.0927708400000000 5.4588424199999999 O
atom 7.4402865499999997 3.8390548700000000 0.7254424600000000 O
atom 7.7763959800000002 4.0068971800000002 5.9580757300000000 O
atom 7.3930578300000001 9.0923394500000008 0.6668069900000000 O
atom 7.7582978499999999 9.1065722699999991 5.9798778199999996 O
atom 2.5181627400000002 3.7985223100000001 2.9603300400000001 O
atom 2.9599157300000001 3.8272162000000001 8.2300861100000002 O
atom 2.2450272400000002 9.2481793200000002 2.9295839199999998 O
atom 3.0116638000000000 9.0122897099999992 7.9606809700000003 O
atom 7.6361004799999996 3.8264157399999998 3.3373785900000001 O
atom 8.0350465300000007 3.9146813499999999 8.5920117299999994 O
atom 7.5805551500000004 9.0381359200000002 3.4075002599999999 O
atom 8.0851453499999995 9.0461542999999995 8.5633585599999993 O
