lattice_vector 10.1803677700000001 -0.0338033800000000 0.8399375600000000 
lattice_vector -0.0222351100000000 5.1777897299999998 0.0160567200000000 
lattice_vector 0.8014037600000000 0.0382051900000000 10.3743118800000005 
atom 1.4257321599999999 0.0853107600000000 1.5106910499999999 La
atom 1.9245384600000000 0.2343466800000000 6.8252305599999996 Hf
atom 6.6799324000000002 0.1763448200000000 2.0868318800000001 Hf
atom 7.0448276099999996 0.2322301900000000 7.2355218099999998 Hf
atom 1.7046468100000001 2.3599550400000000 4.2243830800000000 Hf
atom 2.0354300300000001 2.4650648999999998 9.3417554200000001 Hf
atom 6.7554527499999999 2.3626207899999998 4.6755893400000001 Hf
atom 7.2622894200000001 2.3607992800000002 9.8376113499999995 Hf
atom 3.8876547000000001 2.8188090400000001 1.4504066600000001 Hf
atom 4.1203949499999997 2.7841698199999998 6.5483391400000004 Hf
atom 8.8008156100000008 2.7766777700000000 1.8252185800000000 Hf
atom 9.2720572699999995 2.8223979500000000 6.9960096600000004 Hf
atom 3.9253126900000002 4.9772902099999996 3.9921370399999998 Hf
atom 4.4458195800000002 4.8601954799999998 9.0704297199999999 Hf
atom 8.9673593399999998 4.9682053799999997 4.4623288900000002 Hf
atom 9.4147424900000001 4.9758491800000000 9.5969761899999995 Hf
atom 0.5141371700000000 2.1291658700000000 0.9004040500000000 O
atom 0.8747780400000000 1.8727912499999999 6.1591413399999997 O
atom 5.5702745199999999 1.7153811200000000 1.3026742899999999 O
atom 5.8727391400000002 1.7279087500000001 6.5020390499999996 O
atom 0.5583644700000000 0.8345593000000000 3.6146117900000001 O
atom 1.0771144399999999 0.7677394100000000 8.7520791300000003 O
atom 5.7223156800000003 0.8063058300000000 3.9027086400000002 O
atom 6.1399864900000001 0.8217340200000000 9.0711216799999992 O
atom 4.8660396700000002 4.3688235400000002 2.1558900599999999 O
atom 5.2794634299999998 4.2981012999999999 7.3185765500000004 O
atom 9.5094300000000000 4.5132684699999999 2.5078128000000000 O
atom 10.3025326100000001 4.4272996200000003 7.7203680500000003 O
atom 5.0017847399999997 3.3984489600000001 4.7538058999999997 O
atom 5.5806880699999999 3.4188317499999998 9.9389932900000009 O
atom 10.1146715399999998 3.3899256499999999 5.1247019600000003 O
atom 10.4500842699999996 3.3658091699999999 10.2418819699999997 O
atom 3.0794708200000001 1.3401178100000000 2.7270511599999998 O
atom 3.4150301299999999 1.3484510500000000 7.9974723399999998 O
atom 8.0543261699999995 1.3748111300000001 3.2032372800000002 O
atom 8.5078905700000007 1.3420663100000001 8.3453702399999994 O
atom 3.1748427900000000 1.2586497000000001 5.3465699500000001 O
atom 8.2539074800000005 1.2691045900000000 5.7841978999999997 O
atom 8.7198888599999993 1.2425544500000001 10.9545297000000001 O
atom 2.5002063600000000 3.7249098900000002 0.1159942300000000 O
atom 2.6560252100000001 3.9634211499999998 5.4791853399999999 O
atom 7.3579073499999996 3.8900607900000002 0.7101006700000000 O
atom 7.7615096499999998 3.9316455299999999 5.9297162700000001 O
atom 2.5783715800000002 3.7506656000000000 2.9281217499999999 O
atom 2.8690599899999998 3.8602243299999999 8.0007227699999994 O
atom 7.4155104700000001 3.8169147500000000 3.3712478899999998 O
atom 7.9892212999999996 3.8371630200000002 8.4859658099999997 O
