lattice_vector 10.0564559700000000 -0.0051563400000000 0.1603981500000000 
lattice_vector -0.0048646400000000 10.3580797499999999 -0.0278087600000000 
lattice_vector 0.0398097700000000 0.0008889200000000 10.0696908199999999 
atom 0.9389882400000000 0.2763428400000000 0.8139013500000000 Si
atom 1.3502398200000001 0.1747315200000000 6.3376568300000002 Hf
atom 1.3371956199999999 5.3374790200000000 1.2480416800000000 Hf
atom 1.3704889600000001 5.3471700100000001 6.2800612500000002 Hf
atom 6.4649191799999999 0.2196724400000000 1.4322995599999999 Hf
atom 6.3706221300000001 0.1544420200000000 6.3438158800000002 Hf
atom 6.4363524300000003 5.3434483400000001 1.4302417999999999 Hf
atom 6.3803209499999998 5.3123183000000003 6.3513983999999999 Hf
atom 1.4483147800000000 2.3395582600000000 3.7384534000000000 Hf
atom 1.3321151099999999 2.5098022200000001 8.8013130299999993 Hf
atom 1.4196596300000000 7.6127773300000001 3.7842189799999999 Hf
atom 1.2516143500000001 7.6290464699999996 8.7967101799999998 Hf
atom 6.3908278699999999 2.4307356800000002 3.8785176799999999 Hf
atom 6.4182809499999998 2.4150557600000000 8.9422306999999996 Hf
atom 6.4449981699999999 7.6164122299999999 3.8917828999999999 Hf
atom 6.6069217099999999 7.4616771399999999 8.8037843500000008 Hf
atom 3.6899986600000001 2.7606023700000000 1.3481325399999999 Hf
atom 3.7019356700000001 2.7617304699999998 6.3564984000000004 Hf
atom 3.7359839600000000 7.8994235100000001 1.2988762700000001 La
atom 3.7064573200000002 7.9125943599999999 6.3337881500000002 Hf
atom 8.7434009499999998 2.7336822199999999 1.4128449900000000 Hf
atom 8.7445157800000004 2.7327895899999999 6.3750074699999999 Hf
atom 8.7802121100000008 7.8928799600000001 1.3510886099999999 Hf
atom 8.7939742200000008 7.9466325500000004 6.3208548100000002 Hf
atom 3.7054279600000002 5.0019477900000000 3.8365191699999999 Hf
atom 3.6987894300000002 5.0603817199999996 8.8394643199999994 Hf
atom 3.6698464000000000 10.1963834999999996 3.8219222500000001 Hf
atom 3.6798107899999999 10.3343260000000008 8.9232419099999998 La
atom 8.7806229299999998 4.9882466499999998 3.9136621100000002 Hf
atom 8.7487343000000006 4.9429596499999997 8.9284767899999995 Hf
atom 8.8042979199999998 10.2231827000000006 3.8364163100000002 Hf
atom 8.5980459800000002 10.1564947100000005 8.8597303600000004 Hf
atom 0.4273829600000000 1.6825918399999999 1.8324827500000000 O
atom 0.3089596200000000 1.9057007699999999 7.0153407300000001 O
atom 0.3852116200000000 7.0980189700000000 1.9434345200000001 O
atom 0.3579649900000000 7.0717264100000001 6.9669532500000004 O
atom 5.4983479199999996 1.9940950399999999 2.0475449600000002 O
atom 5.2949114100000001 1.8059251599999999 7.2052687500000001 O
atom 5.5865729599999998 7.0207758199999999 2.1807431400000001 O
atom 5.3885763400000002 6.9932698400000000 7.1825106600000002 O
atom 0.4131476800000000 0.6673527800000000 4.4955034700000001 O
atom 0.2706534100000000 0.6844998700000000 9.4082510599999996 O
atom 0.3582104000000000 5.8699009499999999 4.5132417699999996 O
atom 0.2925598300000000 5.8729476199999997 9.5250763700000007 O
atom 5.4024174199999999 0.7350552800000000 4.6163657200000001 O
atom 5.5551131199999997 0.7596255700000000 9.7813032000000000 O
atom 5.3980511499999997 5.8694033000000001 4.6064392200000004 O
atom 5.2667328299999996 6.1508261199999996 9.7272097100000003 O
atom 4.6833173300000004 4.4999772699999996 2.0482815599999999 O
atom 4.7127463599999997 4.4597055599999997 7.0888026300000000 O
atom 4.8318667800000004 9.7673349199999997 2.1268020299999999 O
atom 4.7958797700000000 9.5064554599999997 7.0431493200000004 O
atom 9.7543051999999992 4.4044023399999999 2.1157531800000000 O
atom 9.7395761499999995 4.4574688299999998 7.1437310700000003 O
atom 9.8012485300000005 9.7236329599999998 1.8181183200000000 O
atom 9.6995795200000003 9.6675095399999993 7.1031095999999998 O
atom 4.7258503799999998 3.3052247700000001 4.6039790399999996 O
atom 4.6882251300000002 3.3022312899999999 9.5615615399999996 O
atom 4.7493065799999998 8.4585079800000003 4.5694732299999998 O
atom 9.7498607899999996 3.2326178900000002 4.5701962399999996 O
atom 9.7171683099999999 3.2829824699999999 9.6913348500000005 O
atom 9.7459168900000002 8.4740962100000008 4.5460432600000003 O
atom 9.5217366499999994 8.4026450300000004 9.5177524499999997 O
atom 2.9756183400000000 1.3665086600000000 2.6784596199999999 O
atom 2.6132728900000002 1.3218267600000000 7.5738849699999999 O
atom 2.6345100000000001 6.2795361999999999 2.5698494799999998 O
atom 2.7158210299999999 6.3859009499999999 7.5217190000000000 O
atom 7.8246473600000002 1.2459698400000001 2.6483583600000000 O
atom 7.6933930000000004 1.1860928200000000 7.6326897799999998 O
atom 7.8801159299999997 6.3589192800000003 2.6208091499999999 O
atom 7.8014971800000001 6.3442014400000000 7.6346502799999998 O
atom 2.7131210200000000 1.3621359700000000 5.1225811600000002 O
atom 2.3630071099999999 1.4495949900000000 10.3038374600000004 O
atom 2.7542838600000001 6.5385151099999996 5.0312519900000003 O
atom 2.5994598600000001 6.5531203500000004 9.9487019500000002 O
atom 7.7860063700000000 1.3722170300000001 5.1147450000000001 O
atom 7.8758823700000002 1.3545521199999999 10.1747582199999993 O
atom 7.7540487400000000 6.5545310199999998 5.1461033599999997 O
atom 7.7844172699999996 6.4589421800000002 10.1718215700000005 O
atom 2.3391861999999999 3.9364131000000002 5.0311574999999999 O
atom 2.3663926100000001 4.0028536800000003 10.0548011299999995 O
atom 2.3539062400000001 9.1231523100000000 5.1554644999999999 O
atom 1.8984527000000000 9.2867540500000008 10.2400548300000001 O
atom 7.3912119100000000 3.9624885399999998 5.1188298899999998 O
atom 7.3553038400000004 3.9243967999999998 10.1720857099999993 O
atom 7.4323603399999998 9.1899148600000000 5.0706207699999997 O
atom 7.1459545400000000 9.0536310899999997 10.0967234999999995 O
atom 2.2967049500000001 3.8011867499999998 2.4980956299999999 O
atom 2.3340989200000002 3.8481925000000001 7.5591726699999997 O
atom 2.4044562599999999 8.9818007299999998 2.7344392599999998 O
atom 2.3019094700000000 8.9276530199999993 7.5874775100000003 O
atom 7.3837738599999998 3.8219642700000001 2.6243212300000001 O
atom 7.3660332899999998 3.7705317800000002 7.6255214000000002 O
atom 7.5150732800000002 8.9769685599999995 2.5816475300000001 O
atom 7.3794568099999998 8.9292371700000004 7.5564628200000001 O
