lattice_vector 10.0936255100000007 0.0237377900000000 0.7968352200000000 
lattice_vector 0.0119825500000000 10.2567882000000008 0.0084079600000000 
lattice_vector 0.8607439400000000 -0.0245738300000000 10.4456970400000007 
atom 1.3846598500000000 0.0634061700000000 1.8716056999999999 Si
atom 1.9271103900000000 0.1934560900000000 6.8091890499999996 Hf
atom 1.5369508400000000 5.3692912300000000 1.6307936900000000 Hf
atom 2.0260052800000001 5.3340401999999996 6.8114005700000000 Hf
atom 6.5504923599999998 0.2606508700000000 2.0374807900000000 Hf
atom 7.0182579499999997 0.2169330900000000 7.2468718499999998 Hf
atom 6.4803023599999996 5.4451620600000004 2.1251704999999999 Hf
atom 7.0079287900000002 5.3389144899999996 7.2812552100000003 Hf
atom 1.7177904700000000 2.2970695499999998 4.1615059199999997 Hf
atom 2.2547029599999999 2.2566537499999999 9.4456301400000005 Hf
atom 1.7195252500000000 7.4567816100000002 4.2669998600000003 Hf
atom 2.1944333899999999 7.5241412700000003 9.4774843700000009 Hf
atom 6.7989401400000000 2.3615630699999999 4.6315955700000000 Hf
atom 7.1925238699999996 2.3033247600000002 9.8326480899999993 Hf
atom 6.8081673100000000 7.4854480800000003 4.6862572499999997 Hf
atom 7.1429227800000001 7.5182210899999999 9.9076832199999991 Hf
atom 3.7050633600000000 2.7554077600000002 1.3351370199999999 Hf
atom 4.1783012099999999 2.7808838599999999 6.5703512399999999 Hf
atom 3.6512411800000000 8.0090361899999998 1.4056970300000000 Hf
atom 4.2017680999999998 7.9220682199999999 6.6168327700000003 Hf
atom 9.0500495099999991 2.5900016799999999 1.9176603500000000 Hf
atom 9.2238506299999994 2.7926281199999998 6.9794837799999998 Hf
atom 8.7877494699999996 7.9572166800000002 1.8065900900000000 Hf
atom 9.2074408800000000 7.8979471200000004 7.0396162200000001 Hf
atom 3.9314456199999999 4.8869653199999998 3.9824006100000000 Hf
atom 4.3845066900000003 4.9307350999999997 9.2159271000000000 Hf
atom 3.9423837499999999 10.0386671900000000 3.9670082099999999 Hf
atom 4.3725820700000000 10.0996337100000009 9.2192059700000009 Hf
atom 8.9885134600000001 4.9111037700000004 4.3699642900000004 Hf
atom 9.5239203799999999 4.9405986300000002 9.7449263399999992 La
atom 8.9942385700000003 10.0118356800000008 4.4301140500000002 Hf
atom 9.4430771799999995 10.0647285300000000 9.6290685899999993 Hf
atom 0.6807924100000000 1.4163754099999999 0.9543912300000000 O
atom 0.8290113500000000 1.6397125299999999 5.9745483600000000 O
atom 0.3739670700000000 6.8022337100000003 0.8194023200000000 O
atom 0.8543862700000000 6.8152477500000002 6.0729194599999996 O
atom 5.4707686000000004 1.7364248200000001 1.2226925700000000 O
atom 5.9078030400000001 1.7153451000000000 6.4458209899999996 O
atom 5.3412763999999999 6.8905863800000002 1.2801440500000001 O
atom 5.9150007999999996 6.8464314200000000 6.4647876999999996 O
atom 0.6670365500000000 0.7218771300000000 3.3874706600000000 O
atom 1.0989387700000000 0.7954923500000000 8.6513977799999999 O
atom 0.6428284000000000 5.9316612600000003 3.4716928800000000 O
atom 1.2881733900000001 6.0485166100000001 8.6022849200000007 O
atom 5.6318492899999999 0.9058760800000000 3.8262021800000001 O
atom 6.1412790599999996 0.8446814499999999 9.0489410100000001 O
atom 5.6590265200000003 6.0035867500000002 3.8933884700000001 O
atom 6.1040765900000000 5.9978640499999996 9.0986889699999995 O
atom 4.8435920299999999 4.2732833000000001 2.1827112999999998 O
atom 5.2644036500000002 4.2742684400000002 7.3989158699999997 O
atom 4.8448924199999999 9.4168543899999992 2.1935306099999998 O
atom 5.2937327400000003 9.4169327700000007 7.4023368100000004 O
atom 9.9392014199999998 4.2688333900000002 2.5590764500000001 O
atom 10.4242260800000004 4.2270008299999997 7.6610118600000003 O
atom 10.0109241200000003 9.4023486900000002 2.6159277099999998 O
atom 10.3221394699999998 9.3858058999999994 7.8161230599999998 O
atom 5.0918486999999999 3.4475242599999998 4.7805335400000004 O
atom 5.5901525899999998 3.5166353300000002 10.0521958500000004 O
atom 5.0723784199999997 8.5658521699999994 4.7740802400000000 O
atom 5.3834823399999996 8.5628012600000005 10.0272618199999997 O
atom 10.0566096900000002 3.3251740700000001 5.0729371299999997 O
atom 10.5885052500000008 3.1499392500000001 10.5808806200000003 O
atom 10.0819567299999999 8.5135870300000001 5.2008407300000004 O
atom 10.5116083099999997 8.5350095300000000 10.4304863000000001 O
atom 2.8205093300000001 1.1644868200000000 2.5125846900000002 O
atom 3.4084868400000001 1.2820350800000000 7.8300135199999996 O
atom 2.9712082899999999 6.4899312100000000 2.7463046499999999 O
atom 3.5512663199999999 6.4567256799999999 7.9303548499999996 O
atom 8.0450182100000003 1.2573202200000000 3.1681502099999999 O
atom 8.5119285399999995 1.3086861599999999 8.3426326399999997 O
atom 8.0458048000000009 6.4697235700000002 3.1902467600000000 O
atom 8.3721461399999999 6.5429338899999996 8.3514407599999991 O
atom 3.2063498400000001 1.2532243800000000 5.2337505799999997 O
atom 3.8954045900000001 1.4641042500000001 10.3088417900000007 O
atom 3.2233567700000001 6.3590513399999997 5.3332282500000003 O
atom 3.6157335200000000 6.4481443699999996 10.5780951499999993 O
atom 8.2577653899999994 1.2249233799999999 5.7339388099999997 O
atom 8.6997062300000003 1.2991079299999999 10.9990117699999992 O
atom 8.2713992399999992 6.3515188699999996 5.7634853200000000 O
atom 8.5136654200000006 6.4724439299999998 11.1319276899999995 O
atom 2.2801189300000000 3.9504642400000001 0.2693613700000000 O
atom 2.7114150399999999 3.8525476400000001 5.4515137700000000 O
atom 2.2051856299999999 9.3737865300000003 0.4854563200000000 O
atom 2.7088952300000000 8.9963823800000000 5.5039851899999999 O
atom 7.7509862600000003 3.8927637300000000 5.8720082400000004 O
atom 7.3116894200000004 9.0945576900000002 0.7078191600000000 O
atom 7.7447181499999997 8.9993796400000008 5.9324851299999999 O
atom 2.4999327099999999 3.7581992000000000 2.8715373600000000 O
atom 2.9296647700000000 3.7703569799999999 8.1091401699999999 O
atom 2.3464895000000001 8.9940336999999992 2.8924631399999998 O
atom 2.9321664300000001 8.9388526099999996 8.1541640199999996 O
atom 7.5611940700000000 3.7778083699999998 3.2104923400000001 O
atom 7.8993466999999997 3.7382516099999998 8.4693977199999999 O
atom 7.5706172199999999 8.9452927800000008 3.3117202200000002 O
atom 7.9492781600000004 8.9782746600000003 8.5628471400000006 O
