lattice_vector 5.0638702400000000 -0.0279039200000000 0.4205892000000000 
lattice_vector -0.0165314200000000 10.4123368200000002 0.0213645800000000 
lattice_vector 0.7939567700000000 0.0340897000000000 10.3790885700000004 
atom 1.4923369900000001 0.1263360800000000 1.5458018400000000 La
atom 1.9581347600000001 0.2458055400000000 6.8309829700000000 Hf
atom 1.5352171200000000 5.4201741700000001 1.6523199200000001 Hf
atom 1.8926012999999999 5.4320029999999999 6.8242408599999997 Hf
atom 1.6987702800000000 2.3863519700000002 4.2520000900000001 Hf
atom 2.0131426700000001 2.4872195200000000 9.3622185400000006 Hf
atom 1.6760695800000001 7.5629794400000003 4.2496703900000004 Hf
atom 2.1536943900000001 7.5768197099999997 9.4034156099999997 Hf
atom 3.7681384200000001 2.9098713200000001 1.4444855000000001 Hf
atom 4.1459930600000003 2.8204921299999999 6.5973313400000002 Hf
atom 3.7554649100000002 7.9521793399999998 1.4091091600000001 Hf
atom 4.1170197100000001 8.0136476400000003 6.5421354699999998 Hf
atom 3.9152009200000002 4.9855020799999998 4.0212373799999996 Hf
atom 4.3100793599999996 5.0105571500000003 9.1541701000000000 Hf
atom 3.8811836000000000 10.1962226200000003 4.0251291399999998 Hf
atom 4.4131587200000002 10.0814581200000006 9.0891403200000003 Hf
atom 0.4719608100000000 2.0311549900000001 0.8438375299999999 O
atom 0.8556365500000001 1.8480654000000001 6.1675787199999998 O
atom 0.5080625200000000 7.0584843299999998 0.9411454900000000 O
atom 0.8156107900000000 7.0173887800000001 6.1210090599999996 O
atom 0.5871414700000001 0.8244006500000000 3.6525492499999999 O
atom 1.0570059500000000 0.8044698800000000 8.7157395599999994 O
atom 0.6247064400000000 6.0126002500000002 3.4990585400000001 O
atom 1.0491269000000001 5.9871303200000003 8.7079724299999999 O
atom 4.7824451899999998 4.4584345000000001 2.1320519299999998 O
atom 5.1906329199999997 4.4138056199999998 7.3074737900000004 O
atom 4.4935268099999996 9.6758978599999992 2.1014270800000001 O
atom 5.2400356099999996 9.5792739699999991 7.2969345900000002 O
atom 5.0055788899999998 3.4107900099999999 4.7473349000000002 O
atom 5.3102311699999998 3.3882832700000001 9.8420260800000001 O
atom 4.9812516599999999 8.5899102999999997 4.7151507900000000 O
atom 5.5289883700000004 8.6024612000000005 9.9156150600000004 O
atom 3.0590960300000001 1.4705158500000000 2.7991224799999999 O
atom 3.4079043800000002 1.3550055900000000 8.0205097500000004 O
atom 2.9896548900000002 6.4964352600000002 2.7476825100000002 O
atom 3.3825173899999998 6.5529758999999999 7.9196242999999997 O
atom 3.1684214900000001 1.2693282600000000 5.3883792399999999 O
atom 3.1615582700000000 6.4623370700000002 5.3460628899999998 O
atom 3.5972461700000000 6.4277490000000004 10.5333755700000005 O
atom 2.2641748599999998 3.9210097300000002 0.2779979600000000 O
atom 2.6645336400000001 3.9637264700000001 5.4933173799999997 O
atom 2.4415950199999998 9.0140018600000005 0.1280912800000000 O
atom 2.6476777999999999 9.1843499499999997 5.4974188300000000 O
atom 2.4378209700000002 3.9022226899999999 2.9046519900000001 O
atom 2.8471394700000001 3.8873971300000001 8.0499494699999996 O
atom 2.4531482900000001 8.9077722300000008 2.9689771500000002 O
atom 2.8814467900000000 9.0460877100000001 8.0153836399999996 O
