lattice_vector 10.1415944800000002 0.0145875300000000 0.8200872100000000 
lattice_vector 0.0013594600000000 10.2313677399999996 -0.0346206800000000 
lattice_vector 0.8091904599999999 -0.0498088700000000 10.5470467699999997 
atom 1.3103095199999999 0.1290593300000000 1.3539183500000000 Si
atom 1.8512418100000001 0.2028955300000000 6.9064502299999999 Hf
atom 1.5711780600000000 5.3416385100000001 1.6205916800000000 Hf
atom 1.9133144600000001 5.3060502200000004 6.8779403600000002 Hf
atom 6.6438678199999996 0.2241816600000000 2.0147356500000000 Hf
atom 6.9514976300000004 0.2098451500000000 7.3508845899999997 Hf
atom 6.6067116199999996 5.3279113300000001 2.0345415700000000 Hf
atom 6.9761889400000001 5.3091537799999999 7.3597142099999999 Hf
atom 1.4825108899999999 2.3862143300000001 4.0995798199999998 La
atom 2.1726475999999999 2.3034907300000000 9.4794155999999994 Hf
atom 1.7487015299999999 7.4439505400000003 4.2640884300000002 Hf
atom 2.1133565499999998 7.4499300699999997 9.5162987099999992 Hf
atom 6.8425421000000002 2.3912753499999999 4.7225583300000000 Hf
atom 7.2111754499999998 2.3214768499999998 10.0014264900000001 Hf
atom 6.7598812099999996 7.4023108899999999 4.7143462999999999 Hf
atom 7.1702220600000004 7.4439799500000001 9.9675176699999994 Hf
atom 3.7491910599999998 2.7977253700000002 1.2474935300000001 Hf
atom 4.1051069299999998 2.7414315500000002 6.6267920299999998 Hf
atom 3.7518691000000000 7.9087410499999997 1.3835676600000000 Hf
atom 4.1370934500000001 7.8648232000000000 6.6505728199999998 Hf
atom 8.9193274500000008 2.7547735000000002 1.8260828800000000 Hf
atom 9.1652498799999993 2.7658483299999999 7.1744581600000004 Hf
atom 8.8725823899999998 7.8984865400000004 1.7854133200000000 Hf
atom 9.2195438799999998 7.8482732999999998 7.0884540400000002 Hf
atom 3.9931092200000000 4.8655405600000003 3.9781535200000002 Hf
atom 4.3468442899999999 4.9018279299999996 9.2520571700000005 Hf
atom 3.9477304300000000 10.1278204800000005 3.9762843399999999 La
atom 4.3556195899999999 10.0399287400000006 9.2603666100000002 Hf
atom 9.0166626799999996 4.9683199599999996 4.4246149199999998 Hf
atom 9.4735845699999999 4.8695590800000002 9.7590169800000002 Hf
atom 8.8789078499999992 9.9476366699999996 4.4841875000000000 Hf
atom 9.4295530700000008 9.9877012799999996 9.6871526400000008 Hf
atom 0.4688366200000000 1.4128083499999999 0.6735383000000000 O
atom 0.4870167400000000 1.3854080300000000 5.9794773899999996 O
atom 0.3891838400000000 6.7645213799999997 0.7787377599999999 O
atom 0.7261438700000000 6.6713409800000001 6.0266992100000003 O
atom 5.4517360899999998 1.6702043000000000 1.2432080800000000 O
atom 5.8329525999999996 1.6420897299999999 6.4803007099999999 O
atom 5.4860292900000003 6.8035629899999996 1.2263704099999999 O
atom 5.8839036199999999 6.7580905900000001 6.5280193000000004 O
atom 0.9229541300000000 0.9492330100000000 8.6373483800000006 O
atom 0.5904586400000000 6.0392035899999996 3.3642821399999998 O
atom 0.9827791700000000 6.0415075099999997 8.6863573800000005 O
atom 6.0436014800000004 0.8124805300000000 3.8334359999999998 O
atom 6.0829520700000002 0.8755323800000000 9.1400904599999997 O
atom 5.7494996499999997 5.8842537799999999 3.8879203699999998 O
atom 6.0678476999999997 5.9800457900000001 9.1471251700000007 O
atom 4.9768021600000001 4.1886717899999999 2.1846497999999999 O
atom 5.2614782399999998 4.2175966799999998 7.4956530700000004 O
atom 5.0157304700000003 9.3283462400000001 2.0250847300000001 O
atom 5.2501127099999998 9.3579716200000007 7.4519044900000004 O
atom 10.1432607899999994 4.0186375300000003 2.8252581600000002 O
atom 10.4179438399999995 4.0924703800000000 8.0574478200000001 O
atom 10.1729705700000004 9.5133387299999992 2.7863752200000000 O
atom 10.3613607600000002 9.1949036300000007 8.0150149600000002 O
atom 5.0294011400000000 3.2959600800000000 4.7796812500000003 O
atom 5.5359768499999999 3.4856013099999998 10.1395385699999991 O
atom 5.0876331700000001 8.4035293099999997 4.8762316999999999 O
atom 5.3904851899999997 8.4973003200000008 10.0771873900000006 O
atom 9.9919815900000000 3.6893342599999999 5.5443660499999998 O
atom 10.6533414499999992 3.4857686399999999 10.6821765400000004 O
atom 10.1800118600000005 8.6705196000000004 5.3222047899999998 O
atom 10.6251616400000000 8.6515984499999998 10.6571046700000007 O
atom 2.3312673899999998 0.9820602500000000 2.3495031700000002 O
atom 3.3477046700000002 1.2658872100000000 7.9821184499999998 O
atom 3.0599614000000002 6.2972605599999998 2.6817580200000002 O
atom 3.3683903700000002 6.3894460600000000 7.9787824399999998 O
atom 8.4003747700000009 1.3252890100000001 3.2309728299999998 O
atom 8.4147755899999996 1.2867901399999999 8.4931298399999999 O
atom 8.0866719099999997 6.4368128100000002 3.1261077500000001 O
atom 8.4617682399999996 6.4052555699999996 8.4556542799999992 O
atom 2.9988009700000000 1.3304759500000001 5.5407637200000002 O
atom 3.7474456100000002 1.4058958800000001 10.4292283399999999 O
atom 3.1942663200000001 6.3624905099999998 5.3356111000000004 O
atom 3.5765904100000001 6.4201683799999998 10.6113929900000006 O
atom 8.2244194000000004 1.2107474300000001 5.8274586900000003 O
atom 8.6777724500000009 1.2268497199999999 11.1056717799999998 O
atom 8.2521377499999993 6.3351820400000003 5.8029069499999997 O
atom 8.7034374600000000 6.3685894699999999 11.0762450700000006 O
atom 2.2964774999999999 3.9591452600000001 0.2009965600000000 O
atom 2.7324712899999999 3.9508702300000000 5.5219723700000003 O
atom 2.1722455699999998 9.2710293200000002 0.3468500100000000 O
atom 2.5959868300000002 8.9032791200000005 5.6476213099999999 O
atom 7.4438934600000000 3.8795993000000002 0.7401393100000000 O
atom 7.6403281400000003 3.8321764800000002 6.0577402300000003 O
atom 7.4204175399999999 8.9906613300000000 0.6743148400000000 O
atom 7.7319698600000004 8.9491040500000008 5.9669711799999998 O
atom 2.6624024600000000 3.7858326600000001 2.7526564499999999 O
atom 2.8925837200000002 3.7700844000000000 8.1544747500000003 O
atom 2.5343572499999998 8.6547829099999998 2.8715071399999998 O
atom 2.8933689800000000 8.8896585699999999 8.2326598099999995 O
atom 7.6412607599999998 3.7910174900000002 3.3325471200000001 O
atom 7.9740486900000001 3.7932905400000001 8.6876005500000009 O
atom 7.6617073900000001 8.8795642899999994 3.3071406099999998 O
atom 7.9277176000000003 8.8978469499999999 8.6085879199999997 O
