lattice_vector 10.0015732800000006 -0.0032135200000000 0.0193223000000000 
lattice_vector 0.0222516300000000 10.1469495500000004 0.0250963000000000 
lattice_vector -0.0075616200000000 -0.0192800700000000 10.3891864700000003 
atom 1.0964936400000000 0.0029803600000000 1.8476058000000000 Si
atom 1.3729250300000000 0.2207350200000000 6.9756841500000002 Hf
atom 1.4237424800000000 5.2973637099999999 1.7884439100000000 Hf
atom 1.4167568500000001 5.2539925600000004 6.9721263300000000 Hf
atom 1.4469691300000000 2.3352432799999998 4.2324111200000001 Hf
atom 1.4791980199999999 2.2973236099999998 9.6912724299999997 Hf
atom 1.3940927299999999 7.4098055299999999 4.4106800200000000 Hf
atom 1.3553931900000000 7.3787389799999996 9.5744514299999999 Hf
atom 3.9349721999999998 2.5138326499999999 1.8471615200000000 Si
atom 3.6193143000000001 2.7368121500000000 6.9522693300000000 Hf
atom 3.5735891799999999 7.9177404300000003 1.8143644400000001 Hf
atom 3.6061689800000001 7.8267515400000001 7.0133553300000004 Hf
atom 3.5992819900000002 4.8293873999999999 4.3139879199999998 Hf
atom 3.5456866200000001 4.7826784599999996 9.6094277199999993 Hf
atom 3.6188281999999998 10.0083112500000002 4.3518227200000004 Hf
atom 3.6380589900000002 10.0061028200000006 9.6561653399999994 Hf
atom 6.4300091200000002 0.1878424000000000 0.8279364100000000 Hf
atom 6.3742637699999998 0.1741940400000000 6.0530575400000002 Hf
atom 6.2821194199999999 5.2073787600000001 0.9053237900000000 Hf
atom 6.3851033299999997 5.2537719799999998 6.0551455399999998 Hf
atom 6.4337904500000000 2.3155563300000002 3.4654946299999998 Hf
atom 6.3920531599999997 2.3161606400000001 8.6343468199999993 Hf
atom 6.3588820899999998 7.3762996000000003 3.4627264300000000 Hf
atom 6.3550118400000004 7.3462110300000001 8.6872299599999998 Hf
atom 8.6801855700000008 2.6987534000000002 0.8803499299999999 Hf
atom 8.6625052599999997 2.7088396100000001 6.0367557800000000 Hf
atom 8.5947232499999995 7.7617850500000003 0.8588371900000000 Hf
atom 8.6087570800000002 7.7852566999999997 6.0885900099999999 Hf
atom 8.6310097399999997 4.8519958499999998 3.4500143400000001 Hf
atom 8.6309875599999994 4.8000106799999998 8.6810285000000000 Hf
atom 8.6284343700000008 9.9052143099999999 3.4981446900000002 Hf
atom 8.6521678400000006 9.9279264800000000 8.6581959200000007 Hf
atom 0.5555318299999999 1.4153531200000000 0.9424312800000000 O
atom 0.3497843400000000 1.6202647100000001 5.9527147400000002 O
atom 0.3365541400000000 6.7798056700000000 0.8977972700000000 O
atom 0.3463210000000000 6.7401441000000002 6.0937044699999996 O
atom 0.4835468100000000 0.7460158300000000 3.3238216800000000 O
atom 0.3300172900000000 0.8850533000000000 8.6336587999999992 O
atom 0.3110179900000000 5.9468462300000002 3.5043113199999998 O
atom 0.3232105600000000 5.9213848100000002 8.6753886599999994 O
atom 4.4841886200000003 4.0288210600000003 0.9922376700000000 O
atom 4.6806483600000002 4.1544032199999998 5.9905379400000003 O
atom 4.6804929900000003 9.3317215999999998 0.9263552000000000 O
atom 4.6578272199999997 9.2979067000000004 6.0983245400000001 O
atom 4.6177719000000002 3.2898221500000000 3.3451099700000002 O
atom 4.6950526600000000 3.4168547399999998 8.6334295099999991 O
atom 4.6168355999999999 8.4516170899999992 3.5313322000000000 O
atom 4.6508823599999998 8.4713066700000006 8.7359090300000002 O
atom 2.9767709999999998 1.3893128800000001 2.8995853600000001 O
atom 2.7755108399999999 1.2270481700000000 8.2756767799999995 O
atom 2.7594425199999999 6.3995779600000002 3.0866841900000002 O
atom 2.7519668300000002 6.2920842199999996 8.2744193700000004 O
atom 3.1801212300000001 1.8443344300000000 0.4266536400000000 O
atom 2.7723476900000001 1.2918963600000000 5.6114852500000003 O
atom 2.8024747600000000 6.5479956899999996 0.4664570900000000 O
atom 2.7862760700000000 6.3347921500000002 5.6655168600000003 O
atom 2.2293342599999999 3.8352372600000000 3.0207912700000001 O
atom 2.2597001799999998 3.7371150800000001 8.2039782900000002 O
atom 2.1267437700000000 9.0144520700000008 3.0003147499999998 O
atom 2.2420101899999998 8.8514251300000009 8.3340910899999994 O
atom 1.9357873699999999 4.1196954300000002 0.2550185700000000 O
atom 2.2312671000000002 3.8011406399999998 5.6048534800000001 O
atom 2.0965186199999999 9.3457688599999997 0.6120972000000000 O
atom 2.2479974299999999 8.8960053699999992 5.6694559399999997 O
atom 5.3913411000000000 1.6850620700000001 1.7345561899999999 O
atom 5.3392746899999999 1.6627915700000000 6.9354325100000001 O
atom 5.2850617499999997 6.7596529900000002 1.7677206100000000 O
atom 5.3171502700000000 6.7185327299999997 6.9764884699999996 O
atom 5.3721862800000002 0.8234362800000000 4.3212397500000002 O
atom 5.3924399200000002 0.8056581600000000 9.5139422600000003 O
atom 5.3515304800000001 5.8667307199999996 4.3165685099999997 O
atom 5.2909731500000001 5.8615522100000002 9.6218398199999999 O
atom 9.6838037499999992 4.1941219299999997 1.7659886499999999 O
atom 9.6922801199999995 4.1723963499999996 6.9680937900000002 O
atom 9.7071106300000007 9.2542955399999993 1.7865202099999999 O
atom 9.6901862300000001 9.2629470000000005 6.9720150199999997 O
atom 9.6685569299999994 3.3209499500000002 4.2893014500000000 O
atom 9.6700855400000005 3.2856882900000000 9.5926054399999998 O
atom 9.6673721700000002 8.4579896300000001 4.3954960900000000 O
atom 9.6414015899999992 8.4335188199999997 9.5723125899999992 O
atom 7.8030529399999997 1.2068407500000000 9.9756765999999999 O
atom 7.7985834499999998 1.2119891400000000 4.7608161700000000 O
atom 7.7276073600000004 6.2551524499999998 10.0009201799999996 O
atom 7.7576266900000004 6.3089910199999997 4.7885624399999998 O
atom 7.7913109000000000 1.2515447600000000 2.1769819099999999 O
atom 7.7699924999999999 1.2634043200000000 7.3481986900000003 O
atom 7.7073612799999998 6.3045604199999996 2.1759847099999998 O
atom 7.7610984500000004 6.3174922899999997 7.4027494200000001 O
atom 7.2422628900000001 3.7273271600000002 10.0075921799999996 O
atom 7.2534642800000002 3.7619710999999998 4.7713535900000004 O
atom 7.2238623500000001 8.8107188399999998 9.9858304899999997 O
atom 7.2312533600000002 8.8323106300000003 4.7834975100000001 O
atom 7.2554018500000002 3.7673277500000002 2.1628872299999999 O
atom 7.2562097000000003 3.7990555900000000 7.3673314000000003 O
atom 7.2863496200000002 8.8724094400000002 2.1997938100000001 O
atom 7.2390163899999997 8.8572668799999992 7.3961947500000003 O
