lattice_vector 10.1303169999999998 -0.0245520000000000 0.0125220000000000 
lattice_vector -0.0163700000000000 10.3103359999999995 0.0124960000000000 
lattice_vector -0.0130680000000000 -0.0127400000000000 10.5015739999999997 
atom 1.3334790000000001 0.1019420000000000 1.6718999999999999 La
atom 1.4192340000000001 0.2087200000000000 7.0428819999999996 Hf
atom 1.3942639999999999 5.3554420000000000 1.8237610000000000 Hf
atom 1.3816150000000000 5.3347360000000004 7.0619940000000003 Hf
atom 1.3813489999999999 2.3482949999999998 4.4391160000000003 Hf
atom 1.3934660000000001 2.3960870000000001 9.6599260000000005 Hf
atom 1.4135540000000000 7.4851630000000000 4.4346759999999996 Hf
atom 1.3950480000000001 7.4783220000000004 9.6935169999999999 Hf
atom 3.6342639999999999 2.7694990000000002 1.8013560000000000 Hf
atom 3.6293950000000001 2.8024710000000002 7.0772449999999996 Hf
atom 3.7124410000000001 7.8943709999999996 1.7934239999999999 Hf
atom 3.5890300000000002 7.8769819999999999 7.0777669999999997 Hf
atom 3.6398320000000002 4.9131570000000000 4.4293610000000001 Hf
atom 3.6308500000000001 4.9198050000000002 9.7168709999999994 Hf
atom 3.5755010000000000 10.0987019999999994 4.3713309999999996 Hf
atom 3.6844209999999999 10.0864809999999991 9.6414259999999992 Hf
atom 6.4922310000000003 0.2040800000000000 0.8437300000000000 Hf
atom 6.3930720000000001 0.0841510000000000 6.2142510000000000 La
atom 6.4545899999999996 5.3301259999999999 0.8368510000000000 Hf
atom 6.4541589999999998 5.3380250000000000 6.0751080000000002 Hf
atom 6.4477130000000002 2.3372989999999998 3.4526309999999998 Hf
atom 6.4596760000000000 2.3848769999999999 8.7333979999999993 Hf
atom 6.4799300000000004 7.4741070000000001 3.4694440000000002 Hf
atom 6.4611710000000002 7.4672679999999998 8.7121030000000008 Hf
atom 8.7023550000000007 2.7977599999999998 0.8209250000000000 Hf
atom 8.6940200000000001 2.7520199999999999 6.0967900000000004 Hf
atom 8.6620589999999993 7.8722130000000003 0.8325020000000000 Hf
atom 8.7722719999999992 7.8767569999999996 6.1173010000000003 Hf
atom 8.7061700000000002 4.9020950000000001 3.4739800000000001 Hf
atom 8.6973029999999998 4.9088269999999996 8.6880570000000006 Hf
atom 8.6415649999999999 10.0874389999999998 3.5445840000000000 Hf
atom 8.7507310000000000 10.0752349999999993 8.7764530000000001 Hf
atom 0.3247270000000000 1.9224239999999999 0.8464490000000000 O
atom 0.3299420000000000 1.7345029999999999 6.1867510000000001 O
atom 0.3283330000000000 6.8764770000000004 0.8947700000000000 O
atom 0.3364850000000000 6.8191699999999997 6.1387260000000001 O
atom 0.2301810000000000 0.8842850000000000 3.6505369999999999 O
atom 0.3928260000000000 0.8291520000000000 8.8176020000000008 O
atom 0.3101930000000000 6.0310969999999999 3.5136880000000001 O
atom 0.2877450000000000 6.0341430000000003 8.7347789999999996 O
atom 4.7213830000000003 4.2727750000000002 0.9065650000000000 O
atom 4.6844180000000000 4.3182689999999999 6.1508349999999998 O
atom 4.7471120000000004 9.4436879999999999 0.8811210000000000 O
atom 4.4185129999999999 9.3657629999999994 6.0747900000000001 O
atom 4.7237359999999997 3.4635940000000001 3.5004659999999999 O
atom 4.6946729999999999 3.4552060000000000 8.8183849999999993 O
atom 4.7791090000000001 8.6104380000000003 3.4979420000000001 O
atom 4.7785650000000004 8.6337220000000006 8.6813389999999995 O
atom 2.7877700000000001 1.3342660000000000 3.1374849999999999 O
atom 2.8028510000000000 1.2671850000000000 8.3093439999999994 O
atom 2.7996759999999998 6.3817870000000001 3.1078980000000000 O
atom 2.7579560000000001 6.3965560000000004 8.3843449999999997 O
atom 2.9019759999999999 1.3797440000000001 0.3438290000000000 O
atom 2.7720650000000000 1.2936430000000001 5.7139949999999997 O
atom 2.7647480000000000 6.3936349999999997 0.5133010000000000 O
atom 2.7716710000000000 6.4345840000000001 5.7385750000000000 O
atom 2.2424059999999999 3.8487779999999998 3.1079110000000001 O
atom 2.2466900000000001 3.8622269999999999 8.3643029999999996 O
atom 2.3636770000000000 8.8710640000000005 3.1321949999999998 O
atom 2.2672469999999998 8.9854579999999995 8.3284859999999998 O
atom 2.2588840000000001 3.8841839999999999 0.4919830000000000 O
atom 2.2474539999999998 3.8748390000000001 5.7304959999999996 O
atom 2.4791289999999999 8.8639360000000007 0.3454230000000000 O
atom 2.1136830000000000 9.0265360000000001 5.7109589999999999 O
atom 5.4006670000000003 1.7278950000000000 1.7006640000000000 O
atom 5.3821500000000002 1.9026840000000000 7.0413430000000004 O
atom 5.4069870000000000 6.8123649999999998 1.7609450000000000 O
atom 5.3858680000000003 6.8569160000000000 7.0048880000000002 O
atom 5.2948199999999996 0.8710690000000000 4.2345139999999999 O
atom 5.4570179999999997 0.8158320000000000 9.5694260000000000 O
atom 5.3743499999999997 6.0177649999999998 4.3841169999999998 O
atom 5.3518439999999998 6.0205019999999996 9.6645339999999997 O
atom 9.7552979999999998 4.3112060000000003 1.7537110000000000 O
atom 9.7789190000000001 4.2529940000000002 6.9979490000000002 O
atom 9.4890080000000001 9.3582020000000004 1.8417140000000001 O
atom 9.8045480000000005 9.4236299999999993 7.0360800000000001 O
atom 9.7876519999999996 3.4502480000000002 4.4022769999999998 O
atom 9.7588880000000007 3.4420410000000001 9.5856100000000009 O
atom 9.8431239999999995 8.5972519999999992 4.4174709999999999 O
atom 9.8425659999999997 8.6202909999999999 9.7357139999999998 O
atom 7.8659239999999997 1.2527349999999999 10.0847879999999996 O
atom 7.8509799999999998 1.3201550000000000 4.7552099999999999 O
atom 7.8210899999999999 6.3822279999999996 10.0219430000000003 O
atom 7.8628150000000003 6.3674450000000000 4.7968599999999997 O
atom 7.8416439999999996 1.2858259999999999 2.1785999999999999 O
atom 7.9581569999999999 1.3587119999999999 7.5493439999999996 O
atom 7.8412540000000002 6.4268400000000003 2.1663610000000002 O
atom 7.8211459999999997 6.3730050000000000 7.3915009999999999 O
atom 7.3096690000000004 3.8478910000000002 10.0346139999999995 O
atom 7.3053290000000004 3.8344960000000001 4.7893689999999998 O
atom 7.3301990000000004 8.9709550000000000 10.0830549999999999 O
atom 7.4266779999999999 8.8568309999999997 4.7778109999999998 O
atom 7.3171900000000001 3.8669790000000002 2.1668520000000000 O
atom 7.3153499999999996 3.8635350000000002 7.4054440000000001 O
atom 7.1830210000000001 9.0189789999999999 2.1989060000000000 O
atom 7.5354450000000002 8.8429959999999994 7.5648220000000004 O
