lattice_vector 10.1203035299999993 0.0260464000000000 0.7638964400000000 
lattice_vector 0.0180932500000000 10.2429329899999999 -0.0046860000000000 
lattice_vector 0.3696218800000000 -0.0169525600000000 5.2508698899999997 
atom 1.2373548599999999 0.1073020700000000 1.4449560299999999 La
atom 1.5081283800000000 5.3541049500000000 1.5553302400000000 Hf
atom 6.5734834299999996 0.2281493000000000 2.0338883600000002 Hf
atom 6.5375395999999997 5.3492809200000000 2.0088034700000001 Hf
atom 1.7309615300000001 2.4179947700000000 4.0823484600000004 Hf
atom 1.6565274500000000 7.5220737299999998 4.1927636200000000 Hf
atom 6.7410005999999996 2.3508787700000000 4.6521066099999997 Hf
atom 6.7611602299999998 7.4673035399999996 4.6326798499999997 Hf
atom 3.7131324100000000 2.7671688300000001 1.3022150400000001 Hf
atom 3.7757521800000000 7.9161439099999997 1.3135439900000001 Hf
atom 8.7245577999999995 2.8463380800000002 1.7961424200000000 Hf
atom 8.8015605899999994 7.8580232700000003 1.8563266000000000 Hf
atom 3.9197656799999998 4.9296121299999998 3.9423258200000002 Hf
atom 3.9412175199999999 10.0440156199999997 3.9143631299999999 Hf
atom 9.0250669200000004 4.9061088200000000 4.4071964899999996 Hf
atom 8.9859484700000003 9.9979444100000006 4.5232756199999997 Hf
atom 0.3256828700000000 6.6879738199999998 0.6729059600000000 O
atom 5.4431507300000002 1.6862009499999999 1.1612743400000001 O
atom 5.4653569400000004 6.7946424099999998 1.1475981000000000 O
atom 0.4745519500000000 0.9675261400000000 3.5741882800000000 O
atom 0.5403879400000000 6.0602123900000002 3.3452913000000000 O
atom 5.6690821400000004 0.9133297800000000 3.7812117000000001 O
atom 5.6192977700000002 6.0361545200000002 3.7781291000000001 O
atom 4.8522803200000002 4.2361774499999996 2.1537090600000002 O
atom 4.9012512299999997 9.3700698100000004 2.1556354899999999 O
atom 9.9857244900000008 4.1282369200000000 2.6706200099999999 O
atom 9.9806668900000002 8.8181964300000004 3.1718558799999998 O
atom 5.0528777299999996 3.4664312100000001 4.7763916200000001 O
atom 5.1440655000000000 8.6331489500000007 4.8030287500000002 O
atom 10.1273795199999999 3.4769265300000001 5.3350248799999997 O
atom 10.3067736100000005 8.9344044700000005 5.7128138699999997 O
atom 2.9812722599999999 1.3603970700000001 2.6419364200000000 O
atom 2.9508948699999999 6.4295447000000001 2.6235127800000000 O
atom 8.1261682799999999 1.2892014500000000 3.1246222600000002 O
atom 8.0094441199999995 6.4008088499999998 3.1347506300000001 O
atom 3.1041694199999998 1.3273641100000000 5.1872038199999997 O
atom 3.1111847099999999 6.3850364199999996 5.2474648699999999 O
atom 8.1963539399999998 1.2610361800000001 5.8065980599999998 O
atom 8.2345887100000006 6.3614589900000000 5.7448521899999996 O
atom 2.2753272000000000 3.9169242700000000 0.2025277200000000 O
atom 2.4434760899999999 8.9328299700000002 0.1198549300000000 O
atom 7.3367040299999999 3.9055202300000000 0.6740945400000000 O
atom 7.4016783400000001 8.9796665400000002 0.7064773500000000 O
atom 2.4782761600000001 3.8552538200000002 2.8190186599999998 O
atom 2.5645748899999998 8.8796513000000008 2.8513839600000002 O
atom 7.5349760999999997 3.8075027200000000 3.3069476000000000 O
atom 7.5086060400000001 8.9597580800000003 3.3204194199999999 O
