lattice_vector 9.9830353100000000 -0.0791695700000000 -0.1423386500000000 
lattice_vector -0.2382625900000000 10.0805777400000007 0.2215926700000000 
lattice_vector -0.1761816100000000 0.1462152600000000 10.0830756200000007 
atom 1.1037774499999999 0.0585777300000000 1.2965475500000001 Si
atom 1.1232781800000000 0.1558863900000000 6.3291748600000002 Hf
atom 1.0930554400000001 5.0899220700000001 1.4303227900000000 Hf
atom 0.9073680500000000 5.1605478199999997 6.4370538699999997 Hf
atom 6.0441085200000000 0.0335770400000000 1.2402890200000001 Hf
atom 6.1678202500000001 0.1411461400000000 6.1318855100000000 Hf
atom 6.1385867400000000 4.9248473900000000 1.3833931699999999 Hf
atom 5.9413082599999996 5.1181055799999999 6.3625059899999998 Hf
atom 1.2411195200000000 2.5200744600000000 3.7757761799999998 Si
atom 1.0449327600000000 2.5699246300000000 8.8264978900000006 Hf
atom 1.0138444200000001 7.5694024700000000 3.8633212800000001 Hf
atom 1.0226146599999999 7.6459778700000003 8.9400648000000000 Hf
atom 6.2838185199999996 2.4659968399999999 3.6894424899999998 Hf
atom 5.9833773199999998 2.5051301600000002 8.8811679600000009 Hf
atom 5.9515561500000000 7.6552197700000004 3.7676215000000002 Hf
atom 5.9720828399999997 7.6087798600000003 8.8719674200000007 Hf
atom 3.5606881499999998 2.5414651500000001 1.3250667599999999 Hf
atom 3.5663834799999998 2.5741718900000001 6.3252979700000003 Hf
atom 3.6568654899999999 7.4157041399999999 1.2039937100000000 Hf
atom 3.4600053000000002 7.5923963399999996 6.3352175800000001 Hf
atom 8.7518539200000003 2.4152409200000000 1.1654567100000000 Hf
atom 8.4472602400000003 2.7182130999999998 6.3768690200000000 Hf
atom 8.5385627100000008 7.4962571000000002 1.3180723000000001 Hf
atom 8.4373742299999996 7.6699409699999999 6.3816725700000001 Hf
atom 3.5762360499999999 0.0843802500000000 3.7645264500000000 Hf
atom 3.7041409199999999 -0.0720382500000000 8.6358470399999998 Hf
atom 3.5514743000000002 5.0840195799999996 3.8332348000000001 Hf
atom 3.4758603099999998 5.0570742600000003 8.8525068200000003 Hf
atom 8.7673977700000005 -0.0418012500000000 3.6046541400000001 Hf
atom 8.5847212000000006 0.0724248500000000 8.6873484100000002 Hf
atom 8.4331181300000004 5.1645237899999996 3.9473163499999999 Hf
atom 8.4533382800000005 5.1342005400000001 8.8991765199999993 Hf
atom -0.3605977200000000 1.6182550800000000 -0.3535492600000000 O
atom 0.2996909100000000 1.4226752700000000 4.5792377100000001 O
atom -0.1453131300000000 6.5624739800000000 0.1154504300000000 O
atom -0.2624230800000000 6.5929710500000001 5.1661515600000003 O
atom 4.6961439900000004 1.2782697400000000 -0.1559326200000000 O
atom 5.0048721699999996 1.5372440000000001 4.9027612999999999 O
atom 4.8464756299999996 6.3086138900000002 -0.0911386700000000 O
atom 4.7176523699999997 6.5444864999999997 4.9580048500000000 O
atom -0.1352564100000000 0.8318272500000000 2.0832193900000000 O
atom -0.1756870800000000 1.3749054000000001 7.2652225699999997 O
atom -0.2042379000000000 6.0097196200000003 2.6635956699999999 O
atom -0.2918709100000000 6.3527285300000003 7.6448268700000002 O
atom 4.8528625500000002 1.1665084200000000 2.3886303799999999 O
atom 4.8524907400000004 1.1832009299999999 7.3699186499999998 O
atom 4.8219323999999997 6.1473718399999999 2.4420591699999998 O
atom 4.6885011199999997 6.2313459299999998 7.4921062899999997 O
atom 0.2873259400000000 3.3260126099999998 2.6910790300000000 O
atom -0.2461701800000000 3.8725579600000000 7.8684117799999997 O
atom -0.5781565100000000 8.4686874999999997 3.0743646099999999 O
atom -0.3347456400000000 8.9038997000000002 8.0208109400000005 O
atom 4.9917429599999998 3.6789731799999998 2.7785004500000001 O
atom 4.7342616800000004 3.6954270100000000 7.7873329499999997 O
atom 4.4751535499999999 8.7003646799999999 2.7044705900000001 O
atom 4.6566800900000000 8.7296642999999996 7.7336937900000002 O
atom -0.1563869300000000 4.0231895900000003 0.3145536300000000 O
atom -0.4062324600000000 4.0540272399999999 5.3314945800000002 O
atom -0.0054356700000000 9.1434334499999999 0.5207136400000000 O
atom -0.3625893700000000 9.1194232799999995 5.4829927700000001 O
atom 4.8946724799999997 3.8029422099999999 0.2261201300000000 O
atom 4.5078150099999998 4.0962987599999998 5.3430529699999996 O
atom 5.0015951799999998 8.8066720299999997 0.1492437800000000 O
atom 4.6871086999999996 9.0645641300000008 5.2306873300000003 O
atom 2.4801568600000001 1.7470055700000000 2.9888806099999998 O
atom 2.3437474900000002 1.3508536600000001 7.8898818100000003 O
atom 2.3113058700000000 6.6496958599999996 2.6300492800000002 O
atom 2.2220402799999999 6.4537604899999996 7.7319966000000004 O
atom 7.4751453000000003 1.3330606899999999 2.5411783799999998 O
atom 7.2986722899999998 1.4628988300000001 7.6429099899999997 O
atom 7.2681839300000002 6.4327042700000003 2.7090815199999998 O
atom 7.2246527299999999 6.4951710900000004 7.7422604599999998 O
atom 2.0447509500000001 1.1562805700000001 0.4932113700000000 O
atom 2.7050343500000000 0.9607093799999999 5.4256409300000001 O
atom 2.3690368999999998 6.0665509399999999 0.1273615800000000 O
atom 2.2519207899999998 6.0966490699999998 5.1781184800000002 O
atom 7.3228989699999998 0.9621486100000000 0.0267628800000000 O
atom 7.6313175900000001 1.2217543099999999 5.0859880100000003 O
atom 7.3721008599999998 6.0357226400000004 0.1929403500000000 O
atom 7.2432370800000001 6.2718280499999999 5.2422680200000000 O
atom 2.4694129600000001 3.5402792900000000 -0.1894221800000000 O
atom 2.1122857100000001 3.5157541299999999 4.7730093800000004 O
atom 2.5126910699999998 8.6057099600000004 -0.0374473000000000 O
atom 2.2635882700000001 8.6359232800000001 4.9787840499999998 O
atom 7.4027970999999999 3.5158502700000001 -0.0790347500000000 O
atom 7.0877850899999997 3.7740844000000000 5.0019238300000000 O
atom 7.5818939700000003 8.4838656300000004 -0.1917568800000000 O
atom 7.1952467499999999 8.7775591199999994 4.9249722800000004 O
atom 2.6848080500000000 4.1907629399999999 2.2193779299999998 O
atom 2.2647849000000000 3.9024923600000001 7.3559425599999999 O
atom 1.8194415300000000 9.3333349600000002 2.6027452000000002 O
atom 2.1764244700000002 8.9336148000000009 7.5082789500000002 O
atom 7.6148865399999996 3.8797495799999999 2.4468279599999998 O
atom 7.2562063200000004 3.9969020999999998 7.5008447599999997 O
atom 7.0980488099999999 8.9010132800000008 2.3724777399999999 O
atom 7.1788540200000002 9.0311282100000003 7.4469671799999997 O
