lattice_vector 10.0206308899999996 0.0215244000000000 0.0820496200000000 
lattice_vector -0.0290036900000000 10.4636580400000003 -0.1310073200000000 
lattice_vector 0.0814482100000000 -0.1681629100000000 10.0655950099999991 
atom 1.1158454499999999 0.3024635800000000 1.2110583200000000 Si
atom 1.1982009899999999 0.1291587000000000 6.1537997700000000 Hf
atom 1.3368075500000001 5.3774385400000000 1.1200890299999999 Hf
atom 1.2657044500000001 5.2728583200000001 6.0251896399999998 Hf
atom 6.3329024599999997 0.2143766200000000 1.3507100000000001 Hf
atom 6.3249471300000000 0.0969878800000000 6.3762089099999999 Hf
atom 6.3390002100000000 5.4279704100000004 1.1840241000000000 Hf
atom 6.4731738900000000 5.3380981800000002 6.3001999499999997 Hf
atom 1.3611182100000001 2.3694518900000001 3.6675057600000001 Hf
atom 1.4279615100000000 2.2051873199999998 8.7867343499999997 Hf
atom 1.2901617500000000 7.6047339400000000 3.6839392100000001 Hf
atom 1.3633757900000001 7.7115968800000001 8.6405922200000003 La
atom 6.4199040900000002 2.4099446400000000 3.8002474999999998 Hf
atom 6.4834417100000001 2.3695382299999999 8.8279801899999999 Hf
atom 6.3906492799999999 7.6523037699999996 3.7202536500000001 Hf
atom 6.4200747500000004 7.5707064300000004 8.8275826300000002 Hf
atom 3.7799832599999998 2.8388433499999999 1.1522626600000001 Hf
atom 3.9253780300000001 2.6877447999999999 6.0642998600000002 Hf
atom 3.6531642500000001 7.9398814800000004 1.2082552499999999 Hf
atom 3.8262899600000000 7.7903161299999999 6.1663447099999997 La
atom 8.7289149800000008 2.7960093100000001 1.2314129700000001 Hf
atom 8.7415929600000002 2.7029301100000001 6.2846912300000000 Hf
atom 8.7192364799999993 8.0271184299999998 1.2331624000000001 Hf
atom 8.6778203299999994 7.9603145599999996 6.2334229499999996 Hf
atom 3.6732576799999999 5.0472446499999997 3.6899486600000002 Hf
atom 3.7166980900000000 4.8775933000000000 8.7051337499999999 Hf
atom 3.5940957199999999 10.2405192700000001 3.6245879300000001 Hf
atom 3.7778307899999999 10.2528546299999999 8.9758221500000008 Hf
atom 8.6510597499999999 5.0032148899999997 3.7069082000000000 Hf
atom 8.7755002500000003 4.9486088400000003 8.8155866599999992 Hf
atom 8.6591485099999996 10.2820298000000001 3.6873095800000000 Hf
atom 8.6630776500000000 10.1918319400000001 8.7993294700000000 Hf
atom 0.3591834800000000 1.8438768400000001 1.8444453999999999 O
atom 0.3383213900000000 1.8032963500000001 7.0290509999999999 O
atom 0.3408581000000000 7.1467023500000000 1.8615469700000000 O
atom 0.4307531500000000 7.0821542700000002 6.5481924200000003 O
atom 5.2505791300000002 1.8826785699999999 2.1414589500000001 O
atom 5.3860465800000004 1.8498949400000000 7.1420116299999998 O
atom 5.3574435899999999 7.1631745599999999 1.9517373600000001 O
atom 5.6633414999999996 7.0276517299999997 7.0590564100000002 O
atom 0.2452743700000000 0.7658851000000000 4.4723556599999998 O
atom 0.3946001000000000 0.5044279900000000 9.7467550599999999 O
atom 0.3030995900000000 5.8264702200000000 4.2512051000000000 O
atom 0.3304595400000000 5.8089387400000003 9.5234549499999996 O
atom 5.2414861000000004 0.8485548600000000 4.7000101299999999 O
atom 5.4194615900000001 0.7409550300000000 9.7087565599999994 O
atom 5.2784705599999997 6.0521532599999999 4.5729027799999997 O
atom 5.4259563300000000 5.8240015100000004 9.4695654499999993 O
atom 4.6983734799999999 4.5694513099999998 1.9196378199999999 O
atom 4.7769500999999996 4.4577094900000001 6.9082583900000003 O
atom 4.6554732000000003 9.7765296999999993 1.8274485600000001 O
atom 4.7303149400000004 9.7703832599999991 7.1665497699999996 O
atom 9.7108214299999993 4.4757781899999998 1.9754578500000000 O
atom 9.7687641999999997 4.4045925300000004 7.0480129299999996 O
atom 9.8914582000000006 9.8285428400000008 1.9138347000000000 O
atom 9.8170337599999993 9.5746974300000005 7.1198468799999999 O
atom 4.7956065099999998 3.4335653000000002 4.3988824099999997 O
atom 4.8380165699999997 3.2836714599999999 9.5468033499999994 O
atom 4.8314186299999999 8.7322550600000000 4.3217547200000004 O
atom 4.5519307700000002 8.3953705099999993 9.3964875600000006 O
atom 9.7303592800000001 3.2988594000000000 4.5191306700000000 O
atom 9.7726217700000007 3.1678276599999999 9.5195583700000004 O
atom 9.6617379799999998 8.5998347200000005 4.4439102500000001 O
atom 9.4854726199999995 8.4627032000000000 9.5284139799999998 O
atom 2.3168335899999999 0.7949334900000000 2.4525173499999999 O
atom 2.3831674199999999 0.3541191700000000 7.7598759099999999 O
atom 2.6658639200000001 6.2853538000000002 2.3610744000000001 O
atom 2.5917198899999998 5.9764000499999996 7.4032380199999999 O
atom 7.7205472700000000 1.2091730300000001 2.5465620699999998 O
atom 7.7557320799999996 1.1077222600000001 7.5740661899999999 O
atom 7.6967953900000001 6.4080804999999996 2.4746867899999998 O
atom 7.9246516600000003 6.3661653899999999 7.5469530000000002 O
atom 2.6721140499999998 1.3601827300000000 4.9955140900000004 O
atom 2.8055663700000002 1.3708118700000000 10.0680741000000005 O
atom 2.6007325400000001 6.4693232600000004 4.7953047299999998 O
atom 2.8346723500000000 6.4130866700000002 9.9770403699999992 O
atom 7.7089801500000004 1.3386753000000000 5.0617857199999996 O
atom 7.7700165600000002 1.2798040700000000 10.0968621800000005 O
atom 7.7297222699999999 6.5695755800000004 4.9849195000000002 O
atom 7.7497724300000002 6.5243515299999997 10.0679415300000006 O
atom 2.3853066300000001 3.9097608099999999 4.9387234600000003 O
atom 2.3662085300000002 3.8651613999999999 9.9483548200000005 O
atom 2.2604147999999999 9.2170923400000007 5.0154141699999997 O
atom 2.2673142199999998 9.3932771699999993 10.3110268499999993 O
atom 7.3750868199999999 3.9510082500000001 5.0034251200000002 O
atom 7.4469861000000002 3.8923592199999999 10.0427307199999998 O
atom 7.3469607500000000 9.2182441799999992 4.9898660599999998 O
atom 7.2292534599999998 9.1663707399999996 10.0126123099999997 O
atom 2.3999681599999998 3.6683641499999999 2.4290306600000000 O
atom 2.6543885500000002 3.2383593199999998 7.5385974400000002 O
atom 2.5659875500000000 8.7295167700000000 2.6578634100000000 O
atom 7.3227424000000001 3.7856664800000002 2.4679253200000000 O
atom 7.3983211400000002 3.7421028399999998 7.5188107400000002 O
atom 7.3981402500000000 9.0655633899999994 2.4510490900000002 O
atom 7.3861621099999999 8.9944203500000004 7.5208268399999998 O
