lattice_vector 10.1549437999999999 0.0009626200000000 0.8240132400000000 
lattice_vector -0.0139335600000000 10.3484923500000008 0.0040661200000000 
lattice_vector 0.3890901700000000 0.0059223400000000 5.2035749100000004 
atom 1.4907715699999999 0.1136552100000000 1.5842509100000000 La
atom 1.5100550900000000 5.3757377899999996 1.6422023600000000 Hf
atom 6.5974562099999998 0.2134036000000000 2.0464335600000001 Hf
atom 6.6024354699999996 5.3546063600000000 2.0450831500000000 Hf
atom 1.7068602100000001 2.3975369600000001 4.2435605799999996 Hf
atom 1.6645760199999999 7.4709816699999996 4.2815496099999999 Hf
atom 6.8051390100000004 2.3962173500000001 4.6663273099999998 Hf
atom 6.8158036500000003 7.5233749100000002 4.6125902099999996 Hf
atom 3.7374995800000002 2.7907252499999999 1.3902435900000001 Hf
atom 3.8355047000000000 7.8998345199999997 1.2706585200000000 Hf
atom 8.8373141400000002 2.8149516499999998 1.7931007400000001 Hf
atom 8.7669584100000009 7.9561300199999998 1.7967514899999999 Hf
atom 3.9606636900000001 4.9387704200000000 3.9838306399999999 Hf
atom 4.0295950500000002 10.2004891200000003 4.0148364900000004 Hf
atom 9.0132739599999994 4.9505655700000002 4.3878728100000002 Hf
atom 8.9703385900000008 10.1415450000000007 4.4451059900000001 Hf
atom 0.4797890600000000 2.0067094100000000 0.9295855100000000 O
atom 0.4606673800000000 7.0124700200000003 0.9349496300000000 O
atom 5.4995449199999999 1.7531259299999999 1.2907204400000001 O
atom 5.5497045199999997 6.9151332200000004 1.2727966200000000 O
atom 0.5936080500000001 0.7764203300000000 3.7158990599999999 O
atom 0.6350849100000000 5.9231702000000004 3.5061319499999999 O
atom 5.7670194300000004 0.8229424900000000 3.8945768500000000 O
atom 5.6943906300000000 6.0057761000000003 3.8680176999999998 O
atom 4.8278354200000004 4.3616906999999996 2.1380111300000002 O
atom 4.6830479599999997 9.5484028999999992 2.1381670000000002 O
atom 9.8566215400000008 4.4571199500000001 2.4903025699999999 O
atom 9.6216604300000004 9.5588416499999997 2.5793769900000001 O
atom 5.0585853299999997 3.4410465000000001 4.7510294100000001 O
atom 5.1327463000000000 8.6176646800000007 4.7398112799999996 O
atom 10.0548307300000008 3.3808750999999999 5.0868720200000004 O
atom 10.0927714300000009 8.5531959099999995 5.1395070199999999 O
atom 3.0608486199999998 1.4116746400000000 2.8203656800000001 O
atom 2.9449626000000002 6.6422045799999996 2.7359167499999999 O
atom 8.0576583300000006 1.3518252700000000 3.1621079999999999 O
atom 8.0591044600000004 6.5035983300000000 3.1353937300000001 O
atom 3.2854733199999999 1.3249032400000000 5.2869744000000001 O
atom 3.1852801799999999 6.3678076299999997 5.3426878999999996 O
atom 8.2314961499999999 1.2579820799999999 5.7866590200000001 O
atom 8.2649400800000006 6.4029649500000003 5.7367415499999996 O
atom 2.2883625699999999 3.9315782900000000 0.2746596200000000 O
atom 2.3985935800000000 8.9556068999999994 0.0477723800000000 O
atom 7.3456882500000003 3.9223998899999999 0.6899370200000000 O
atom 7.3352108100000004 9.0911624700000004 0.6918489600000000 O
atom 2.4629426799999998 3.8871954700000000 2.8765030000000000 O
atom 7.5471184400000002 3.8403213900000002 3.2936525900000002 O
atom 7.4133635299999998 8.9820855200000000 3.2883240100000002 O
