lattice_vector 10.0002187800000009 0.1731084600000000 0.0234323900000000 
lattice_vector 0.1361436900000000 10.2449905500000007 0.1827743800000000 
lattice_vector 0.0979173500000000 0.2359175100000000 9.9754607100000001 
atom 1.0781971900000000 0.0302889900000000 1.1960606199999999 Si
atom 1.4144836500000000 0.2967775700000000 6.0903740300000004 Hf
atom 1.3330164499999999 5.0503612499999999 1.3277719600000000 Hf
atom 1.2632656400000000 5.2049752900000001 6.3498145299999997 Hf
atom 6.0718771399999998 0.0397748400000000 1.2256764000000000 Hf
atom 6.2676469700000004 0.2564446600000000 6.1582768899999998 Hf
atom 6.4645208399999996 5.2889518799999999 1.3005876999999999 Hf
atom 6.3199003899999999 5.4141500699999998 6.3000956400000003 Hf
atom 1.5294024300000000 2.7694462199999998 3.8372736000000001 Hf
atom 1.4309332900000000 2.7876295600000001 8.8778619499999998 Hf
atom 1.2705432100000000 7.7640581400000004 3.9445671000000000 Hf
atom 1.5128184300000000 7.8773754299999998 8.9213747300000001 Hf
atom 6.5223454399999996 2.7770936700000002 3.8646633000000001 Si
atom 6.2824714699999999 2.7468910300000000 8.9459703400000006 Hf
atom 6.4023722000000003 8.0023920499999992 3.9173595400000001 Hf
atom 6.5712593200000002 8.0861928400000007 8.8728449800000000 Hf
atom 4.0247516900000004 2.7727231200000002 1.5704595500000000 Hf
atom 3.9966982000000000 2.8301858400000000 6.3076866000000003 Hf
atom 3.9468187399999999 7.5598347300000004 1.2824456900000001 Hf
atom 3.8692563500000001 7.9488695500000004 6.4260325900000002 Hf
atom 8.8248027899999997 2.7643150300000001 1.3134035300000000 Hf
atom 8.8675153899999994 2.7690639500000001 6.2616191800000003 Hf
atom 8.9571970699999994 7.8232722900000002 1.3911165500000000 Hf
atom 9.0077339799999994 8.1156003299999995 6.5714095500000003 Hf
atom 3.5750915800000000 0.0359816900000000 3.4914723900000002 Hf
atom 3.7027214300000000 0.2141590400000000 8.7292001399999997 Hf
atom 3.7885434199999999 5.4933015799999998 3.9634339500000002 Hf
atom 3.9635113600000000 5.3415019199999998 8.7950771799999998 Hf
atom 8.7759995100000001 0.2173898500000000 3.7706142200000001 Hf
atom 8.8308759400000003 0.4493996800000000 8.7981510800000002 Hf
atom 8.7789864499999997 5.4014359299999999 3.8773613299999998 Hf
atom 8.8254566000000008 5.3465119500000000 8.6723504400000007 Hf
atom -0.3038348400000000 1.6687164600000000 -0.3108848600000000 O
atom 0.2254059000000000 1.5674098999999999 4.7564038999999996 O
atom 0.3497641100000000 6.6756348799999996 0.3282503300000000 O
atom -0.0401871300000000 6.6910010399999997 5.1999057999999998 O
atom 4.7232820699999998 1.4921973399999999 0.0000221400000000 O
atom 5.5527101500000002 2.0216151500000001 4.9982450500000004 O
atom 5.2574291600000000 6.6232534200000002 0.0288230000000000 O
atom 4.9641716400000000 7.0038488499999998 4.9971597900000004 O
atom -0.0510526200000000 0.8612748700000000 2.1116686499999999 O
atom 0.0432859800000000 1.1451268600000000 7.2768860599999998 O
atom 0.2169034200000000 6.1073090600000004 2.7275696400000000 O
atom 0.2000715100000000 6.3765618799999997 7.7003131900000001 O
atom 4.9946695200000004 1.1446561700000000 2.4920214700000001 O
atom 5.0730703600000000 1.3109390100000000 7.4528348900000001 O
atom 5.0782834599999997 6.1626552200000004 2.5206498900000001 O
atom 5.1117521000000004 6.4506356900000004 7.5119446800000000 O
atom 0.3657396000000000 3.4561539899999998 2.3942312000000001 O
atom 0.1768763800000000 3.7340494299999998 7.5129354700000004 O
atom -0.2942969600000000 8.5790054399999995 2.9883068700000002 O
atom 0.0520161300000000 8.9039356999999999 7.9944143800000003 O
atom 5.5826263400000000 3.6041840999999999 2.7675369500000002 O
atom 5.1985380699999997 3.8903313900000001 7.6845858600000003 O
atom 4.8839160100000001 8.8183514600000006 2.6137861600000001 O
atom 5.1642508300000003 9.0014639400000007 7.5973520199999998 O
atom 0.0672779200000000 4.1290703799999999 0.0198841000000000 O
atom 0.0210410300000000 4.1300196199999997 5.0477013199999998 O
atom 0.2442244300000000 9.2866194499999999 0.4585019300000000 O
atom 0.2168583400000000 9.2824694399999998 5.3407869400000001 O
atom 5.0638979700000002 4.0910906300000001 0.2668437900000000 O
atom 4.8993943700000004 4.4517957299999997 5.2852246699999998 O
atom 5.1995278899999997 9.1833888800000008 0.0809190700000000 O
atom 5.1771306499999996 9.5853610400000004 5.0357134400000003 O
atom 2.6052924499999999 1.6639284000000001 2.5701322599999998 O
atom 2.6282442499999998 1.7350395400000000 7.5847391200000001 O
atom 2.6570271800000000 6.8898518199999996 2.7246207199999999 O
atom 2.7175120000000001 6.8389480799999998 7.7076092100000002 O
atom 7.6509700900000004 1.9459772700000000 2.9484374899999999 O
atom 7.6563407899999998 1.9007623800000000 7.7604040599999999 O
atom 7.5181755199999998 6.9459041199999998 2.5169283800000000 O
atom 7.6302862800000000 6.9132578499999999 7.5196839700000000 O
atom 2.0477427300000000 0.7859416500000000 0.0624060500000000 O
atom 2.8768026000000000 1.3164763200000000 5.0620829399999998 O
atom 2.7712053999999999 6.0497172499999996 0.2485429900000000 O
atom 2.4781769300000001 6.4306012600000004 5.2161917300000002 O
atom 7.3748519500000000 1.2406449200000000 0.3043577900000000 O
atom 7.9048075400000002 1.1393463800000001 5.3725185399999997 O
atom 7.7756578200000002 6.3623573599999999 0.0445720500000000 O
atom 7.3857274300000002 6.3767816799999997 4.9157262099999999 O
atom 2.5574698599999999 3.4676323600000001 0.2098292600000000 O
atom 2.5376980599999999 3.8707444500000001 5.1649431400000001 O
atom 2.8385894899999999 8.6009936499999995 -0.0419037700000000 O
atom 2.6709326600000001 8.9628402499999993 4.9779559700000000 O
atom 7.5180673999999996 3.7707127599999999 -0.0968873800000000 O
atom 7.4939639199999997 3.7647187199999999 4.7842793099999996 O
atom 7.7164119400000004 8.9240645599999997 0.1972450200000000 O
atom 7.6672428999999998 8.9241084599999994 5.2256701999999997 O
atom 2.8517587099999999 4.2347249700000003 2.6316736600000001 O
atom 2.6688293700000001 4.2887881500000002 7.6244480100000001 O
atom 2.1550090599999998 9.4481523200000002 2.4752954800000002 O
atom 2.6353515999999999 9.4004919499999993 7.5354137699999999 O
atom 8.0309119100000004 4.4748004999999997 2.2550200500000002 O
atom 7.7820371699999997 4.3867893899999997 7.2233863100000004 O
atom 7.3703562299999996 9.5964171199999999 2.8512341399999999 O
atom 7.6570508600000000 9.5561794500000001 7.7077376900000001 O
