lattice_vector 5.0579181999999996 0.0061844300000000 -0.0345583800000000 
lattice_vector -0.0167433600000000 10.4658961099999992 -0.0837175900000000 
lattice_vector -0.1322296300000000 -0.0646291800000000 10.2140561299999995 
atom 1.2400892200000000 0.0432869700000000 1.1787680300000001 La
atom 1.2523634500000000 0.1262425200000000 6.3630018699999997 Hf
atom 1.3098288600000001 5.3915070299999996 1.2140563799999999 Hf
atom 1.1652644100000000 5.2432231900000001 6.2437204399999997 La
atom 1.3447257200000000 2.3991770400000001 3.7913289799999998 Hf
atom 1.2401670600000001 2.4078146999999999 8.8987485799999995 Hf
atom 1.2980209800000000 7.6729116399999997 3.7497328799999998 Hf
atom 1.2702939900000001 7.5997297100000001 8.8562351899999996 Hf
atom 3.6336239799999999 2.7887591600000001 1.2467217900000001 Hf
atom 3.6181184499999999 2.6900460399999999 6.3428065399999998 Hf
atom 3.6756558500000001 7.9554298599999997 1.1937986899999999 Hf
atom 3.5592907100000000 7.9890942599999999 6.3116677499999998 Hf
atom 3.6407895500000000 5.0424973499999997 3.6857593600000000 Hf
atom 3.5413511400000002 4.9933258299999999 8.9333767799999997 Hf
atom 3.5992810000000000 10.2583619600000002 3.7843976399999999 Hf
atom 3.5664654300000000 10.2425812500000006 8.7508417200000004 Hf
atom 0.2565475000000000 2.0362974800000000 2.0629092999999998 O
atom 0.3133406600000000 1.9194961699999999 7.0108305499999997 O
atom 0.3709745500000000 7.1851088299999999 1.8618311599999999 O
atom 0.1823749000000000 7.2365843099999996 7.1274211799999998 O
atom 0.2591226200000000 0.7101078600000000 4.5382626200000002 O
atom 0.2124442000000000 0.7193359700000000 9.3389674599999992 O
atom 0.2707048300000000 5.9841578599999998 4.1893852499999999 O
atom 0.1844312300000000 5.9108032799999997 9.6032238799999998 O
atom 4.6279797100000000 4.5631508700000003 1.8825054500000000 O
atom 4.4016950300000000 4.4354951900000001 7.1751619699999996 O
atom 4.4588747099999999 9.7013920299999992 2.0255031899999998 O
atom 4.5537732699999998 9.7633775600000003 6.9478122000000004 O
atom 4.8477008599999998 3.4511419000000001 4.6326986799999998 O
atom 4.6187756799999997 3.2908393899999999 9.6749597800000000 O
atom 4.6765427600000002 8.5562062200000000 4.5252578500000000 O
atom 4.7732925599999998 8.6519109499999995 9.6972755100000008 O
atom 2.7757125100000000 1.3112584400000000 2.6033073799999999 O
atom 2.6369227700000000 1.1490844700000000 7.5840884600000003 O
atom 2.6944674700000002 6.4145516000000002 2.4350624900000000 O
atom 2.7014654800000000 6.5114917700000001 7.6684013000000002 O
atom 2.6299229899999998 1.3021141300000001 5.1022467799999998 O
atom 2.6704374999999998 1.3688300499999999 10.0906945700000001 O
atom 2.7287131400000000 6.6334937500000004 4.9416024800000002 O
atom 2.5552828000000001 6.5028563899999998 10.1672617299999999 O
atom 2.4745149999999998 3.8279920900000000 4.9331160199999999 O
atom 2.1696146199999999 3.9489629900000001 10.1639740900000000 O
atom 2.2274759199999998 9.2139879899999997 5.0148711099999996 O
atom 2.3997117399999999 9.0285262700000004 9.9982544499999992 O
atom 2.2472456699999999 3.8569979900000000 2.4627538499999999 O
atom 2.2808605599999998 3.6553486899999998 7.6589847899999999 O
atom 2.3384434299999999 8.9206235100000004 2.5099600500000001 O
atom 2.1729785900000000 9.0572112600000008 7.5276573200000003 O
