lattice_vector 5.0778649299999996 0.0738598100000000 0.0697396400000000 
lattice_vector 0.0246738000000000 10.1433435200000002 -0.1697260400000000 
lattice_vector 0.1457257600000000 -0.2962547000000000 10.3410557200000000 
atom 1.1986574400000001 0.1321996900000000 1.3748367600000000 La
atom 1.4865983000000000 -0.2580516200000000 6.5902745600000001 Hf
atom 1.1966689500000001 5.1125638000000002 1.3475359099999999 Hf
atom 1.3442596400000000 4.8444916100000004 6.3166250599999998 Hf
atom 1.4722781599999999 2.2881132200000001 3.7971665600000000 La
atom 1.3302683300000000 2.3821526600000000 8.9232971499999998 Hf
atom 1.4992335999999999 7.4505655800000001 3.6550894500000002 Hf
atom 1.4974088999999999 7.4224283900000003 9.0268948099999999 Hf
atom 3.7487098400000001 3.0131480800000001 0.9372371700000000 Hf
atom 3.9415463499999999 2.2552671800000001 6.4207656599999998 Hf
atom 3.8312047200000001 7.7868603099999998 1.1125908799999999 Hf
atom 4.1052066900000002 7.4646414200000004 6.6567472499999996 Hf
atom 4.0004105499999998 -0.5198314000000001 4.3045471900000001 Hf
atom 3.9534426100000002 -0.0584076900000000 9.1618162900000009 Hf
atom 3.9417616400000002 4.8503539399999998 3.9595909499999999 Hf
atom 3.8141780399999998 4.8763717199999999 8.7566096899999994 Hf
atom -0.0193530800000000 1.6120594100000001 -0.0268279300000000 O
atom 0.1274141500000000 0.8230348600000000 5.3740934600000001 O
atom 0.4429479000000000 6.7230664700000000 0.3278283400000000 O
atom -0.2828859800000000 5.8666168399999998 5.4901554099999998 O
atom -0.7026230100000000 1.1441973900000000 3.0686726599999998 O
atom 0.1589194500000000 0.9810160500000000 7.8541480100000003 O
atom 0.1132173200000000 6.0687258899999996 2.8967522200000002 O
atom 0.2049346600000000 6.0885404200000002 7.9662483300000000 O
atom 0.0634440200000000 3.6277937900000001 2.2385215900000000 O
atom 0.0300766600000000 3.4965140099999998 7.4806268100000004 O
atom 0.0578936300000000 8.6315373799999993 2.4937787199999999 O
atom 0.3100345300000000 8.6076193199999995 7.5890280499999996 O
atom -0.0939089600000000 4.1587628199999997 -0.3040877200000000 O
atom 0.0850887000000000 3.5250226599999999 4.9791964699999998 O
atom -0.0265658700000000 9.0576195599999991 -0.3062724000000000 O
atom 0.2930900400000000 8.4284598400000004 5.0940554499999999 O
atom 3.3734466300000001 1.2747922400000000 2.1029044300000002 O
atom 2.6579550400000000 1.1426747600000000 7.6584811699999999 O
atom 2.5836883700000000 6.4931709199999998 2.1065790299999998 O
atom 2.6359830700000000 6.1785675600000003 7.3777944800000004 O
atom 2.5442231999999998 1.5965567000000001 -0.2025794500000000 O
atom 2.6911597100000000 0.8079494200000000 5.1985872500000001 O
atom 2.9783442700000000 6.6963664500000002 -0.4870243000000000 O
atom 2.2525855500000000 5.8402191600000002 4.6750195200000002 O
atom 2.4023294399999999 4.1343092900000000 -0.0912466800000000 O
atom 2.7219168800000002 3.5056206500000000 5.3089881800000001 O
atom 2.6098554300000001 9.0381441099999993 0.0230499300000000 O
atom 2.7893867299999999 8.4047302100000003 5.3063022999999996 O
atom 2.6390484999999999 3.9310139600000000 2.5090397699999998 O
atom 2.5318935300000001 3.6593301600000001 7.7548610699999996 O
atom 2.6334373700000002 8.9342062900000005 2.7629390100000002 O
atom 2.8119144000000000 8.7703953800000001 7.8628092100000000 O
