lattice_vector 10.0411939399999994 -0.0284283300000000 0.1554270600000000 
lattice_vector 0.0807788900000000 10.1804864700000000 0.0826875200000000 
lattice_vector 0.1554035900000000 -0.0301783700000000 10.0411557800000004 
atom 1.2168703400000001 -0.0362924300000000 1.2166401899999999 Si
atom 1.3484458600000000 -0.0721684900000000 6.2865546400000003 Hf
atom 1.2404947799999999 5.0243630300000000 1.2412488500000001 Hf
atom 1.4107689600000000 5.0718142700000000 6.3645392899999997 Hf
atom 6.2867387499999996 -0.0713003300000000 1.3482529100000000 Hf
atom 6.3479464800000001 -0.1388515300000000 6.3477309899999996 Hf
atom 6.3637842800000000 5.0727194899999999 1.4115890499999999 Hf
atom 6.2765069599999999 5.1669665299999998 6.2772881700000003 La
atom 1.3415924299999999 2.5664504799999999 3.7627076200000000 Hf
atom 1.3146310699999999 2.5272826099999999 8.7450213899999998 Hf
atom 1.3375435499999999 7.7023533400000002 3.7553526100000001 Hf
atom 1.4077884800000000 7.6442197299999997 8.8555127999999996 Hf
atom 6.3236640800000004 2.4344899700000000 3.8592164699999998 Hf
atom 6.3453337599999999 2.5119385400000001 8.8489559999999994 Hf
atom 6.4920086699999997 7.6776784700000000 3.9044428400000002 Hf
atom 6.4698482300000002 7.6045360899999999 8.9973341999999992 Hf
atom 3.7623802899999998 2.5669739300000001 1.3419012699999999 Hf
atom 3.8589155100000001 2.4341610000000000 6.3239844700000001 Hf
atom 3.7540694700000001 7.7028207100000001 1.3388308000000000 Hf
atom 3.9031405499999998 7.6772283500000000 6.4933291000000004 Hf
atom 8.7447855000000008 2.5287253100000000 1.3150321400000000 Hf
atom 8.8487143400000008 2.5125468500000001 6.3454895000000002 Hf
atom 8.8542218600000009 7.6454319100000001 1.4091078100000001 Hf
atom 8.9961129999999994 7.6048774400000001 6.4712066200000002 Hf
atom 3.8064627999999998 -0.0179822100000000 3.8062509699999998 Hf
atom 3.8542443700000000 -0.0284232500000000 8.8509162400000001 Hf
atom 3.8239631100000002 4.9057877400000001 3.8245797200000000 Hf
atom 3.8147377800000002 4.9365084299999999 8.8425754500000000 Hf
atom 8.8511392600000001 -0.0274814400000000 3.8541134499999998 Hf
atom 8.8562946300000007 0.0388694000000000 8.8561571200000007 Hf
atom 8.8418465299999998 4.9373385100000000 3.8155634699999998 Hf
atom 8.8213913000000002 4.9719761299999998 8.8221952800000007 Hf
atom -0.3221129800000000 1.6164495800000001 -0.3219398200000000 O
atom -0.1137476500000000 1.5419852599999999 4.7163247699999999 O
atom 0.2713744100000000 6.6877367200000002 0.2724436700000000 O
atom 0.7094815300000000 6.7485778999999999 5.3903871499999996 O
atom 4.7162099099999999 1.5429832000000001 -0.1137780300000000 O
atom 4.9786741499999998 1.2119599999999999 4.9786023500000001 O
atom 5.3893477000000001 6.7496013599999998 0.7103793600000000 O
atom 0.2595015600000000 0.8709091000000000 2.2215567900000002 O
atom 0.0854975600000000 1.0903893700000000 7.3043510400000002 O
atom 0.3439716200000000 6.0325623400000001 2.7857085399999999 O
atom 0.1429560600000000 6.1424600399999996 7.6942765900000003 O
atom 5.1642057799999996 1.1000691199999999 2.4871749099999998 O
atom 5.1354427700000000 1.0652927900000000 7.4819272100000003 O
atom 5.5364540499999997 5.9342392300000002 3.5094908500000002 O
atom 5.1225463400000004 6.2770244499999999 8.0661457799999994 O
atom 0.0278936900000000 3.4925109700000001 2.4367532100000000 O
atom 0.1226432100000000 3.6112313000000000 7.4502471100000003 O
atom -0.1924157300000000 8.5381261100000003 2.7917072400000000 O
atom 0.1212431400000000 8.7406858700000001 7.7534742799999998 O
atom 5.0556149399999999 3.6283790200000001 2.5329880000000000 O
atom 5.0059614300000002 3.5544195099999998 7.6665516599999997 O
atom 4.9607539999999997 8.6822099399999999 2.7500449699999998 O
atom 5.1688831100000003 8.7498784599999997 7.7824969800000003 O
atom -0.0409325000000000 4.1193138700000000 -0.0402731700000000 O
atom 0.1050106200000000 4.1256352999999999 5.0154012899999998 O
atom 0.2773542700000000 9.2911881500000000 0.2791180100000000 O
atom 0.1757530100000000 9.1724712299999993 5.1366815099999998 O
atom 5.0147162099999996 4.1266207699999997 0.1057327100000000 O
atom 5.0333175700000004 3.6431910400000000 5.0339603500000001 O
atom 5.1350506100000004 9.1732999599999996 0.1774970000000000 O
atom 5.2048737100000002 8.8912405000000003 5.2064515800000004 O
atom 2.7911244700000002 1.5360278700000001 2.7912738199999998 O
atom 2.6477251700000002 1.3753346700000000 7.7411411100000000 O
atom 2.9065101100000001 6.6474254500000001 2.9075743300000001 O
atom 2.6057095800000001 6.4714197799999997 7.7495084700000003 O
atom 7.7410581799999996 1.3763423400000001 2.6479476599999998 O
atom 7.6696376600000002 1.3818436100000000 7.6697511399999998 O
atom 7.7484960200000002 6.4724427400000000 2.6070920499999999 O
atom 7.7336932999999997 6.5482806099999999 7.7349557400000002 O
atom 2.2217454900000000 0.8713265400000000 0.2596100600000000 O
atom 2.4873193599999999 1.0996927500000000 5.1643110500000002 O
atom 2.7846415699999998 6.0331823599999996 0.3447544700000000 O
atom 3.5088259700000002 5.9338671500000002 5.5371590099999999 O
atom 7.3045471800000001 1.0917259100000001 0.0858243400000000 O
atom 7.4822633500000002 1.0657603499999999 5.1358815399999997 O
atom 7.6933677200000004 6.1437854500000002 0.1440712100000000 O
atom 8.0653498999999993 6.2774267500000001 5.1237628500000003 O
atom 2.4361372200000000 3.4929659900000001 0.0281864100000000 O
atom 2.5323670300000001 3.6280814100000001 5.0559346600000001 O
atom 2.7902230800000001 8.5387335899999997 -0.1909281300000000 O
atom 2.7485533200000001 8.6818935400000008 4.9621220099999999 O
atom 7.4496018099999999 3.6124184300000000 0.1230131500000000 O
atom 7.6658761000000002 3.5548892799999998 5.0063559000000000 O
atom 7.7519710499999999 8.7419173499999996 0.1226659800000000 O
atom 7.7810292399999996 8.7502598599999999 5.1702130500000001 O
atom 2.5150847000000001 4.0198283400000001 2.5156700999999999 O
atom 2.5900909699999999 3.9054216700000000 7.5769969599999998 O
atom 2.2970858399999998 9.1937861499999993 2.2986463200000000 O
atom 2.6738333299999999 9.0464569400000006 7.5132361300000001 O
atom 7.5765260899999998 3.9063876799999999 2.5905541099999998 O
atom 7.6446322799999997 3.8527565099999999 7.6451392199999999 O
atom 7.5118379099999997 9.0473075000000005 2.6752491400000000 O
atom 7.6831356700000004 9.0334458800000004 7.6842756600000000 O
