lattice_vector 10.0729766999999999 -0.0053430500000000 -0.0615200200000000 
lattice_vector 0.0220995100000000 10.2093559000000003 0.0036416500000000 
lattice_vector -0.0658551600000000 0.0263528000000000 10.5489732200000006 
atom 1.1820133799999999 0.0492578200000000 2.0255432899999999 Si
atom 1.3547107000000000 0.0510467400000000 6.7534352300000000 Hf
atom 1.3793650399999999 5.3663961999999996 1.7993882900000000 Hf
atom 1.3727233999999999 5.3366344000000003 7.0837215999999996 Hf
atom 1.3553126000000000 2.3471994000000000 4.3214004499999996 Hf
atom 1.2037636199999999 2.3307695399999999 9.6822965500000002 La
atom 1.3559548900000000 7.4221395200000000 4.4213527499999996 Hf
atom 1.3131275899999999 7.5374334999999997 9.6756730799999993 Hf
atom 3.6185949000000002 2.7816395300000001 1.7451576300000000 Hf
atom 3.5530223500000000 2.7889762199999999 7.0104522700000000 Hf
atom 3.5754287200000001 7.9825763500000004 1.7762287500000000 Hf
atom 3.6324069600000000 7.8251716000000000 7.0251190399999999 Hf
atom 3.6146112000000001 4.8707407299999996 4.4080633300000001 Hf
atom 3.5815178400000001 4.9214261600000002 9.7014017999999993 Hf
atom 3.6172171700000000 10.0262378499999993 4.3103346299999998 Hf
atom 3.6560514999999998 10.1596022799999997 9.5801412599999995 La
atom 6.4608221600000002 0.1886701500000000 0.8928899300000001 Hf
atom 6.3359219099999997 0.2263800300000000 6.0629399199999998 Hf
atom 6.4221997999999996 5.3173579000000002 0.8075151500000000 Hf
atom 6.4133734899999997 5.3065377299999996 6.0357149400000001 Hf
atom 6.4059301599999996 2.3491024299999999 3.4424947900000000 Hf
atom 6.3988292500000004 2.4415503500000000 8.6825245500000001 Hf
atom 6.3854461000000002 7.4221062199999999 3.4108649999999998 Hf
atom 6.3680816399999998 7.3716662800000003 8.6894138400000003 Hf
atom 8.7038917500000004 2.7380521999999998 0.9132466500000000 Hf
atom 8.6740994400000009 2.7596515300000002 6.0749612300000004 Hf
atom 8.7216463500000003 7.8776434000000002 0.8195575700000000 Hf
atom 8.6390216399999993 7.8875902199999999 6.0931559799999997 Hf
atom 8.6572742300000005 4.8954377999999998 3.4433670699999999 Hf
atom 8.6360096700000000 4.9389311899999999 8.7369727899999994 Hf
atom 8.6601937400000004 9.9830889599999999 3.4982137400000002 Hf
atom 8.3840720300000005 9.9357112599999997 8.7507985300000009 Hf
atom 0.5256216100000000 1.3895047000000000 1.1287898700000001 O
atom 0.2654047500000000 1.6178552700000000 6.1024160399999996 O
atom 0.3120236300000000 6.7504812100000002 0.7987444000000000 O
atom 0.2734185800000000 6.7743248300000003 6.1236855900000000 O
atom 0.3830274700000000 0.7389384300000000 3.5326972099999998 O
atom 0.2507028000000000 6.0592150699999996 3.4748425400000000 O
atom 0.2540199600000000 6.1202363799999997 8.7257696899999999 O
atom 4.7126442500000003 4.2659466899999998 0.8571918100000000 O
atom 4.6861149900000001 4.2071413099999999 6.0740626600000001 O
atom 4.8298647800000003 9.3358785300000005 0.9806111500000000 O
atom 4.6464558399999998 9.3645845100000003 6.1042096600000004 O
atom 4.7029671600000000 3.4133084700000000 3.5038045300000000 O
atom 4.6611177300000000 3.4176582199999999 8.7138296999999998 O
atom 4.6475454200000001 8.4907610600000005 3.5080752999999998 O
atom 4.6723528800000000 8.3577405400000000 8.6856814199999999 O
atom 2.6488243499999999 1.1328319300000000 2.8028064399999999 O
atom 2.3892398300000002 1.2552746699999999 7.9574925900000002 O
atom 2.7438011200000001 6.3933643699999996 3.0670155900000000 O
atom 2.7217780800000000 6.3977019899999998 8.3581480399999997 O
atom 3.2178086800000001 1.7966879400000000 0.1221006300000000 O
atom 2.7461787000000002 1.3162698900000001 5.4803891699999996 O
atom 2.8146006500000000 6.6164816399999999 0.3824861200000000 O
atom 2.7273289200000002 6.3699694800000000 5.7032075899999999 O
atom 2.2513568199999998 3.8136960200000001 3.1026244300000001 O
atom 2.3429205999999998 3.9334948100000000 8.2937247599999999 O
atom 2.1146193900000001 8.9687280000000005 3.0854384100000001 O
atom 2.0683573800000001 8.8570722300000000 8.2017853800000005 O
atom 2.2390490999999999 4.0839208700000000 0.4870278500000000 O
atom 2.1973125200000001 3.8359590799999999 5.6992019599999999 O
atom 2.1036535900000000 9.2821453599999995 0.7106598900000000 O
atom 2.3117607200000001 8.9050708099999998 5.6105067599999998 O
atom 5.4178242200000000 1.7074203200000000 1.7371889599999999 O
atom 5.2600109899999996 1.6444721099999999 7.0413806599999997 O
atom 5.3486652299999999 6.8055108200000003 1.7243275600000001 O
atom 5.3312793799999998 6.7217035200000002 6.9598938700000001 O
atom 5.3453720799999997 0.8537264200000000 4.3327152800000004 O
atom 5.8064644899999998 0.8053165799999999 9.6193586100000008 O
atom 5.3505124999999998 5.9542589699999997 4.3456673700000001 O
atom 5.3533835400000003 5.9158605099999999 9.6232541400000002 O
atom 9.8156616400000001 4.1228683500000001 1.8934015000000000 O
atom 9.7899425299999994 4.1076472099999997 7.1662108900000003 O
atom 9.8332209299999995 9.2649889999999999 1.8676261000000001 O
atom 9.6479258100000003 9.4326836299999997 7.1677890000000000 O
atom 9.7352511100000001 3.4604887400000002 4.4320109700000003 O
atom 9.6159986899999996 3.7313211300000000 9.9435511099999996 O
atom 9.7677427500000000 8.6224229799999996 4.5256148999999999 O
atom 9.7047119500000001 8.7319779900000007 9.7149965500000004 O
atom 8.2336707100000002 1.2634474700000000 10.0482071400000006 O
atom 7.7798794200000003 1.2661133800000000 4.7887644399999996 O
atom 7.7859843800000004 6.3667076299999996 10.0573964399999998 O
atom 7.7958632600000000 6.3931951500000004 4.7732400400000001 O
atom 7.8388473300000001 1.2697753300000001 2.1889080399999998 O
atom 7.7706249500000002 1.3042295300000000 7.4134641200000004 O
atom 7.8106647100000002 6.3778046499999999 2.1306787300000001 O
atom 7.7862109400000001 6.4073821999999998 7.3859221300000000 O
atom 7.1848020000000004 3.7549195300000000 10.1021056199999997 O
atom 7.2929818800000001 3.8152736699999998 4.7726290200000001 O
atom 7.2165991800000002 8.8470580600000002 10.0881913500000007 O
atom 7.2669915400000002 8.9133866299999998 4.7914150600000003 O
atom 7.3191528100000003 3.8303352099999999 2.1474152599999998 O
atom 7.3002102899999999 3.8791256999999999 7.3978511400000002 O
atom 7.3779448500000004 8.9222687799999996 2.1789033700000000 O
atom 7.1671895699999997 8.9351416700000001 7.4072555400000004 O
