lattice_vector 9.9813259100000007 -0.0266717500000000 0.0159255800000000 
lattice_vector -0.0167180800000000 10.4264220299999995 -0.0427606500000000 
lattice_vector 0.1207549700000000 -0.0980228700000000 10.0560055199999994 
atom 1.1785696400000001 0.3067941000000000 1.0493752100000000 Si
atom 1.4877136799999999 0.1148553600000000 6.3931932400000004 Hf
atom 1.3451031000000000 5.3144516599999996 1.2466390899999999 Hf
atom 1.4595365000000000 5.3291777299999996 6.3190075400000003 Hf
atom 6.3326158499999998 0.1503632900000000 1.2502348100000000 Hf
atom 6.2662844399999997 0.0539079600000000 6.1845014699999998 Hf
atom 6.3333080800000001 5.4073226800000000 1.1887977199999999 Hf
atom 6.4037671899999999 5.3160054700000003 6.2343109900000000 Hf
atom 1.2234483899999999 2.4188648000000001 3.6216144400000001 La
atom 1.4720587800000000 2.3672287800000000 8.8865388599999999 Hf
atom 1.3748956999999999 7.5086691600000002 3.8040661299999998 Hf
atom 1.3984261099999999 7.5869323199999998 8.8200752999999992 Hf
atom 6.3413626599999997 2.3847150400000001 3.7193640499999998 Hf
atom 6.4201019099999996 2.3285667000000001 8.7151928499999993 Hf
atom 6.3159754499999998 7.6685502799999998 3.7491916900000000 Hf
atom 6.3986677199999997 7.5928342500000001 8.7502650699999993 Hf
atom 3.7991627000000001 2.8047450700000001 1.1006945400000001 Hf
atom 3.7103440200000000 2.7062642800000001 6.2688359199999999 Hf
atom 3.6621025899999999 7.9392752800000004 1.2500671600000000 Hf
atom 3.7069729300000001 7.9615355000000001 6.3195381299999998 Hf
atom 8.6078943300000006 2.7501066399999998 1.1470058700000001 Hf
atom 8.7857651000000008 2.5420390700000000 6.2906705399999998 La
atom 8.7376972199999994 8.0060405800000005 1.1960140100000001 Hf
atom 8.7392257499999992 7.9273750800000000 6.2521030700000004 Hf
atom 3.7343071000000001 4.9827565099999997 3.7506032899999999 Hf
atom 3.7600088000000000 5.0162113899999996 8.7300578899999994 Hf
atom 3.5519113400000002 10.1614095899999999 3.7015043200000002 Hf
atom 3.6723996900000002 10.1923225100000003 8.9139686000000005 Hf
atom 8.5805530000000001 5.1979324199999999 3.6318917599999998 Hf
atom 8.7212732400000004 4.9966591899999999 8.7440954200000007 Hf
atom 8.6823601200000002 10.1843722400000001 3.7111019999999999 Hf
atom 8.7207636100000006 10.1370494699999991 8.7321109099999994 Hf
atom 0.3572425700000000 1.7955847199999999 1.5037696800000000 O
atom 0.6440414400000000 1.7968395900000000 7.1583041100000004 O
atom 0.2672636800000000 6.9753392700000001 2.0448912699999999 O
atom 0.4568724300000000 7.1083295099999999 6.9764735599999996 O
atom 5.3327473400000001 1.8749755800000001 1.9826037100000000 O
atom 5.4436578999999998 1.8734439400000000 6.9101616100000003 O
atom 5.3237043300000000 7.1073155300000002 1.9846890200000000 O
atom 5.3936777100000004 7.0290143299999999 6.9754178199999997 O
atom 0.1619933600000000 0.7081400700000000 4.7726856599999996 O
atom 0.5287526800000000 0.4853115300000000 9.4884971399999998 O
atom 0.3507652700000000 5.6646457999999997 4.5269079400000001 O
atom 0.4011561800000000 5.8542504500000003 9.5834923599999993 O
atom 5.2994393999999998 0.6517322300000000 4.4090632200000002 O
atom 5.3664552800000003 0.6933883800000000 9.6005149700000008 O
atom 5.4194123300000001 5.8788029699999997 4.4172268800000003 O
atom 5.4239010099999998 5.8581971900000003 9.5004721700000001 O
atom 4.7506010099999996 4.4894410899999997 1.9266517700000001 O
atom 4.6923747899999997 4.4863799400000000 6.9315827600000004 O
atom 4.6871853699999999 9.6874445599999994 1.9481646300000000 O
atom 4.6860052699999999 9.6561052200000006 7.0653731999999998 O
atom 9.8068379199999995 4.2276287500000000 2.2191135000000002 O
atom 9.7919149099999991 4.5164118200000001 7.0680899999999998 O
atom 9.8868165300000008 9.7329912299999997 1.8124629200000000 O
atom 9.7082692000000002 9.6398723000000004 6.9763572099999998 O
atom 4.7434754699999999 3.2838625800000001 4.4918690200000002 O
atom 4.7630184499999997 3.2665729699999999 9.4068671100000003 O
atom 4.7196132899999999 8.5293938600000008 4.5835151300000003 O
atom 4.6790552500000002 8.4506061300000006 9.4845877600000001 O
atom 9.7235181399999995 3.2381192500000000 9.4535511400000001 O
atom 9.6665993300000004 8.4289963500000002 4.3999456500000003 O
atom 9.6717619599999995 8.3881277900000004 9.4363664400000005 O
atom 2.2831792900000001 0.6887207400000001 2.4265192099999999 O
atom 2.9205381199999998 1.1737357799999999 7.6357611299999997 O
atom 2.6619717100000000 6.2307935199999998 2.4836448000000000 O
atom 2.7714398500000001 6.4128801900000001 7.5513411000000001 O
atom 7.7679239500000001 1.1957269200000000 2.4194142200000002 O
atom 7.6088600900000003 0.9742549200000000 7.5425347699999996 O
atom 7.6703536000000003 6.4628001299999998 2.4126729600000001 O
atom 7.7654437800000000 6.3645693300000001 7.4682205100000001 O
atom 2.7756206799999998 1.2501444700000000 5.0545858099999998 O
atom 2.7261985900000001 1.2934485499999999 10.1752950900000005 O
atom 2.7727523999999999 6.5432921700000000 5.0149305799999997 O
atom 2.7512667000000000 6.5467705799999996 10.0461963200000000 O
atom 7.5981950800000000 1.2413206699999999 4.8514434900000003 O
atom 7.7885095700000004 1.2903760799999999 9.9699159300000009 O
atom 7.6995203400000003 6.6200843999999996 4.9603558500000000 O
atom 7.7779763700000002 6.5583430900000002 9.9959278400000002 O
atom 2.4198947500000001 3.9878679300000002 5.0470496400000000 O
atom 2.4563112199999999 3.9520460200000000 9.9973755099999995 O
atom 2.2882068599999998 9.1071180500000004 5.0869457300000001 O
atom 2.2656438799999998 9.2647500199999993 10.2831432199999995 O
atom 7.5043444499999996 4.0046762999999999 4.8804847000000002 O
atom 7.4096355899999997 3.9038847699999999 10.0147274399999997 O
atom 7.3588021499999998 9.1536586900000003 4.9565150999999998 O
atom 7.3585377400000000 9.1313055900000002 9.9835685900000009 O
atom 2.5218045999999998 3.7257436700000000 2.3756163600000000 O
atom 2.3963592399999998 3.7638480200000002 7.5485756100000003 O
atom 2.5330621899999999 8.6525873499999992 2.6999380500000001 O
atom 2.3623397100000001 9.0043637299999997 7.6431064800000001 O
atom 7.3300796100000003 3.8413498000000001 2.4401536400000001 O
atom 7.2592848500000002 3.8392295600000002 7.5476908099999998 O
atom 7.3871283600000002 9.0135266699999992 2.4283083300000001 O
atom 7.3626942499999997 8.9024522099999999 7.4661204400000001 O
