lattice_vector 5.0208244600000000 0.0217720500000000 -0.0521009700000000 
lattice_vector -0.0111297200000000 10.4509009800000001 -0.1021363000000000 
lattice_vector -0.0099584900000000 -0.0867427000000000 10.0489296299999999 
atom 1.2553048700000000 0.0321210900000000 1.2501079900000001 La
atom 1.3207328100000000 0.1193275700000000 6.2662842100000002 Hf
atom 1.3136731600000000 5.3970792799999998 1.1575227699999999 Hf
atom 1.3181301000000001 5.3390929600000003 6.2334221899999998 Hf
atom 1.2767827899999999 2.4349813500000002 3.7839242300000002 Hf
atom 1.3893820400000001 2.3960686700000000 8.7077786100000001 Hf
atom 1.3153675199999999 7.5622098299999996 3.7460906700000001 Hf
atom 1.3643958000000000 7.6191703500000001 8.7156550999999993 Hf
atom 3.7463917200000001 2.8929579699999999 1.1029456000000000 Hf
atom 3.6738561700000001 2.7513768399999998 6.1971829400000003 Hf
atom 3.6449740799999999 7.9898404400000000 1.1743616600000000 Hf
atom 3.6490720799999998 7.9511100199999998 6.1862737699999997 Hf
atom 3.6381203900000001 5.0048488100000004 3.6952578400000000 Hf
atom 3.6781337900000000 5.0314124299999996 8.6977986600000001 Hf
atom 3.6505306000000002 10.1642423300000004 3.7312500499999999 Hf
atom 3.6791595400000001 10.2259797100000007 8.6310051800000007 Hf
atom 0.2296902400000000 1.9932233200000000 2.0815925000000002 O
atom 0.4108924400000000 1.9240432900000000 6.8286079600000003 O
atom 0.3326322900000000 7.1679500200000001 1.9124963800000001 O
atom 0.3439866300000000 7.0912473699999996 6.9182474400000000 O
atom 0.3832474700000000 0.5959000100000000 4.4230162200000001 O
atom 0.3564165900000000 0.7296534200000000 9.2073616900000008 O
atom 0.3204537300000000 5.8333892599999997 4.4399874600000002 O
atom 0.3330124000000000 5.9176631999999998 9.4429094199999994 O
atom 4.6737250899999996 4.6102673200000002 1.8818037400000001 O
atom 4.6629739900000002 4.4978584300000000 6.9018607300000001 O
atom 4.2235316300000001 9.9043066799999995 1.8149003200000000 O
atom 4.6485236499999996 9.7102354099999992 6.8086564200000002 O
atom 4.6255737999999997 3.2934478700000001 4.4205937300000002 O
atom 4.7404152100000001 3.3448463500000001 9.4096747500000006 O
atom 4.6337930500000004 8.4744589999999995 4.3650903500000000 O
atom 4.8298279700000002 8.6140164699999993 9.5054338499999993 O
atom 2.7447371199999999 1.1898302800000000 7.4368409499999997 O
atom 2.6474064099999999 6.3331062400000002 2.4269729099999999 O
atom 2.7112312699999999 6.4104771200000004 7.4411984999999996 O
atom 2.7350303000000000 1.3332480799999999 4.8725723700000003 O
atom 2.7807811800000000 1.3744594699999999 9.9798671599999995 O
atom 2.7027120500000001 6.5386377800000002 4.9457612400000004 O
atom 2.7043277899999998 6.5265955800000004 9.9569243899999993 O
atom 2.2835747400000002 3.9605293200000000 4.9620701199999999 O
atom 2.3285637299999999 3.9818217499999999 9.9507015299999999 O
atom 2.2657447400000001 9.1419678199999996 4.9612765999999997 O
atom 2.4574442699999999 9.0234585099999993 9.8324880300000004 O
atom 2.3517621900000001 3.6845887700000000 2.4443998800000002 O
atom 2.3283243400000000 3.8080951999999999 7.4536340799999996 O
atom 2.2956203999999998 8.8467944900000006 2.5307690900000002 O
atom 2.3030167200000000 9.0234245000000008 7.4086354999999999 O
