lattice_vector 10.0437418100000002 0.0213583300000000 -0.1314768600000000 
lattice_vector 0.0121533200000000 10.2731390499999993 0.0825597600000000 
lattice_vector -0.0406418000000000 0.0227289300000000 10.4169698900000007 
atom 1.0530847900000000 0.2616091400000000 2.2202445499999999 Si
atom 1.3847298900000000 0.2059229200000000 6.9505615399999998 Hf
atom 1.4484765799999999 5.3528806900000001 1.7593238099999999 Hf
atom 1.3737640799999999 5.3725791300000001 7.0117557200000000 Hf
atom 1.3707495400000000 2.4200644900000001 4.3838844500000000 Hf
atom 1.4397486700000000 2.2803509000000002 9.6210570999999998 Hf
atom 1.3731371200000000 7.5482411400000000 4.3903508899999997 Hf
atom 1.3992779900000001 7.5303558900000001 9.6200114899999996 Hf
atom 3.5815016100000001 2.7641428100000001 1.7012747900000000 Hf
atom 3.5901388000000001 2.8070164499999999 6.9532769200000004 Hf
atom 3.5819092700000001 7.9759247699999998 1.7156505099999999 Hf
atom 3.5936843299999999 7.9576076799999997 6.9916084200000004 Hf
atom 3.5956722299999999 4.9672500900000003 4.3383111000000003 Hf
atom 3.6082772799999998 4.9247268699999998 9.5723920299999996 Hf
atom 3.5635009000000002 10.1161866200000006 4.3522280999999996 Hf
atom 3.6259626599999999 10.0868559300000005 9.6205756000000004 Hf
atom 6.4478816999999999 0.2317765600000000 0.7056536200000000 Hf
atom 6.3292825800000001 0.2542195800000000 5.9656144099999997 Hf
atom 6.4198588399999998 5.3752110300000000 0.7883629500000000 Hf
atom 6.3119337700000004 5.4459899299999996 6.0896450499999997 Hf
atom 6.3352309699999996 2.3291205000000001 3.2688760000000001 Hf
atom 6.4064451900000003 2.3972119400000000 8.5710481600000001 Hf
atom 6.3139201900000002 7.5550543599999997 3.3823253100000001 Hf
atom 6.4200419100000001 7.5394213099999998 8.6605903899999994 Hf
atom 8.7328917599999993 2.7753484300000002 0.7788439800000000 Hf
atom 8.6973103599999995 2.7301577199999998 6.0456557000000002 Hf
atom 8.7187266099999992 7.9746713900000001 0.8097004900000000 Hf
atom 8.6061642599999999 7.9650366500000001 6.0297064100000002 Hf
atom 8.6695533600000001 5.0639203000000004 3.5012369200000002 La
atom 8.6674720000000001 4.9395130399999996 8.6000272800000008 Hf
atom 8.5417190099999996 10.0860191300000004 3.4662843400000001 Hf
atom 8.6613316699999991 10.1036798200000000 8.6236950500000003 Hf
atom 0.5744281500000000 1.5101731500000000 1.1021345400000000 O
atom 0.4175629400000000 1.8014179500000000 6.2248503399999997 O
atom 0.3934309100000000 6.9086593699999996 0.9878101300000000 O
atom 0.3106080600000000 6.8834548900000003 6.1358873899999997 O
atom 0.3030467400000000 0.7526048100000000 3.6498488899999999 O
atom 0.3663679800000000 0.7947164500000000 8.7383498700000004 O
atom 0.6218932300000000 5.9193829100000004 3.5687540000000002 O
atom 0.3553100300000000 5.9460145000000004 8.7797918700000004 O
atom 4.6933286100000000 4.2695442100000003 0.8440403800000000 O
atom 4.6340166399999996 4.3247508699999999 6.0535252599999998 O
atom 4.7607536799999997 9.4260929000000004 0.8736369300000000 O
atom 4.6234041899999996 9.4587480300000006 6.0751956900000001 O
atom 4.6615446100000000 3.4179171600000000 3.4552204799999999 O
atom 4.6831233200000000 3.4612937399999999 8.6299784200000005 O
atom 4.5703260099999996 8.5956127099999993 3.4732769800000001 O
atom 4.6804938099999998 8.5934514199999992 8.6765718500000002 O
atom 2.5195892799999999 1.2364529500000001 2.8840952799999999 O
atom 2.7547016200000001 1.2639838000000001 8.1692818200000001 O
atom 2.8560333299999998 6.5105644800000002 3.0419870300000000 O
atom 2.7595993999999999 6.4230745799999998 8.2630679600000008 O
atom 3.0426808699999999 1.4368533299999999 0.2489569000000000 O
atom 2.7665304700000002 1.3358881800000000 5.5640131700000000 O
atom 2.7944474200000000 6.4041812499999997 0.4388997200000000 O
atom 2.7536650300000001 6.4700267000000000 5.6644818199999998 O
atom 2.2635888000000000 3.8451852600000000 3.0550915299999999 O
atom 2.2279477499999998 3.8240272399999999 8.2711489500000006 O
atom 2.0601769200000000 9.1478352800000007 2.9541042200000001 O
atom 2.2241662000000000 8.9676120699999995 8.2486449900000007 O
atom 2.2490903400000000 3.8702122200000000 0.4413696100000000 O
atom 2.1972481199999998 3.9048096499999998 5.6514383099999996 O
atom 2.3566619599999998 8.9572091199999999 0.3649460600000000 O
atom 2.2149450700000002 9.0461477099999996 5.6426890900000002 O
atom 5.3375937499999999 1.6799271200000001 1.6493017900000000 O
atom 5.3300772700000003 1.7693914700000000 6.8526790699999998 O
atom 5.3052418399999999 6.8736284200000002 1.6786094600000001 O
atom 5.3322337600000003 6.9115223700000001 6.9379464999999998 O
atom 5.2842721399999997 0.8574795400000000 4.2243011900000003 O
atom 5.4048955300000001 0.8637818800000000 9.4151048100000008 O
atom 5.3603751900000001 5.9474332600000004 4.2608930999999997 O
atom 5.3527408599999999 6.0070827700000002 9.4922435099999998 O
atom 9.8079950599999997 4.2662681600000001 1.5232241500000001 O
atom 9.6609835900000007 4.3569371900000000 6.8144414900000001 O
atom 9.7816025999999994 9.5350567700000006 1.7525040199999999 O
atom 9.6606628299999997 9.5217025999999994 6.8326610499999996 O
atom 9.5893244699999993 3.1787379499999999 4.2531045799999996 O
atom 9.7052955900000004 3.3379429200000001 9.4519024300000005 O
atom 9.5900932799999996 8.4843293099999997 4.2208920399999998 O
atom 9.6766644700000004 8.5544371399999992 9.4571297399999992 O
atom 7.8334178400000001 1.3011187200000001 9.8784526899999996 O
atom 7.6833758699999999 1.3852957100000001 4.6858213600000003 O
atom 7.8125947099999999 6.4401126800000004 9.9483666799999995 O
atom 7.5546338500000001 6.6071661900000001 4.8611254199999996 O
atom 7.8161619599999996 1.2992537300000000 2.0570892399999998 O
atom 7.7624460500000003 1.3071458499999999 7.2840579200000004 O
atom 7.7019764000000004 6.5882916399999996 2.0505822199999999 O
atom 7.7823816099999998 6.4670938800000002 7.3826814399999998 O
atom 7.2898147900000003 3.8668461900000000 9.8968213200000008 O
atom 7.2826865700000001 9.0158481500000001 9.9555381100000009 O
atom 7.2084272699999996 9.0847841400000000 4.7382042400000000 O
atom 7.2276380700000002 3.8155811700000002 2.0417991099999999 O
atom 7.2509716800000001 3.8893105800000001 7.2287108599999996 O
atom 7.2953936400000003 9.0578143000000004 2.1428548200000002 O
atom 7.2433972300000002 9.0326540600000005 7.3467240699999996 O
