lattice_vector 10.0369671399999998 -0.0045860200000000 -0.0389694700000000 
lattice_vector 0.0101327800000000 10.3990915000000008 0.0062974800000000 
lattice_vector -0.0446812000000000 -0.0057370300000000 10.0685840100000004 
atom 1.4300922000000000 -0.0417903500000000 1.1285769600000000 Hf
atom 1.3083133499999999 0.1419171600000000 6.2671451600000001 Hf
atom 1.3918123700000000 5.3962222899999999 1.2482602400000000 Hf
atom 1.3193013000000000 5.3971953800000003 6.2868818600000003 Hf
atom 6.3142337199999998 0.1296250400000000 1.2351220300000001 Hf
atom 6.3194472599999996 0.1705709800000000 6.2639306100000001 Hf
atom 6.4233069800000004 5.3402200100000004 1.2402654300000000 Hf
atom 6.3249908699999997 5.3760345500000000 6.3059892900000003 Hf
atom 1.2690551900000000 2.5775995699999998 3.8178347100000001 La
atom 1.3525923000000000 2.4378519800000000 8.7335861900000005 Hf
atom 1.3137672600000001 7.6179957299999996 3.7776304999999999 Hf
atom 1.3190497100000000 7.6059963899999996 8.7898034999999997 Hf
atom 6.3374978600000000 2.4285220600000001 3.7589136200000000 Hf
atom 6.3117474199999997 2.4261739000000002 8.7785522999999994 Hf
atom 6.3507286199999999 7.6232979199999997 3.7685874400000001 Hf
atom 6.3352868800000000 7.6179029299999996 8.8002304900000006 Hf
atom 3.7015203500000000 2.7631134199999998 1.1845743600000000 Hf
atom 3.6744540699999999 2.7665056300000002 6.2562005200000002 Hf
atom 3.7390257199999999 7.9205122399999999 1.2509771800000000 Hf
atom 3.6539059900000002 7.9643970900000003 6.2548553000000000 Hf
atom 8.8458320599999993 2.6230720199999999 1.2072428799999999 La
atom 8.6140020100000001 2.7689259900000001 6.3043108099999996 Hf
atom 8.7043304599999995 7.9780283599999997 1.2460706500000001 Hf
atom 8.6644841699999997 7.9681299599999997 6.2857752800000002 Hf
atom 3.7272889700000000 5.0498547299999998 3.7201629299999999 Hf
atom 3.6593354699999998 5.0303876499999998 8.7814835799999997 Hf
atom 3.6418714300000001 10.2335335900000004 3.7553457200000002 Hf
atom 3.6794579199999999 10.2184939299999993 8.7470909999999993 Hf
atom 8.6120330599999999 5.0291523700000003 3.8080657000000002 Hf
atom 8.6732726299999996 5.0418360099999999 8.7457293000000007 Hf
atom 8.6318179900000001 10.1982189900000009 3.8137660200000001 Hf
atom 8.6427307500000001 10.2231140800000002 8.8083368899999996 Hf
atom 0.3302606300000000 1.9072150299999999 6.9560511399999996 O
atom 0.3723105000000000 7.1471343899999997 1.9487108399999999 O
atom 0.3171251400000000 7.1112522499999997 7.0268282900000001 O
atom 5.3180744500000001 1.8713958500000001 1.9523747499999999 O
atom 5.3415845199999996 1.8986890100000000 6.9869235700000001 O
atom 5.4016733700000001 7.0797880800000001 1.9657978800000000 O
atom 5.3342136900000003 7.1211670600000003 6.9944249999999997 O
atom 0.2298834200000000 0.6026410300000000 4.5780484799999996 O
atom 0.1912902600000000 0.8664517800000000 9.7333369199999993 O
atom 0.3440675000000000 5.8645576100000003 4.4924773000000000 O
atom 0.3132161700000000 5.9344697699999998 9.5326742000000007 O
atom 5.3352364799999998 0.6718999800000000 4.4606285100000003 O
atom 5.2686282599999998 0.7040966100000000 9.5054316599999993 O
atom 5.3571393100000000 5.9162358900000003 4.4862755999999999 O
atom 5.3603040999999996 5.8839150000000000 9.4861515099999991 O
atom 4.7317340000000003 4.4999839000000001 1.9069289800000000 O
atom 4.6550411699999996 4.4963066500000002 7.0023605299999998 O
atom 4.6433014300000002 9.6865875300000006 1.9459868800000000 O
atom 4.6370787900000003 9.7039640100000000 6.9690789100000003 O
atom 9.8998292800000005 4.4724614899999997 2.1381766600000001 O
atom 9.6224491299999997 4.5452945400000004 6.8734076300000000 O
atom 9.7111908400000004 9.9034504299999995 1.9863451200000000 O
atom 9.6786999300000005 9.6837078900000009 7.0478678199999996 O
atom 4.6134985500000001 3.2602607600000000 4.4204011699999999 O
atom 4.6170591400000003 3.2839234400000001 9.4779919499999998 O
atom 4.6446279099999996 8.5005421099999996 4.4481310900000004 O
atom 4.6755609700000003 8.4932656699999995 9.5193250299999992 O
atom 9.3438105399999998 3.2461264600000002 4.4621930799999996 O
atom 9.7137427400000007 3.3711371600000000 9.2554847400000000 O
atom 9.6352195700000003 8.4322154200000003 4.4589341600000001 O
atom 9.7576858400000006 8.5938842399999995 9.5880910799999999 O
atom 2.5292698300000001 1.1406704200000000 2.3759937799999999 O
atom 2.6614429500000001 1.2054387300000000 7.5223560799999998 O
atom 2.7259327600000001 6.4261189800000000 2.4918146499999998 O
atom 2.6856404000000000 6.4161379099999998 7.5260896199999996 O
atom 7.5860053299999999 1.1092856200000001 2.5634631600000000 O
atom 7.6887632999999997 1.2156157200000000 7.5232561100000002 O
atom 7.7643800100000000 6.4217639999999996 2.4811390200000001 O
atom 7.6991127900000000 6.4414225099999998 7.5179417099999997 O
atom 2.7774514799999999 1.2876944900000000 5.0626140800000003 O
atom 2.6439268399999998 1.3325129200000001 10.0060407599999994 O
atom 2.6813221700000001 6.6186546699999997 5.0017337199999998 O
atom 2.7035070200000000 6.5747527400000001 10.0305570799999995 O
atom 7.6488473600000004 1.3589990999999999 5.0419167500000004 O
atom 7.5523161500000002 1.2703943000000000 9.9736374600000008 O
atom 7.6982736999999997 6.5715378800000002 5.0216513899999997 O
atom 7.7314972800000001 6.5995104600000003 10.0424057999999992 O
atom 2.4313785700000001 4.1158492000000004 5.0741848100000002 O
atom 2.2569119199999998 3.9766008199999998 9.9947349100000000 O
atom 2.2717065500000002 9.1712744500000003 4.9761402700000001 O
atom 2.3467035699999998 9.1189954199999992 9.9845607600000008 O
atom 7.1646349000000003 3.9798222999999999 5.0561981300000003 O
atom 7.3143632600000004 3.9867986700000002 10.0056829199999999 O
atom 7.2841902599999999 9.1461048399999996 5.0348680600000000 O
atom 7.3169270900000001 9.1503600600000006 10.0482630200000003 O
atom 2.4518040200000000 3.8875270799999999 2.3716608699999999 O
atom 2.2938538899999998 3.8149686100000002 7.4998690699999999 O
atom 2.3317627900000000 8.9394176600000002 2.4653542399999999 O
atom 2.2894869799999999 8.9909539100000000 7.5023260399999998 O
atom 7.2824030400000002 3.8779849899999999 2.5387962599999998 O
atom 7.2842984299999998 3.8327061800000002 7.5402874400000002 O
atom 7.3481886999999997 8.9715925900000002 2.4859832900000001 O
atom 7.3083992200000001 9.0246372299999997 7.5432743599999998 O
