lattice_vector 10.1136071100000002 -0.0009262500000000 0.1500960200000000 
lattice_vector 0.0304432900000000 10.2383616199999992 -0.0100143600000000 
lattice_vector -0.0427370900000000 0.0597209900000000 10.5551235200000004 
atom 1.2992290300000000 0.0291033400000000 1.6027953699999999 Hf
atom 1.3665044500000001 0.2522086100000000 7.0783789500000003 Hf
atom 1.4062091600000000 5.3340003400000002 1.8268366700000001 Hf
atom 1.3927541100000000 5.4194965599999998 7.0920259500000000 Hf
atom 1.3766864900000000 2.5737624499999998 4.5933111400000000 Hf
atom 1.3113415799999999 2.4055018399999999 9.6982428200000008 Hf
atom 1.4298460200000001 7.5225405900000002 4.4351395599999996 Hf
atom 1.3813768000000000 7.4985748000000001 9.7077442299999994 Hf
atom 3.6764242600000001 2.6316329199999999 1.7728651400000000 La
atom 3.6767583199999998 2.7966875199999999 7.1799077300000000 Hf
atom 3.6794120600000002 7.8275202000000004 1.8041491000000001 Hf
atom 3.6561061100000001 7.9819497400000001 7.0761599700000000 Hf
atom 3.6808971200000000 4.9259158999999997 4.4851031499999996 Hf
atom 3.6195582000000002 4.9782428899999998 9.7400366300000005 Hf
atom 3.7614814000000001 10.2545402499999998 4.2999082499999997 La
atom 3.6630977699999998 10.0874661099999994 9.7197508999999993 Hf
atom 6.4211298899999996 0.1885647600000000 0.9749089399999999 Hf
atom 6.4066652499999996 0.2746048900000000 6.3240111299999997 Hf
atom 6.4678252599999997 5.3317811800000001 0.8697797900000001 Hf
atom 6.4377422099999997 5.3636758799999997 6.2198282100000002 Hf
atom 6.4959055200000000 2.3857573400000001 3.6559147900000002 Hf
atom 6.4038992500000003 2.4004928099999998 8.9234752999999998 Hf
atom 6.4130031399999998 7.3974564000000003 3.5383535899999998 Hf
atom 6.4313704899999999 7.5175763599999996 8.8073091300000002 Hf
atom 8.7067193500000002 2.7852268400000000 0.9597504600000000 Hf
atom 8.6706833600000000 2.7921175100000002 6.2507228499999998 Hf
atom 8.7124311599999995 7.8693163100000003 0.9303536000000000 Hf
atom 8.7163895799999995 7.9314072700000002 6.2191533400000001 Hf
atom 8.7063711500000007 4.9531657100000004 3.5713116899999999 Hf
atom 8.6812299700000004 4.9447977300000003 8.8380056299999996 Hf
atom 8.4926808099999995 9.9341855300000006 3.6132376800000001 Hf
atom 8.7133097199999998 10.0675953000000007 8.8656217599999998 Hf
atom 0.2143206500000000 1.6047976500000001 0.8159424199999999 O
atom 0.1933019200000000 1.5672771200000000 5.9696385500000000 O
atom 0.3260546600000000 6.7953625300000002 0.8272848500000000 O
atom 0.2900950800000000 6.8066395399999999 6.0716124799999998 O
atom 1.8545682299999999 1.2331679499999999 3.1441233099999999 O
atom 0.2187349900000000 1.0125670300000000 8.6741289199999994 O
atom 0.2920861600000000 6.0801530899999996 3.4690365800000000 O
atom 0.2676524700000000 6.0905964499999996 8.7209625600000003 O
atom 4.7832854300000003 4.2726925500000004 0.7866722700000000 O
atom 4.7435052200000003 4.2136243999999996 6.2031685799999998 O
atom 4.7611316700000001 9.2712895000000000 0.8337329200000000 O
atom 4.8266797400000003 9.3246385400000005 6.1827359499999996 O
atom 4.8343939200000001 3.5546256600000001 3.5761347699999999 O
atom 4.7333085500000003 3.5691824900000002 8.8077772200000002 O
atom 4.7309885400000002 8.4335815899999993 3.4651740200000001 O
atom 4.7745946100000003 8.7095647899999999 8.7578836899999999 O
atom 2.7065610100000002 1.3137675400000000 8.4246413899999997 O
atom 2.7981652100000001 6.3818863800000001 3.1450909100000000 O
atom 2.7544587500000000 6.4533107500000000 8.4015436700000006 O
atom 2.5605692300000000 1.1241943800000000 0.3678435100000000 O
atom 2.6729225500000000 1.4714548700000001 5.8729568800000003 O
atom 2.7798894900000000 6.3922887099999999 0.4899249600000000 O
atom 2.7854640800000001 6.4799201000000002 5.7694725800000004 O
atom 2.2382203100000000 3.9222616200000000 3.2195536900000001 O
atom 2.2607666499999999 3.8698030999999999 8.3661409800000008 O
atom 2.1653631999999998 8.8496249000000002 2.9289635000000001 O
atom 2.2742771799999999 9.0053462999999994 8.3820101200000003 O
atom 2.1678572400000000 3.9120051100000000 0.3822422400000000 O
atom 2.2709515100000002 3.9675613699999999 5.7918082399999999 O
atom 2.3472815900000001 8.8964495600000006 0.3895023200000000 O
atom 2.2194278999999999 8.9988368800000007 5.7781701200000004 O
atom 5.3576898200000000 1.1393977600000000 2.4427186600000002 O
atom 5.2487474599999997 1.4690590100000001 7.5273811799999999 O
atom 5.3892846600000004 6.7024307700000003 1.8584918100000001 O
atom 5.3574979000000003 6.8049988199999998 7.1547614900000003 O
atom 5.4168668400000000 1.4115486600000000 5.0259570199999999 O
atom 5.1826905300000004 1.2328217800000001 10.1733316800000004 O
atom 5.3879459499999998 6.0179880600000004 4.5517834199999996 O
atom 5.3398592100000002 6.1402035100000001 9.7670859100000005 O
atom 9.7958402299999996 4.2269287899999997 1.9268498900000000 O
atom 9.7963635599999996 4.2206164700000004 7.1792316800000000 O
atom 9.6870244099999994 9.3895928000000008 2.0033435000000002 O
atom 9.8035715700000008 9.3279054499999994 7.2467779999999999 O
atom 9.7255506399999998 3.4303309099999999 4.5173799399999996 O
atom 9.7220193699999999 3.5151197199999999 9.8294578200000000 O
atom 9.8006131599999993 8.7365810400000008 4.5786938599999996 O
atom 9.8239218499999996 8.7122279299999992 9.9170639999999999 O
atom 7.7343214299999996 1.3062034499999999 10.2212526399999994 O
atom 7.8927014000000000 1.2159991299999999 4.9261868299999998 O
atom 7.8344412700000001 6.4584359100000004 10.1614869199999998 O
atom 7.8467902599999997 6.4132233300000001 4.9053220399999997 O
atom 7.8738536000000003 1.3056437299999999 2.3136485800000002 O
atom 7.7838157700000004 1.3602202699999999 7.5931473799999996 O
atom 7.8574474500000004 6.4055550400000003 2.2477425200000001 O
atom 7.8268372399999997 6.4439064100000003 7.5304188300000003 O
atom 7.3048561100000002 3.8973795199999999 10.1861626699999999 O
atom 7.3629852299999996 3.8618573600000001 4.9590408899999998 O
atom 7.3054680400000001 9.0009636099999994 10.2036646999999991 O
atom 7.2423497200000000 8.9372682099999992 4.9070465800000003 O
atom 7.3153729299999997 3.8563614500000001 2.2759716299999999 O
atom 7.2925197900000001 3.8785268300000002 7.5762218800000003 O
atom 7.2842961900000001 8.9273924099999995 2.2842448499999999 O
atom 7.3765355899999996 9.0021082499999991 7.5690928399999997 O
