lattice_vector 5.0937161399999997 -0.0211324500000000 0.3983077100000000 
lattice_vector -0.0469769300000000 10.4847137499999992 -0.0286139000000000 
lattice_vector 0.7795522400000000 -0.0249122400000000 10.4699052699999999 
atom 1.4753391000000000 0.1335415000000000 1.5828085700000001 La
atom 1.8653174100000001 0.1211689400000000 6.8182000100000000 La
atom 1.4933187699999999 5.4206452100000000 1.6106801300000000 Hf
atom 1.8831116200000000 5.4080042099999996 6.8458629499999999 Hf
atom 1.7009166400000000 2.4440810300000000 4.2461741399999999 Hf
atom 2.0906020800000000 2.4315894000000000 9.4815501599999994 Hf
atom 1.7172035900000000 7.5617910500000001 4.2263749600000002 Hf
atom 2.1068316000000000 7.5492653399999998 9.4615217099999995 Hf
atom 3.7261023099999999 2.8480694299999998 1.3607504399999999 Hf
atom 4.1158018099999998 2.8356425100000000 6.5959629700000004 Hf
atom 3.7329555499999998 7.9598890000000004 1.3455747100000000 Hf
atom 4.1228987600000000 7.9473559700000003 6.5807905000000000 Hf
atom 3.9291166999999998 4.9846495300000004 3.9579332400000000 Hf
atom 4.3189345000000001 4.9720967299999996 9.1930871599999993 Hf
atom 3.9107918000000002 10.2279306400000003 4.0326680300000000 Hf
atom 4.3006188600000002 10.2153531999999991 9.2678880600000006 Hf
atom 0.4392230600000000 2.0548246099999998 0.8833383700000000 O
atom 0.8288001400000000 2.0422197799999999 6.1182370300000004 O
atom 0.4583445800000000 7.0622731900000000 0.8926717300000000 O
atom 0.8480596300000000 7.0497182900000004 6.1280026999999997 O
atom 0.6180181600000000 0.7971768600000000 3.7198356000000001 O
atom 1.0075899200000000 0.7848054100000000 8.9549802399999994 O
atom 0.5962516600000000 6.0452205200000000 3.4669254100000000 O
atom 0.9858710800000000 6.0329311700000003 8.7020220699999999 O
atom 4.7832742899999996 4.4605451399999998 2.0788032300000001 O
atom 5.1729331800000002 4.4481316700000004 7.3139865400000001 O
atom 4.5016448000000002 9.6765568900000005 2.1195949800000000 O
atom 4.8916908100000001 9.6638829699999995 7.3548041599999996 O
atom 5.0104971599999999 3.4491607399999999 4.6780276599999997 O
atom 5.4001257000000003 3.4364539800000000 9.9132252399999992 O
atom 5.1306228799999998 8.6888932499999996 4.7520558700000004 O
atom 5.5201653600000000 8.6761012599999994 9.9872830599999993 O
atom 3.0573508600000001 1.4436155500000001 2.8240422999999999 O
atom 3.4473277499999999 1.4311866200000001 8.0593131800000002 O
atom 2.9672794100000002 6.5212522200000000 2.6980327700000002 O
atom 3.3571479300000000 6.5089117700000001 7.9331119000000001 O
atom 3.2447781899999999 1.3119864000000001 5.3016437600000001 O
atom 3.6347808700000002 1.2997599700000000 10.5369047299999998 O
atom 3.1730876299999999 6.4288101700000002 5.3283005499999998 O
atom 3.5629753100000001 6.4164682500000003 10.5633291699999994 O
atom 2.2717203700000002 3.9892211099999999 0.2373330000000000 O
atom 2.6617486200000000 3.9768447700000000 5.4726193099999998 O
atom 2.4106131500000001 9.0470427299999994 0.1612034300000000 O
atom 2.8005249499999998 9.0344105300000006 5.3958813900000004 O
atom 2.4309410300000001 3.9040469700000000 2.8563162100000001 O
atom 2.8206405800000001 3.8915926999999999 8.0916552300000006 O
atom 2.4867858699999998 8.9569802500000009 2.9202332200000001 O
atom 2.8766767700000000 8.9443098100000000 8.1554538999999995 O
