lattice_vector 10.1587169799999995 0.0402819800000000 0.7577625700000000 
lattice_vector 0.0172200800000000 10.2723891100000007 0.0293571600000000 
lattice_vector 0.8975671500000000 0.0158949300000000 10.5025803300000007 
atom 1.2247991000000000 0.2877772600000000 1.7786262300000000 Si
atom 1.9647662400000001 0.1979410900000000 6.8695164899999996 Hf
atom 1.4644510600000000 5.3476452900000000 1.6596536300000000 Hf
atom 2.0347967699999998 5.3231716899999997 6.8663899600000002 Hf
atom 6.6223364299999998 0.3019346400000000 2.0207100800000002 Hf
atom 7.0786556899999997 0.2353052200000000 7.2666677899999996 Hf
atom 6.6272252800000002 5.3621351400000004 2.0170563800000001 Hf
atom 7.0610970599999998 5.3949808299999997 7.2695137299999999 Hf
atom 1.7396562600000001 2.3112633800000002 4.1885982799999999 Hf
atom 2.2451854999999998 2.3613561900000000 9.4772043700000008 Hf
atom 1.7375324000000001 7.4550731099999998 4.3372244599999998 Hf
atom 2.0942492000000001 7.4420197200000002 9.4386943900000002 Hf
atom 6.8444104499999998 2.3816337700000001 4.6594445100000002 Hf
atom 7.3076446400000004 2.4484458600000001 9.9289791600000008 Hf
atom 6.8183072600000001 7.5098549700000001 4.6414389600000003 Hf
atom 7.6129953400000003 7.3941106000000003 9.8845391700000000 Hf
atom 3.7268447600000001 2.8187633499999998 1.3652968500000000 Hf
atom 4.2265071900000004 2.8102810900000001 6.6178151900000000 Hf
atom 3.6907974399999999 7.9039527800000000 1.5170985400000001 La
atom 4.2316002599999996 7.9404084299999997 6.6534321299999997 Hf
atom 8.8997593899999998 2.7683712599999999 1.7994097600000001 Hf
atom 9.3234224099999992 2.7974273200000002 6.9910331499999998 Hf
atom 8.8857150399999991 8.0062957299999997 1.8067185800000001 Hf
atom 9.3124315099999997 7.9551113600000001 7.0131006200000003 Hf
atom 3.9928837100000001 4.9150068100000004 4.0074802299999996 Hf
atom 4.4629206899999998 4.9905202099999997 9.2538043299999995 Hf
atom 3.9802894200000001 10.0962165000000006 4.0022761300000003 Hf
atom 4.4667777500000003 10.1085993799999994 9.4630680700000003 La
atom 9.0432112000000000 4.9495887900000000 4.4073144400000004 Hf
atom 9.5896352300000007 4.8484585700000000 9.6349918100000007 Hf
atom 9.0337809199999999 10.0701612199999992 4.4351804000000001 Hf
atom 9.5335470200000003 10.1437844599999991 9.6427104299999993 Hf
atom 0.5339653400000000 1.5838145800000001 0.8920521200000000 O
atom 0.8414091400000000 1.6166607099999999 5.9788921100000003 O
atom 0.4378028200000000 6.8893317200000004 0.8694519100000000 O
atom 0.8559547000000000 6.7992268600000001 6.1380436400000002 O
atom 5.5094224100000000 1.7894267600000000 1.2122155100000001 O
atom 5.9253759800000001 1.6805645400000000 6.4644288599999999 O
atom 5.6900127400000002 6.8482297699999997 1.0376877600000001 O
atom 5.9092336599999999 6.7707214000000002 6.3695253999999997 O
atom 0.6112530400000000 0.8062338500000000 3.3486705899999998 O
atom 1.1001710899999999 0.8624929500000000 8.7140741700000000 O
atom 0.5432532500000000 6.0268377700000002 3.4849814299999999 O
atom 1.1053014500000000 5.9482191000000002 8.6861087399999999 O
atom 5.7108023799999996 0.9640813300000000 3.8228998199999999 O
atom 6.3857141600000000 0.9053232200000000 9.0909041500000001 O
atom 5.6588006000000002 6.1143641000000004 3.7436729500000001 O
atom 6.1581749700000001 6.2586929299999996 9.0192930199999992 O
atom 4.8929874699999996 4.3188692099999999 2.2024449700000002 O
atom 5.3825056299999998 4.2646208300000001 7.4794941799999997 O
atom 4.9151647299999999 9.6199597099999998 2.1645559900000002 O
atom 5.4784040899999997 9.2740850300000002 7.4820097399999996 O
atom 9.9645891100000004 4.2743019999999996 2.5974053399999999 O
atom 10.4981208200000005 4.1949331699999997 7.8498381899999998 O
atom 9.9876848599999999 9.5260658500000002 2.5977929600000000 O
atom 10.4154183400000004 9.4240434700000009 7.8477757700000002 O
atom 5.1622938300000003 3.5067335800000001 4.8550776100000004 O
atom 5.6835680200000001 3.6512929000000001 10.1198893400000003 O
atom 5.1203227900000003 8.6292660600000008 4.8007536200000001 O
atom 10.1837893600000005 3.4502107899999999 5.1632792800000002 O
atom 10.7000657399999994 3.4552166700000000 10.5308705299999996 O
atom 10.1802724199999997 8.6114802600000004 5.2367193700000003 O
atom 10.5809393800000002 8.5997160099999999 10.4545234499999999 O
atom 2.7629964500000002 1.2296128099999999 2.5126422499999999 O
atom 3.3856332299999998 1.3524701400000001 7.8554298800000000 O
atom 2.8628168899999999 6.3162011099999997 2.8508422300000000 O
atom 3.4679009800000000 6.4343278899999996 7.9300547100000003 O
atom 8.1105632799999992 1.3608845700000001 3.1359420000000000 O
atom 8.6452573800000003 1.3487293600000001 8.3231106799999992 O
atom 8.0776868000000004 6.4994420399999999 3.1085769999999999 O
atom 8.6364341200000005 6.4153208800000003 8.3552555599999998 O
atom 3.2427320900000001 1.2964372099999999 5.2429666700000004 O
atom 3.8761558900000002 1.7217648500000000 10.3724827000000008 O
atom 3.2497904599999998 6.3768013699999999 5.3743451599999998 O
atom 3.5994881900000002 6.4807921899999998 10.4740605299999991 O
atom 8.3117291200000007 1.2657051300000000 5.7316464099999997 O
atom 8.7972713999999996 1.3048266399999999 11.0036051599999993 O
atom 8.3001991299999993 6.4123233900000001 5.7518883000000001 O
atom 8.9679892300000006 6.3689496700000001 10.9758391300000007 O
atom 2.3028872499999999 4.0361880399999999 0.2976793800000000 O
atom 2.7395881000000002 3.8730933500000000 5.5213537800000001 O
atom 2.0684971900000000 9.5822722299999992 0.7074090400000000 O
atom 2.7806689900000001 9.0432625000000009 5.6370063899999998 O
atom 7.4496684100000001 3.9039236000000002 0.7001997900000000 O
atom 7.8308654000000004 3.9170079200000001 5.9439976999999997 O
atom 7.3447931999999998 9.0464800400000005 0.6681970500000000 O
atom 7.8166390200000002 9.0367222599999995 5.9344290700000002 O
atom 2.5380184600000000 3.7646757000000002 2.9233666000000000 O
atom 3.0161946600000000 3.8407228600000001 8.1719952700000000 O
atom 2.4865089899999999 8.9367342500000007 3.1893729700000000 O
atom 2.8969266999999999 8.8713725799999992 8.1850884300000004 O
atom 7.5957250900000002 3.8368497600000002 3.3031337900000000 O
atom 8.0770276899999995 3.8527135499999998 8.5546077700000005 O
atom 7.6201788500000003 8.9988383400000007 3.3082428300000002 O
atom 8.0749328299999998 8.9394395899999992 8.5681142200000000 O
