lattice_vector 5.0110850700000000 -0.0004200100000000 -0.0469199700000000 
lattice_vector -0.0170539700000000 10.4329595699999995 -0.0662252000000000 
lattice_vector -0.0254673300000000 -0.0748513100000000 10.1149627500000001 
atom 1.2966098300000000 0.0526431500000000 1.2060434400000000 La
atom 1.2993708200000000 0.1437046300000000 6.2688431700000002 Hf
atom 1.2878683099999999 5.3496986199999998 1.2315999300000000 Hf
atom 1.3060514900000000 5.3293654100000003 6.2894148699999999 Hf
atom 1.3127807899999999 2.4130624100000002 3.7568696600000000 Hf
atom 1.3246579500000000 2.4052468000000000 8.7734244300000004 Hf
atom 1.2870398700000001 7.5889613699999998 3.8271815299999998 Hf
atom 1.5026036800000000 7.5142266500000003 8.7475463999999992 Hf
atom 3.6212405900000002 2.7831823899999999 1.2589843000000001 Hf
atom 3.6510796200000000 2.7576956500000001 6.2334446999999997 Hf
atom 3.5855652299999998 7.8696268199999997 1.3460765299999999 Hf
atom 3.6723862000000000 7.9645937199999999 6.2293571600000002 Hf
atom 3.6244299600000001 5.0020699999999998 3.7543060399999999 Hf
atom 3.6752852599999999 4.9368885799999997 8.8357608899999995 Hf
atom 3.5946066600000002 10.2288252600000007 3.7104275499999999 Hf
atom 3.5939116499999999 10.2981801100000006 8.6247648300000002 Hf
atom 0.3008006000000000 2.0252869200000001 2.0007196500000002 O
atom 0.3509528300000000 1.9213360300000000 6.9140842600000001 O
atom 0.3243227600000000 7.1014618399999998 1.9830884000000000 O
atom 0.3642646800000000 7.1002046099999996 6.9957685100000004 O
atom 0.3385617200000000 0.6402488600000000 4.4376485399999996 O
atom 0.3612270100000000 0.6178391600000001 9.2244782599999997 O
atom 0.3006609000000000 5.8556494299999997 4.5221101299999997 O
atom 0.2989159400000000 5.9986769000000004 9.5384248899999999 O
atom 4.5856907500000004 4.5648155499999996 1.9065197500000000 O
atom 4.6587641099999999 4.4824800900000001 7.0097959999999997 O
atom 4.3755763800000000 9.6680765999999991 1.8938796099999999 O
atom 4.5919142400000004 9.7169419500000007 6.8602353500000000 O
atom 4.6164310799999999 3.2858504000000002 4.4449319100000002 O
atom 4.6883228900000002 3.2854694200000001 9.5326231299999993 O
atom 4.6129434500000004 8.4746742499999996 4.4344928899999996 O
atom 2.7752345799999998 1.3199370500000001 2.5715136400000000 O
atom 2.6798401300000001 1.2018475799999999 7.4815938500000003 O
atom 2.6259792300000000 6.3624978600000004 2.5063991799999998 O
atom 2.7262715900000001 6.3774441099999999 7.5403607900000003 O
atom 2.6585811700000002 1.3501109000000000 5.0322676499999996 O
atom 2.7648579600000001 1.3803529200000000 9.9651249199999992 O
atom 2.6753953300000002 6.5491629500000004 5.0261336500000002 O
atom 2.7118899900000000 6.4355832499999996 10.0866579499999993 O
atom 2.2718685399999998 3.9670588800000002 5.0108950200000004 O
atom 2.2643149600000001 3.9263871300000002 10.0563785699999997 O
atom 2.2639540299999998 9.1690482600000003 4.9988714900000000 O
atom 2.6210098600000000 8.9205196800000000 9.8965160200000000 O
atom 2.2421702699999999 3.8405605399999998 2.4858116500000000 O
atom 2.3105560600000001 3.7944961099999999 7.5326746800000004 O
atom 2.2594747200000000 8.8616403800000008 2.5710158700000001 O
atom 2.2607025799999998 9.0138816500000001 7.4632550899999996 O
