lattice_vector 10.0649395800000008 -0.0082989500000000 0.0125029800000000 
lattice_vector -0.0048390200000000 10.3874471400000008 -0.0198558900000000 
lattice_vector -0.0227630600000000 0.0008936800000000 5.0277895199999998 
atom 1.2706391399999999 0.0061448100000000 1.2091791999999999 La
atom 1.3526803599999999 5.3685319700000003 1.2695728500000001 Hf
atom 6.3611332999999997 0.1760306400000000 1.3202677599999999 Hf
atom 6.3801399999999999 5.3247035199999999 1.2831719600000000 Hf
atom 1.3349529300000000 2.4372947599999999 3.7517251900000002 Hf
atom 1.2920918400000001 7.5539750899999998 3.7732284800000002 Hf
atom 6.3766276199999998 2.4467745700000001 3.8006487400000002 Hf
atom 6.3918628300000000 7.5822651800000003 3.8131327700000002 Hf
atom 3.6535557500000002 2.7528191600000000 1.2740456400000000 Hf
atom 3.8289087199999998 7.8498376700000003 1.1196209100000001 Hf
atom 8.7300827400000003 2.7883978699999998 1.2805277100000001 Hf
atom 8.6475969599999996 7.9400475400000001 1.3084661300000000 Hf
atom 3.6663772300000002 5.0046941299999999 3.7793124400000000 Hf
atom 3.7682065400000000 10.3077293799999996 3.7405817099999998 Hf
atom 8.7036899400000003 5.0045404700000002 3.7977637199999998 Hf
atom 8.6193164899999992 10.2047424099999997 3.8175088100000001 Hf
atom 0.3434151000000000 2.0611325699999998 1.9399878600000000 O
atom 0.3862807600000000 7.1761106799999999 1.9396409900000000 O
atom 5.3635369800000001 1.8763629300000000 1.9978487599999999 O
atom 5.4150538600000004 7.0616991300000000 1.9917209100000000 O
atom 0.2751989700000000 0.7592140400000000 4.2457233099999998 O
atom 0.3327190500000000 5.8971997199999997 4.4756245100000003 O
atom 5.4320251500000003 0.6861464200000000 4.4983683399999999 O
atom 5.3200908099999999 5.9108420400000004 4.5516718599999999 O
atom 4.6857514399999998 4.4837696600000001 1.9963184400000000 O
atom 4.4992633399999997 9.6872190800000002 1.8650562100000001 O
atom 9.6754742199999999 4.5885378899999996 1.9651765200000000 O
atom 9.4455755600000000 9.6185025500000005 2.0840894799999998 O
atom 4.6776830000000000 3.3003297100000002 4.4981531800000001 O
atom 4.7507470300000003 8.5111842000000006 4.4419404000000000 O
atom 9.6836710999999998 3.3185361200000001 4.4977904500000001 O
atom 9.7406668199999995 8.5282638700000000 4.6095422900000003 O
atom 2.7790244099999999 1.2923003700000000 2.5470123999999998 O
atom 2.7303746200000001 6.4551759000000004 2.4907359900000001 O
atom 7.7124984799999998 1.2315961499999999 2.5644293500000002 O
atom 7.7434238799999999 6.4147602600000004 2.5324989200000001 O
atom 2.7625516999999999 1.4120945499999999 4.9712738200000004 O
atom 2.6796633800000000 6.5249276399999996 4.9993949899999999 O
atom 7.7031099699999999 1.3769521700000000 5.0967961900000001 O
atom 7.7336711899999999 6.5254731200000000 5.0385058799999998 O
atom 2.2955618699999998 3.9810510899999998 5.0283487999999998 O
atom 2.3952477499999998 9.0628558899999998 4.6542092500000001 O
atom 7.3108730900000003 3.9749665200000002 5.0253032800000002 O
atom 7.3174648099999997 9.1235525600000003 5.0869383199999998 O
atom 2.2992797600000001 3.8655298500000002 2.5049175400000001 O
atom 7.3449723400000000 3.8199126600000000 2.5246633200000002 O
atom 7.1619807399999997 9.0227722499999992 2.5586627800000001 O
