lattice_vector 9.9856470999999996 0.0455206800000000 -0.1803722300000000 
lattice_vector 0.0624233000000000 10.1708318500000008 0.0638838700000000 
lattice_vector -0.1098119200000000 0.0807603600000000 10.4296390300000006 
atom 1.0256472200000000 0.2692039900000000 2.1796662699999998 Si
atom 0.9705960100000000 0.3098557300000000 7.3946339500000002 Si
atom 1.4081431200000001 5.3209741700000004 1.8058366299999999 Hf
atom 1.3532679800000000 5.3614257099999998 7.0206481099999998 Hf
atom 1.4217438800000000 2.3447418500000001 4.4069782499999999 Hf
atom 1.3665696000000001 2.3848765500000000 9.6222878200000004 Hf
atom 1.3789144300000000 7.4921318399999999 4.3703882700000003 Hf
atom 1.3238810299999999 7.5326330300000004 9.5852480999999994 Hf
atom 3.5787599000000001 2.7642765300000001 1.7034826599999999 Hf
atom 3.5234829200000002 2.8047407000000000 6.9183510000000004 Hf
atom 3.5805573000000002 7.9329986200000002 1.6617880199999999 Hf
atom 3.5255746200000000 7.9734268899999998 6.8765672300000000 Hf
atom 3.5845261499999999 4.9231647499999998 4.3618397499999997 Hf
atom 3.5294583600000000 4.9636508600000004 9.5765708899999993 Hf
atom 3.6014997200000001 10.0453459299999999 4.2943589500000003 Hf
atom 3.5465997499999999 10.0859270999999993 9.5091342300000008 Hf
atom 6.3466988700000000 0.2633820400000000 0.7060036000000000 Hf
atom 6.2917181299999996 0.3039261400000000 5.9207883600000004 Hf
atom 6.4130923299999996 5.3351139500000002 0.7547682600000000 Hf
atom 6.3583356400000000 5.3754349699999997 5.9695838400000003 Hf
atom 6.3677893900000004 2.4089765100000000 3.3426992400000000 Hf
atom 6.3126789499999996 2.4493805399999999 8.5572929599999998 Hf
atom 6.3488886800000000 7.4601894399999997 3.3437584999999999 Hf
atom 6.2938361900000004 7.5006150700000003 8.5583943199999997 Hf
atom 8.6852792900000004 2.7422727700000000 0.7686163900000000 Hf
atom 8.6310667300000006 2.7822326099999999 5.9835341299999998 Hf
atom 8.6676062300000005 7.9020223700000001 0.7574481100000000 Hf
atom 8.6127119299999997 7.9425315699999999 5.9724461399999997 Hf
atom 8.6210011800000004 4.9194173299999999 3.3691440899999998 Hf
atom 8.5660805500000006 4.9598282200000003 8.5838574600000008 Hf
atom 8.5218967499999998 10.0082005800000005 3.4083900800000002 Hf
atom 8.4667360899999995 10.0485454099999991 8.6232357099999994 Hf
atom 0.5601097600000000 1.4874809899999999 1.0387224900000001 O
atom 0.5042459000000000 1.5283150500000000 6.2539071200000000 O
atom 0.3954273300000000 6.8147768600000003 0.9231470100000000 O
atom 0.3405531400000000 6.8552133700000004 6.1379341500000004 O
atom 0.2607599900000000 0.8370598800000000 3.5682099200000001 O
atom 0.2055174800000000 0.8773688300000000 8.7831637199999992 O
atom 0.3476205500000000 5.9288774599999998 3.5454720700000002 O
atom 0.2926742100000000 5.9693664699999998 8.7602431700000007 O
atom 4.6786794299999999 4.2619726499999997 0.8213585400000000 O
atom 4.6237721100000000 4.3022880800000003 6.0361410500000003 O
atom 4.7207342399999996 9.3663594200000002 0.7931027000000000 O
atom 4.6658409000000001 9.4067035400000005 6.0079380899999997 O
atom 4.6522324599999996 3.4391863300000001 3.4149963099999998 O
atom 4.5971947399999999 3.4795996400000000 8.6297208199999993 O
atom 4.6125849499999996 8.5404441700000007 3.3769370500000000 O
atom 4.5575904300000003 8.5808961000000004 8.5917227399999998 O
atom 2.4942278199999999 1.2269593200000000 2.7971265100000000 O
atom 2.4388095299999999 1.2675469800000001 8.0119328000000003 O
atom 2.7495156500000002 6.4510753999999997 3.0337665500000002 O
atom 2.6945735100000001 6.4916304399999998 8.2486399400000003 O
atom 3.0663056300000000 1.5004862600000000 0.1354075800000000 O
atom 3.0106846599999999 1.5404310100000000 5.3505774300000004 O
atom 2.7852608399999998 6.3689101800000003 0.4300605600000000 O
atom 2.7303349600000000 6.4092510899999997 5.6448361800000004 O
atom 2.2399287800000001 3.8232304899999998 3.0939290000000002 O
atom 2.1848814000000001 3.8637724900000001 8.3088567999999992 O
atom 2.0695492099999999 9.0636101300000007 2.8467971300000001 O
atom 2.0145577000000001 9.1041725800000002 8.0615756899999997 O
atom 2.2050341800000002 3.8719354500000001 0.4718199900000000 O
atom 2.1499961100000000 3.9122697700000000 5.6865698900000003 O
atom 2.3707403500000002 8.9106457599999995 0.2474127400000000 O
atom 2.3158485700000000 8.9507504900000008 5.4621426199999998 O
atom 5.3347704900000004 1.7454051900000001 1.6310066200000000 O
atom 5.2794665099999998 1.7857549900000000 6.8458008599999998 O
atom 5.3351242900000004 6.8336452599999999 1.6298854700000001 O
atom 5.2801521999999999 6.8738965099999998 6.8446836600000003 O
atom 5.3525429200000003 0.8625644900000000 4.1584377600000000 O
atom 5.2977886400000003 0.9027915700000000 9.3731193499999996 O
atom 5.3194100700000000 5.9785608999999997 4.2494995299999996 O
atom 5.2643467199999998 6.0190831200000003 9.4643301599999994 O
atom 9.6949222200000005 4.2319254099999997 1.6625844100000000 O
atom 9.6399353899999998 4.2726120500000002 6.8772570899999996 O
atom 9.7386505400000001 9.4551625700000006 1.6800777800000000 O
atom 9.6837765299999994 9.4956137100000007 6.8949777100000000 O
atom 9.6577623500000005 3.4097055300000001 4.3053709099999997 O
atom 9.6027946899999996 3.4502771999999999 9.5203706799999992 O
atom 9.6097254900000006 8.5389132700000001 4.2347912599999997 O
atom 9.5548392300000007 8.5793912399999996 9.4496031400000007 O
atom 7.7003481100000002 1.3516628500000001 9.8874758499999995 O
atom 7.7553381699999999 1.3111898900000001 4.6726409699999998 O
atom 7.7041464599999996 6.4517490100000003 9.9028615400000000 O
atom 7.7592705700000000 6.4114049399999997 4.6881093800000002 O
atom 7.7559087800000004 1.3353046500000001 2.0447372700000002 O
atom 7.7007702199999999 1.3755900999999999 7.2595530200000002 O
atom 7.7788324900000001 6.4176240099999999 2.0746723600000001 O
atom 7.7238836800000001 6.4580219999999997 7.2895133799999998 O
atom 7.1875144300000002 3.8886759199999998 9.9208220899999997 O
atom 7.2425848000000004 3.8483020500000000 4.7059297899999999 O
atom 7.1366931600000001 8.9740465900000004 9.9139136800000003 O
atom 7.1917228900000003 8.9336244100000002 4.6990571699999997 O
atom 7.2727927000000001 3.8638527499999999 2.0683489800000001 O
atom 7.2178263100000004 3.9042660900000001 7.2832789199999999 O
atom 7.2787089700000003 8.9581622299999992 2.0809176100000002 O
atom 7.2236320799999998 8.9986075099999994 7.2956939900000002 O
