lattice_vector 10.1040154700000002 0.0236653900000000 0.1333729900000000 
lattice_vector 0.2946373100000000 10.2037145200000001 0.1419138400000000 
lattice_vector 0.2012252200000000 0.2022985700000000 10.1015251100000008 
atom 1.0638785300000000 -0.1385085000000000 1.0720004800000000 Si
atom 1.2684393300000001 0.0675795100000000 6.1280816299999996 Hf
atom 1.3324925999999999 5.0055064099999997 1.3523887100000000 Hf
atom 1.4157764399999999 5.1781499300000000 6.6564443400000002 Hf
atom 6.1236331499999999 0.0509045300000000 1.2893407100000001 Hf
atom 6.4989702899999999 0.1347326900000000 6.3981587400000004 Hf
atom 6.4609137199999997 5.0872888400000003 1.3082299500000001 Hf
atom 6.5663941100000001 5.3016192499999999 6.3825543500000004 La
atom 1.5697857300000000 2.8467628000000000 4.0690641300000001 Hf
atom 1.4947112400000000 2.7295908600000001 9.0163393999999997 Hf
atom 1.4438567800000000 7.7981827099999999 3.8028008099999999 Hf
atom 1.5825935900000001 7.7940098799999999 8.9627254300000008 Hf
atom 6.5252619300000001 2.6152371799999998 3.8926816299999998 Hf
atom 6.4569124300000000 2.6854867900000001 8.9406304799999994 Hf
atom 6.5471757400000001 7.7393487500000004 3.9611566599999999 La
atom 6.7314941299999997 7.8729321099999998 9.0245869699999997 Hf
atom 3.8896037400000001 2.6327319600000001 1.5302749000000000 Hf
atom 4.0752668300000003 2.6655153999999999 6.4375482100000001 Hf
atom 3.9461668300000001 7.6777748299999997 1.4005319700000001 Hf
atom 4.1561658399999999 8.0235232300000003 6.6116807199999998 Hf
atom 8.9715995999999993 2.5637815100000001 1.4015036000000001 Hf
atom 9.0830772100000008 2.6315434299999998 6.3957540799999997 Hf
atom 8.9888488700000000 7.6816013099999996 1.4280181999999999 Hf
atom 9.2579829100000008 7.8034071300000001 6.5025436000000001 Hf
atom 3.8854434499999999 0.2191693700000000 3.9502843200000002 Hf
atom 3.8629484999999999 0.1864899900000000 8.8954003999999998 Hf
atom 4.1067309500000002 5.1634377300000001 3.8239909399999998 Hf
atom 4.1512895099999998 5.4077886800000003 8.9510456600000001 Hf
atom 8.8338645299999996 0.0446207600000000 3.7434951800000000 Hf
atom 8.9480585999999995 0.2426829900000000 8.8693521999999998 Hf
atom 9.0323273900000007 5.0220515399999996 3.8318577500000002 Hf
atom 8.9697518400000007 5.1260275699999998 8.9528152500000004 Hf
atom -0.4195609500000000 1.6356232200000000 -0.3853587700000000 O
atom 0.0767326000000000 1.5557284400000000 4.7513594399999999 O
atom 0.3797451300000000 6.6749138800000001 0.3764201000000000 O
atom 0.9287114200000000 6.8243339799999996 5.5160254300000000 O
atom 4.7228193400000000 1.4571763099999999 0.0720146000000000 O
atom 5.1164953999999998 1.5009281500000000 5.1048737700000002 O
atom 5.2862846399999999 6.5729440400000003 0.1627778600000000 O
atom 0.0622653400000000 0.7688398500000000 2.0237258499999999 O
atom 0.1693292900000000 1.1946200199999999 7.3451179499999997 O
atom 0.4992321100000000 6.0305792699999996 2.9225923599999999 O
atom 0.2663630600000000 6.3079802100000002 7.9418769700000000 O
atom 5.2451849700000004 1.2691138399999999 2.6392487600000001 O
atom 5.3038920999999997 1.3274112700000000 7.6461975999999998 O
atom 5.3193286400000002 6.2391139200000003 2.5782848999999999 O
atom 5.2866027000000004 6.6276450699999998 7.8100399700000001 O
atom 0.1578885600000000 3.4662253399999998 2.6021190600000002 O
atom 0.1981427500000000 3.7331150399999999 7.6107588599999998 O
atom -0.1580282700000000 8.5059539199999996 2.8425271099999998 O
atom 0.4270208000000000 8.8792402900000003 7.7034313000000001 O
atom 5.1957108300000003 3.7621487600000001 2.6105968800000001 O
atom 5.1133875399999997 3.8834115599999999 7.7413677200000004 O
atom 4.9015544999999996 9.0150994999999998 2.7241636900000001 O
atom 5.4561664499999996 9.0478054599999993 7.8627033800000001 O
atom -0.0272231600000000 4.1134983700000003 0.1127017000000000 O
atom 0.2673448700000000 4.1498456600000004 5.1695722799999997 O
atom 0.3671698200000000 9.2191373999999993 0.1619345600000000 O
atom 0.3323683200000000 9.2288510099999996 5.1098083200000000 O
atom 5.0686049799999999 4.0143991300000001 0.1203355300000000 O
atom 5.2791166199999999 3.9310290499999998 5.0471275799999997 O
atom 5.3377259300000004 9.0936986799999993 0.2324865900000000 O
atom 5.3931973700000002 9.2643421000000004 5.4042241300000002 O
atom 2.7260855799999999 1.5706474800000001 2.8479080600000000 O
atom 2.9033834600000001 1.8349029699999999 7.9181357300000004 O
atom 2.9740880399999998 6.7557619899999999 3.0227933000000000 O
atom 2.7680109800000001 6.7900046400000003 7.5761548699999999 O
atom 7.7770867499999996 1.5027012900000001 2.6254529500000001 O
atom 7.7806685900000003 1.5774470000000000 7.6255240300000002 O
atom 7.9600096000000002 6.4103697700000000 2.5808115300000001 O
atom 7.9348008800000001 6.7478872100000000 7.7573533499999998 O
atom 2.0536579100000001 0.7261866000000000 0.0753034200000000 O
atom 2.6084304299999999 1.4403250000000001 5.3463755600000002 O
atom 2.8103417899999998 5.9881033600000002 0.3628892800000000 O
atom 4.6989190599999997 6.5851960500000004 5.2218750399999996 O
atom 7.2592353500000000 0.9915918900000000 -0.0531840900000000 O
atom 7.6449958300000000 1.2285790000000001 5.1019931999999999 O
atom 7.7737864700000001 6.1584657199999997 0.1200764700000000 O
atom 8.3831948300000008 6.3710690400000001 5.2050702299999996 O
atom 2.3351101600000002 3.3137677999999999 0.4549389700000000 O
atom 2.7852304800000001 4.0777055200000003 5.3839270199999998 O
atom 3.0265795000000000 8.4231610000000003 -0.2927406000000000 O
atom 2.8810466799999999 8.9606860600000005 4.9473078599999996 O
atom 7.5517450799999999 3.5467662099999999 0.1580496800000000 O
atom 7.8893557599999999 3.6911718900000001 5.0668233200000001 O
atom 7.9472511499999996 8.7023828499999993 0.0600504600000000 O
atom 8.0170569599999997 8.9631992199999999 5.2901149299999997 O
atom 2.6657251400000002 4.1439356900000002 2.7818904000000000 O
atom 2.5722519500000001 4.3740083099999998 8.1353252400000002 O
atom 2.2656439900000001 9.0424510700000003 2.1303701700000000 O
atom 2.9780632499999999 9.5043588099999994 7.4998824099999997 O
atom 7.7043211200000004 3.9900511900000000 2.6153599399999998 O
atom 7.7967636400000000 3.9905305100000001 7.7791596399999996 O
atom 7.6965218599999998 9.2248853299999993 2.5800440299999998 O
atom 8.0189817300000001 9.2563178100000005 7.7400523699999999 O
