lattice_vector 9.9703996600000000 0.0398261000000000 -0.0475100200000000 
lattice_vector 0.0575951600000000 10.1808433800000007 -0.0212905900000000 
lattice_vector 0.0506611600000000 0.0207506000000000 10.4184921599999996 
atom 1.0653684900000000 0.2617410300000000 2.2057547899999999 Si
atom 1.4177745300000000 0.2289447200000000 6.9340717300000003 Hf
atom 1.3887236199999999 5.3204253499999998 1.7389275500000001 Hf
atom 1.4642767100000000 5.3340547200000001 7.0075623599999997 Hf
atom 1.3455514099999999 2.4050691999999998 4.3986363900000001 Hf
atom 1.5588867200000001 2.2610887399999999 9.5964845600000004 Hf
atom 1.3769706399999999 7.4674227300000000 4.3433084099999997 Hf
atom 1.5491568499999999 7.4865491899999999 9.5352403199999998 Hf
atom 3.5637757900000002 2.7296097700000002 1.7003180499999999 Hf
atom 3.7085258500000000 2.8246409600000000 6.9439307599999998 Hf
atom 3.5831125099999999 7.9316128399999997 1.6485415000000001 Hf
atom 3.7722200600000000 7.8163945600000000 6.8689868399999998 Hf
atom 3.5209843300000001 4.9045814200000004 4.2894993000000001 Hf
atom 3.7010458100000001 4.8953243600000000 9.5710281100000003 Hf
atom 3.6130694399999999 10.0440086500000003 4.2721929999999997 Hf
atom 3.7764823199999999 9.9722177199999997 9.4675869499999994 Hf
atom 6.3904322100000002 0.2507571000000000 0.7576446500000000 Hf
atom 6.3663256500000003 0.2585121800000000 6.0271164800000001 Hf
atom 6.4021423200000003 5.3270203699999996 0.8312714000000000 Hf
atom 6.0961874199999997 5.3794505900000003 5.5625209499999997 Si
atom 6.3291264399999996 2.3949157300000001 3.4140628799999999 Hf
atom 6.5012793699999998 2.4143366300000002 8.6389388500000006 Hf
atom 6.3547382900000002 7.5134470100000001 3.3584653200000001 Hf
atom 6.5677562700000003 7.3690676499999999 8.5777465300000006 Hf
atom 8.6999152100000003 2.7334502899999999 0.8639570800000000 Hf
atom 8.5612075599999997 2.8698671899999999 6.0852158599999999 Hf
atom 8.6926458699999998 7.9223552399999999 0.7886870400000000 Hf
atom 8.5988841899999997 7.8487234099999998 6.0340329600000002 Hf
atom 8.5654748999999999 4.9715836500000004 3.4526184099999999 Hf
atom 8.7291838100000003 4.9000007500000002 8.6748552100000005 Hf
atom 8.5308902300000007 10.0130393899999994 3.4363371699999998 Hf
atom 8.7106395899999995 10.0038818400000000 8.5720764999999997 Hf
atom 0.6024415300000000 1.4987042600000000 1.0806617100000000 O
atom 0.3479677900000000 1.7499034499999999 6.1094844400000001 O
atom 0.4295839500000000 6.8587832100000004 0.9052271800000000 O
atom 0.4119729400000000 6.8031431600000003 6.0699175299999997 O
atom 0.2839803900000000 0.8153109600000000 3.5978559500000000 O
atom 0.4442498400000000 0.8185047300000000 8.6975150600000006 O
atom 0.3459289200000000 5.9250565999999996 3.5101081000000001 O
atom 0.5349780900000000 5.8853670400000002 8.7721546000000004 O
atom 4.6728882799999996 4.2515146200000000 0.8759305700000000 O
atom 4.7657451999999996 4.3689656699999997 5.9759130100000002 O
atom 4.7692456700000001 9.3309916499999996 0.7763919800000000 O
atom 4.6988336999999998 9.3722161199999992 5.9986178900000002 O
atom 4.5728205900000001 3.3635821699999999 3.4796405500000001 O
atom 4.7533647700000001 3.4256566300000002 8.6448408299999997 O
atom 4.5824617800000000 8.5082533900000001 3.4093417300000000 O
atom 4.8235471600000004 8.4287880899999994 8.5246884800000000 O
atom 2.5260454499999998 1.2360999800000001 2.8954426000000000 O
atom 2.8541539800000000 1.2524504200000000 8.1308330099999999 O
atom 2.7402483000000002 6.4333018400000004 3.0031382600000001 O
atom 2.9314135800000001 6.3519965500000000 8.2051990600000000 O
atom 3.0689879100000002 1.4254272600000000 0.2183154700000000 O
atom 2.7784918799999998 1.3532328600000001 5.5673262299999999 O
atom 2.8141825200000001 6.3759855400000003 0.4141873800000000 O
atom 2.8186616700000000 6.4029587699999997 5.6039378400000004 O
atom 2.1827340999999998 3.8317234099999999 3.0497562199999999 O
atom 2.3348958999999998 3.7892288900000000 8.2652744800000004 O
atom 2.0958041000000001 9.0775952100000001 2.8579835099999999 O
atom 2.3832629000000001 8.8696193000000001 8.1112349300000002 O
atom 2.2238735799999998 3.8565877000000000 0.4487150100000000 O
atom 2.2862513600000001 3.8695718900000000 5.6467272800000003 O
atom 2.3897891300000000 8.9273070000000008 0.2706344500000000 O
atom 2.2989889300000002 8.9501814700000004 5.5346767200000002 O
atom 5.3473240100000003 1.7236542800000001 1.6992626500000001 O
atom 5.4153469000000003 1.8004595800000001 6.8630842999999997 O
atom 5.3403791900000002 6.8512730499999996 1.6599857700000000 O
atom 5.6443187699999999 6.6202735300000004 6.6873352199999996 O
atom 5.3061586800000002 0.8561698700000000 4.2633157300000004 O
atom 5.4949440899999997 0.8160806300000000 9.4180529499999999 O
atom 5.3008658700000000 5.9275316699999996 4.1762297799999999 O
atom 5.4623323600000004 5.9302403100000003 9.4933640799999992 O
atom 9.6347680800000006 4.2927894300000000 1.7194271900000000 O
atom 9.7558649499999994 4.2728536999999998 6.9403502499999998 O
atom 9.7592538799999993 9.4704582599999991 1.7405625899999999 O
atom 9.7162565500000007 9.3742081200000005 6.8413520099999996 O
atom 9.5434938599999999 3.4394537000000001 4.3128817799999997 O
atom 9.7854582099999998 3.3600301899999998 9.6141135299999991 O
atom 9.5905906000000005 8.4752201800000009 4.2427130000000002 O
atom 9.7717718100000006 8.5376986600000002 9.4940546399999999 O
atom 7.8965950300000003 1.2849998199999999 9.9607455599999994 O
atom 7.7054771700000000 1.3659253300000000 4.7454257000000002 O
atom 7.8773338199999996 6.3665847500000003 10.0353057299999993 O
atom 7.5497405400000002 6.3503597000000003 4.8555632700000002 O
atom 7.7583631400000002 1.3251970000000000 2.1441460200000000 O
atom 7.8044954799999999 1.3192804400000000 7.3338741299999999 O
atom 7.7760636099999996 6.4564562499999996 2.1805740299999998 O
atom 8.1188069800000005 6.5501985300000003 7.5259284700000002 O
atom 7.3493665799999999 3.8030091499999998 10.0488204799999998 O
atom 7.0625801299999997 4.0110574899999998 4.8847345400000002 O
atom 7.3570402100000001 8.9027708299999997 9.8950522900000006 O
atom 7.2047349399999998 8.9453607500000007 4.6933065899999997 O
atom 7.2394126600000002 3.8725047600000000 2.2071663400000001 O
atom 7.3815107500000003 3.8709224199999999 7.4703407799999999 O
atom 7.2829178900000002 8.9724118199999996 2.0950550300000002 O
atom 7.2713705900000001 8.9806250599999995 7.2937798799999998 O
