lattice_vector 9.8993083300000002 -0.0160378400000000 0.0006804100000000 
lattice_vector -0.0039035300000000 10.4098980200000000 0.0312979700000000 
lattice_vector 0.0091106000000000 -0.0021710700000000 9.9465951500000003 
atom 1.1527466200000001 0.2687029900000000 1.0652700300000000 Si
atom 1.3165390699999999 0.2120756600000000 6.2390163500000000 Hf
atom 1.4301093700000000 5.2842477299999997 1.4012011600000001 Hf
atom 1.3955096199999999 5.4283895199999996 6.2097753500000001 Hf
atom 6.3026216000000002 0.1520695400000000 1.2125755499999999 Hf
atom 6.2329065200000002 0.1541909700000000 6.1876540200000001 Hf
atom 6.2934305799999999 5.3541224300000003 1.2711824599999999 Hf
atom 6.2211769200000004 5.3653367599999999 6.2007206000000004 Hf
atom 1.2123690899999999 2.2903774600000002 3.5382369200000001 Hf
atom 1.3284896700000000 2.4750682600000000 8.6880952800000006 Hf
atom 1.3270132500000000 7.6174442400000002 3.8087058900000001 Hf
atom 1.3097490899999999 7.6129564700000003 8.8261779800000006 Hf
atom 6.2954932599999998 2.3969602200000000 3.7302677700000002 Hf
atom 6.2682801100000001 2.4474734200000001 8.6492058899999993 Hf
atom 6.2239938500000003 7.6484072999999997 3.7425417699999999 Hf
atom 6.2548016300000002 7.6446867899999997 8.7283715399999995 Hf
atom 3.6625562100000000 2.7120384600000000 1.1974206199999999 Hf
atom 3.6269017899999998 2.8521334600000001 6.1136100000000004 Hf
atom 3.6952375200000001 7.9406896400000004 1.2906417400000001 Hf
atom 3.6112792400000000 8.0682508300000002 6.3344782200000003 Hf
atom 8.5478584299999998 2.7670381200000000 1.1820830400000000 Hf
atom 8.5732311299999999 2.7702710200000000 6.2226213899999996 Hf
atom 8.6850820100000004 7.9299925800000004 1.2536690900000000 Hf
atom 8.5696216100000004 7.9442212000000003 6.2407927299999999 Hf
atom 3.8434048900000000 4.8670330599999998 3.6472200099999998 Si
atom 3.6308875899999999 5.0574825499999996 8.7362389300000007 Hf
atom 3.5884647599999999 10.2160421100000001 3.7040600600000002 Hf
atom 3.5338710299999998 10.2912983699999998 8.8223378799999992 Hf
atom 8.5855719399999995 4.9973341900000001 3.7467850800000000 Hf
atom 8.6244062100000001 5.0725414400000002 8.6723966499999996 Hf
atom 8.5894355000000004 10.2074991500000003 3.7415414700000000 Hf
atom 8.5731675799999998 10.2301094999999993 8.6987461600000007 Hf
atom 0.3307146900000000 1.7648061600000000 1.7314117099999999 O
atom 0.2966033800000000 1.8885510599999999 6.9850505800000002 O
atom 0.4377521300000000 7.0293859599999999 1.9875733300000000 O
atom 0.2902568800000000 7.0844486699999996 7.0704238300000002 O
atom 5.2439805000000002 1.8355542199999999 1.9996400800000000 O
atom 5.3062973400000004 1.9756078800000001 6.8411829700000002 O
atom 5.3635533200000003 7.1008423199999999 1.9542118200000000 O
atom 5.2712181300000003 7.1012244100000004 6.9471489599999998 O
atom 0.3072956400000000 0.6722003000000000 4.4617804100000003 O
atom 0.3805654700000000 0.6383815400000000 9.4701260699999992 O
atom 0.2859410300000000 5.8916502599999996 4.5055248199999998 O
atom 0.3493831100000000 5.8827234700000002 9.5328395500000003 O
atom 5.2567874400000001 0.7309055300000000 4.4375144899999999 O
atom 5.2432037500000002 0.7532685200000000 9.4405745299999992 O
atom 5.0780642800000004 5.8451212200000002 4.3668338999999996 O
atom 5.2696507800000001 5.9344628400000001 9.4730743499999992 O
atom 4.6005267600000002 4.5030966200000000 2.0743787000000000 O
atom 4.6172516400000001 4.5034917800000001 6.9987047899999997 O
atom 4.7101024300000001 9.6611064899999999 2.0071944099999999 O
atom 4.5856157599999996 9.7922475999999996 7.0435044400000004 O
atom 9.6391605899999995 4.3583282299999997 2.0277635400000000 O
atom 9.5635569199999999 4.5020616100000002 6.8946651299999999 O
atom 9.8295380300000001 9.7032789200000007 1.8832441600000001 O
atom 9.5399140700000000 9.6958202399999998 6.9236271100000000 O
atom 4.6369190900000001 3.3859069300000000 4.3153388399999999 O
atom 4.6466193899999997 3.3400103900000002 9.4675417599999996 O
atom 4.6617390700000003 8.5554226399999997 4.5776328199999998 O
atom 4.5196036199999998 8.5327187099999993 9.4089571500000009 O
atom 9.6159254399999998 3.2516005799999999 4.4521917599999998 O
atom 9.5377246800000002 3.2814560099999999 9.3620854100000006 O
atom 9.5400920500000002 8.4756621899999995 4.4577934800000003 O
atom 9.5161751399999996 8.4815404999999995 9.3920498800000001 O
atom 2.3423235800000000 0.7796720700000001 2.3280648799999999 O
atom 2.6934398800000001 1.2669018500000000 7.4232459300000002 O
atom 2.7811559099999998 6.0367003199999996 2.8183722100000002 O
atom 2.6718960900000002 6.4551610300000002 7.5965645500000001 O
atom 7.6430615199999998 1.1874357499999999 2.4403531200000002 O
atom 7.5851771299999999 1.1942037100000000 7.4267094499999997 O
atom 7.6803184900000003 6.3581784600000004 2.4751099299999999 O
atom 7.5671763099999998 6.4057212300000002 7.4556211399999999 O
atom 2.6320906100000001 1.5395547900000000 4.8289896099999998 O
atom 2.5984059300000002 1.4266691000000000 9.9504736400000002 O
atom 2.4672153099999998 6.8860470100000004 5.2268850499999999 O
atom 2.6655260900000002 6.5856652100000002 10.1087420399999992 O
atom 7.6461581799999996 1.3687045000000000 4.9384106100000000 O
atom 7.6141681200000004 1.3898142400000000 9.8867501000000004 O
atom 7.5123168600000003 6.5900851800000000 4.9609927300000001 O
atom 7.6274737000000004 6.6123017400000004 9.9522495299999996 O
atom 2.6544995999999998 4.3900673699999997 4.8930432599999998 O
atom 2.2860570400000002 4.0049780600000000 9.9306151299999996 O
atom 2.3092434100000001 9.3541378700000006 5.0591780100000001 O
atom 2.1621631300000002 9.3746532800000004 10.2414860900000004 O
atom 7.2289289400000003 3.9796100399999998 4.9514661400000000 O
atom 7.2508364399999996 4.0131601600000000 9.9139131099999993 O
atom 7.2310167300000003 9.2088203800000006 4.9643722700000001 O
atom 7.2194469500000000 9.1967438599999998 9.9381384399999995 O
atom 2.3469726799999999 3.5811969499999998 2.4666502200000000 O
atom 2.2559832900000001 3.8279107600000000 7.3866123300000002 O
atom 2.5806265100000001 8.6643090699999998 2.7173247900000002 O
atom 2.2188268299999998 9.0701380500000006 7.6092861000000003 O
atom 7.2267511500000001 3.7779096100000000 2.4530978999999999 O
atom 7.2252014400000002 3.8303683799999999 7.4297380999999998 O
atom 7.3549537300000001 8.9686313599999998 2.4739745499999999 O
atom 7.2210761899999998 9.0002016000000005 7.4573152900000004 O
