lattice_vector 10.1658122599999992 0.0477088400000000 0.7761592100000000 
lattice_vector 0.0555091500000000 10.2626110599999993 0.0073945400000000 
lattice_vector 0.7897093300000000 -0.0237551700000000 10.4091170700000006 
atom 1.2303518200000001 -0.0461268200000000 1.7103466199999999 Si
atom 1.8837917700000000 0.1730618200000000 6.7941576599999998 Hf
atom 1.6330021200000000 5.3481089099999997 1.6339818399999999 Hf
atom 1.9518984800000001 5.3179710900000003 6.8377523699999996 Hf
atom 6.6388622899999996 0.2166247800000000 2.0091784100000001 Hf
atom 6.9564336000000004 0.2334622200000000 7.2244809200000004 Hf
atom 6.6326457999999997 5.3604421400000000 1.9549542900000001 Hf
atom 7.0356080099999998 5.1899825599999998 7.0947866800000003 La
atom 2.0029950400000001 2.2547663400000002 4.0818155100000002 Hf
atom 2.1845248200000000 2.2580895000000001 9.4575945200000007 Hf
atom 1.7806168300000000 7.5309275299999996 4.2566558299999997 Hf
atom 2.1302582800000001 7.4777080500000004 9.4262050100000003 Hf
atom 6.8225682399999998 2.5049928800000001 4.5592347499999999 La
atom 7.2371541400000003 2.3390136400000001 9.8617294599999994 Hf
atom 6.8054671400000002 7.5569233799999997 4.6017205900000002 Hf
atom 7.1902605499999996 7.4745519500000004 9.8050228199999996 Hf
atom 3.8225253700000001 2.7866779899999998 1.3311628700000000 Hf
atom 4.0751507900000004 2.7782585300000000 6.6210827600000002 Hf
atom 3.7640064600000001 8.0090260400000002 1.3544040700000000 Hf
atom 4.1934584900000003 7.9174881700000004 6.5858557500000003 Hf
atom 8.9889434300000008 2.7534115500000000 1.7805348999999999 Hf
atom 9.3696718800000003 2.6205340200000000 7.1314956799999996 Hf
atom 8.8676805200000004 7.9406062899999998 1.7151256699999999 Hf
atom 9.2443121099999992 7.9081120000000000 6.9659377100000004 Hf
atom 3.9998244199999999 4.9714477700000002 3.9819663699999999 Hf
atom 4.3477426599999998 4.9426853499999996 9.1838935199999998 Hf
atom 4.0495760000000001 10.0438483699999992 3.9050192300000002 Hf
atom 4.4060947099999996 10.1193619199999993 9.1910505800000006 Hf
atom 9.1158439799999993 5.1522934700000000 4.1901972299999999 Hf
atom 9.5096080500000006 4.9130900400000002 9.5917457499999994 Hf
atom 9.0951549899999993 10.0826126699999996 4.3979558299999999 Hf
atom 9.4676824899999996 10.0550671600000001 9.5518178400000000 Hf
atom 0.6378780500000000 1.3301908400000000 0.8105482300000000 O
atom 0.8570489700000000 1.6736872599999999 5.7504064699999997 O
atom 0.3854846000000000 6.7294647699999999 0.8328170100000000 O
atom 0.8405116800000000 6.8091477100000004 6.0289389499999997 O
atom 5.6356574899999998 1.8387925599999999 1.3355767999999999 O
atom 5.9350125100000000 1.9343369800000001 6.7144226700000003 O
atom 5.5460101399999999 6.9673463599999996 1.3058619199999999 O
atom 5.9844791900000001 7.1062299900000001 6.4552562800000004 O
atom 0.7645807800000000 0.7943934499999999 3.2334752700000000 O
atom 0.8925481600000000 0.9831477400000000 8.4804919499999993 O
atom 0.7364773000000000 5.9596809600000000 3.4588848799999998 O
atom 1.0489512800000000 5.9916272499999996 8.6514027400000000 O
atom 5.8008761700000004 0.6045324800000000 3.8868528300000000 O
atom 6.1746566500000002 0.7408950600000000 9.1437507599999996 O
atom 5.8881619900000004 5.7899812900000001 3.9823952899999999 O
atom 6.0766699900000001 5.9821419000000002 9.1376696400000004 O
atom 4.9002543599999999 4.3699985300000002 2.1273163899999998 O
atom 4.9267174200000001 4.4578059200000002 7.2525665799999999 O
atom 4.8988584700000004 9.4924160700000009 2.0540446800000001 O
atom 5.2111368300000001 9.5555573099999993 7.2724888900000000 O
atom 10.2608093500000006 4.0216264900000001 2.8204585299999998 O
atom 10.4457305700000003 4.2059889600000000 7.8233114600000002 O
atom 10.0711852900000007 9.3463854899999994 2.5831521000000000 O
atom 10.3768907899999991 9.4194631100000006 7.7496588300000004 O
atom 4.7477257300000000 3.3137025699999998 4.7425171600000002 O
atom 5.5570281399999999 3.4598836899999998 9.9017374100000008 O
atom 4.9626978900000003 8.3795507600000008 4.5910565800000001 O
atom 5.3610657200000000 8.4946735300000000 9.9124249800000008 O
atom 8.6732510699999992 3.8277501699999998 5.6657073699999998 O
atom 10.6928374500000007 3.4856451700000002 10.5336858299999996 O
atom 10.2196878000000009 8.6196138300000005 5.1762392000000004 O
atom 10.5962265700000007 8.6086804200000007 10.3805981099999993 O
atom 3.1973359600000002 1.3594320900000001 2.7031486700000000 O
atom 3.3036230999999998 1.2753228100000000 7.8746887900000004 O
atom 3.0416118100000000 6.5314105500000004 2.7219664500000000 O
atom 3.3828970100000002 6.4960002699999997 7.9419190600000000 O
atom 8.2304563999999996 1.2711793300000001 3.0374277300000001 O
atom 8.4389411499999998 1.2695762500000001 8.3509689500000004 O
atom 8.0874151899999998 6.5278429999999998 3.0525937700000001 O
atom 8.5878280199999999 6.4932655900000000 8.3754575700000000 O
atom 3.2382412100000000 1.1818941800000000 5.2961355100000000 O
atom 3.8536485100000002 1.4480146199999999 10.3342235900000006 O
atom 3.2276882499999999 6.3615732200000004 5.3431806799999997 O
atom 3.5837132000000000 6.4492671799999997 10.5420472600000004 O
atom 8.4004993700000004 1.1773096700000001 5.8271854699999999 O
atom 8.7462640500000006 1.2372751799999999 10.9230722700000005 O
atom 8.3862001900000003 6.5105166600000004 5.5812130599999996 O
atom 8.6769602799999994 6.3826712099999998 10.9064867099999994 O
atom 2.3593035699999998 3.9487174999999999 0.2791940500000000 O
atom 2.4980562499999999 3.8627410599999998 5.4444912900000002 O
atom 2.2093527800000001 9.3368956200000000 0.4255012400000000 O
atom 2.7197137900000001 9.0071653900000008 5.4717266400000000 O
atom 7.4736530500000002 3.8963692200000000 0.6568561600000000 O
atom 7.4038317500000002 9.0471937899999997 0.6449673200000000 O
atom 7.7807359700000003 9.0524762600000006 5.8372691100000003 O
atom 2.5981287700000002 3.8276743400000002 2.8603696699999999 O
atom 2.8214400500000001 3.7561967100000002 8.1360754300000000 O
atom 2.4024112600000000 9.0583406699999998 2.8020350700000001 O
atom 2.8878022200000002 8.9601717500000007 8.1215555800000008 O
atom 7.8163119300000004 3.9711238999999998 3.0666198300000000 O
atom 8.1450370099999994 3.6887814500000000 8.5497595600000000 O
atom 7.6949598500000000 8.9651800399999999 3.2518976899999998 O
atom 7.9754484600000000 8.9451497799999995 8.4558702399999994 O
