lattice_vector 10.0038272900000003 0.0124384100000000 0.0574401000000000 
lattice_vector -0.0000063500000000 10.4428717500000001 -0.1015303200000000 
lattice_vector 0.0115751300000000 -0.0935637800000000 10.0231784600000005 
atom 1.1874372000000000 0.3264573500000000 1.1443334100000000 Si
atom 1.3676188400000000 0.0922745600000000 6.3431262100000003 Hf
atom 1.3012167600000000 5.3727701500000000 1.1707247100000000 Hf
atom 1.3377240200000000 5.2877770999999996 6.2110169800000001 Hf
atom 6.3414134500000001 0.2341261800000000 1.3136750800000001 Hf
atom 6.2701117599999998 0.1280681800000000 6.2208927799999998 Hf
atom 6.4097835700000001 5.3989921900000004 1.2445469499999999 Hf
atom 6.2694167399999996 5.1478851800000003 6.1989517599999999 La
atom 1.3738647399999999 2.2863012600000001 3.6668849699999999 Hf
atom 1.3306721600000000 2.3805588599999998 8.8335850400000009 Hf
atom 1.3629991200000000 7.5669134099999997 3.7366500299999998 Hf
atom 1.2867210899999999 7.6188633799999996 8.7148718200000008 Hf
atom 6.3750714400000001 2.4057408400000000 3.7984444000000002 Hf
atom 6.3778824900000002 2.3528027200000001 8.7388311499999993 Hf
atom 6.4262616699999997 7.6836055099999996 3.6505215999999998 Hf
atom 6.4913678800000003 7.6787713499999999 8.9285730000000001 Hf
atom 3.8083317299999999 2.8113855100000000 1.1003126700000001 Hf
atom 3.5964038299999999 2.7437050400000000 6.2705857199999997 Hf
atom 3.7033191900000002 7.9818062500000000 1.1722627699999999 Hf
atom 3.8172556700000002 7.8751756200000003 6.2764575999999996 La
atom 8.6726811399999999 2.7908131699999998 1.2516046500000000 Hf
atom 8.7729424900000001 2.6386401700000000 6.2206562600000002 Hf
atom 8.8104473100000007 8.0616714199999997 1.2373311000000000 Hf
atom 8.6516626700000003 7.9491500899999998 6.2212525500000000 Hf
atom 3.6407271600000000 4.9666785899999999 3.7052431800000001 Hf
atom 3.5944581300000000 5.0312127300000000 8.7597240099999993 Hf
atom 3.6329753400000002 10.1873273999999991 3.6466955300000001 Hf
atom 3.5891400899999999 10.2587709900000004 8.8312994499999995 Hf
atom 8.7111938200000001 5.0107914600000001 3.7475532800000000 Hf
atom 8.6737004800000008 5.0016189100000004 8.7170130700000001 Hf
atom 8.7502385799999995 10.2713590499999992 3.7112447199999998 Hf
atom 8.6948024400000001 10.2485614500000004 8.6948482499999997 Hf
atom 0.3703451500000000 1.8339257700000000 1.7986415499999999 O
atom 0.2927093100000000 1.7647942299999999 7.1307362400000001 O
atom 0.3796705200000000 7.1127910500000002 1.9170355500000000 O
atom 0.3186818100000000 7.0761892499999997 6.9099715699999997 O
atom 5.3145728099999996 1.9283404900000001 2.0522786499999999 O
atom 5.3830349000000002 2.0258042800000000 6.9257714300000002 O
atom 5.4650443700000002 7.2030332000000001 1.7603432000000001 O
atom 0.3187846100000000 0.6912949300000000 4.6172647700000002 O
atom 0.3571819900000000 0.5638677500000000 9.6152412700000003 O
atom 0.3187257900000000 5.8526004199999999 4.4351105200000003 O
atom 0.3132176900000000 5.8591731400000002 9.4539482300000000 O
atom 5.3329404399999998 0.7567477700000000 4.4565210400000002 O
atom 5.2677745299999996 0.7575025900000000 9.6290847900000003 O
atom 5.2286336799999997 6.1077226900000001 4.2777379000000000 O
atom 5.3639276300000001 5.9392863699999996 9.1928517500000009 O
atom 4.6928490800000002 4.5618015900000000 1.8492113200000000 O
atom 4.2544138100000000 4.6394590200000003 6.8837533300000002 O
atom 4.7043165199999999 9.7607502000000004 1.8450066000000001 O
atom 4.6678747899999999 9.8892539399999997 7.0508881600000004 O
atom 9.7145469099999993 4.4597402700000002 2.0071738699999999 O
atom 9.6199948600000003 4.4864819499999999 6.9146812000000004 O
atom 9.9399563799999999 9.8098465200000007 1.8520480600000000 O
atom 9.6348782400000008 9.6783511499999992 6.9422435000000000 O
atom 4.7896446399999997 3.4220834700000000 4.5761523500000001 O
atom 4.6717344699999996 3.3092210799999999 9.3566325900000002 O
atom 4.8818503199999999 8.7059930300000001 4.4198895800000004 O
atom 4.6070416700000001 8.4878264600000008 9.3077503999999998 O
atom 9.7422586100000004 3.2245738899999998 4.4338869699999996 O
atom 9.6659684400000003 3.2888261999999999 9.5239763600000007 O
atom 9.6863666100000003 8.5178891300000004 4.4030084799999996 O
atom 9.5715482699999992 8.4603996600000002 9.4018663100000008 O
atom 2.2939890100000002 0.7046961200000000 2.4763837899999999 O
atom 2.7125611400000000 1.2016782600000000 7.5716562300000003 O
atom 2.6682172700000000 6.2134707000000002 2.4018742300000002 O
atom 2.5178658600000001 6.3295604900000004 7.5661225800000000 O
atom 7.7436332200000004 1.2317082500000001 2.5142348299999999 O
atom 7.6220843800000004 1.0496989299999999 7.5174949299999998 O
atom 7.7620239399999997 6.4066847300000003 2.4745295800000000 O
atom 7.6565608599999999 6.4970135100000004 7.5804277300000003 O
atom 2.7348056399999998 1.3275035100000001 4.9732265399999998 O
atom 2.5897393300000000 1.3443763500000001 10.1436490500000005 O
atom 2.6379018699999999 6.4370619199999997 4.9204073399999997 O
atom 2.6599753200000000 6.6064806999999997 9.9698373500000006 O
atom 7.7169885799999998 1.3204540199999999 5.0111606399999999 O
atom 7.7086044100000004 1.3465380199999999 10.0150034800000007 O
atom 7.7112429300000001 6.6249365800000000 4.9316221799999997 O
atom 7.7533455499999997 6.5626495599999997 10.0733537900000005 O
atom 2.2861935000000000 3.8726791100000000 4.9511450300000002 O
atom 2.3258171700000001 3.9450745299999999 10.0046223600000008 O
atom 2.3009825500000001 9.1714822199999997 5.0063827999999999 O
atom 2.1983473099999999 9.3383062399999996 10.2528081199999992 O
atom 7.4746164500000001 3.8361105800000002 4.9080017199999997 O
atom 7.3032450300000002 3.9640285199999998 9.9694964800000001 O
atom 7.3907148200000004 9.2314089399999997 4.9365718200000002 O
atom 7.3277633700000004 9.2327806599999995 9.9797844999999992 O
atom 2.4764827299999999 3.5568176299999998 2.4645174000000001 O
atom 2.1584068599999999 3.7206774899999999 7.5164941699999996 O
atom 2.6503573800000000 8.6500921000000002 2.6751420200000000 O
atom 2.2099324800000000 9.1009542700000008 7.6311792799999996 O
atom 7.2922211399999997 3.8334776599999998 2.4471132600000001 O
atom 7.4937947600000001 3.6028982699999998 7.5511752699999999 O
atom 7.4553461399999996 9.0808952800000000 2.4156649400000001 O
atom 7.1774398000000001 8.9181184600000005 7.4242464400000001 O
