lattice_vector 9.9710157600000002 0.0434965900000000 -0.2081052500000000 
lattice_vector 0.0646813500000000 10.1856580599999997 0.0805055300000000 
lattice_vector -0.0752649000000000 0.0626978500000000 10.4089103800000000 
atom 1.0134712800000001 0.2623859000000000 2.1937107299999998 Si
atom 1.4490457999999999 0.2711628900000000 6.8306698499999996 Hf
atom 1.3593401599999999 5.3669757999999996 1.7222890600000000 Hf
atom 1.3889033799999999 5.3320557500000003 7.0057049200000003 Hf
atom 1.3797019100000001 2.4468985299999999 4.3416995299999996 Hf
atom 1.3626466600000000 2.2768539600000000 9.5879195300000006 Hf
atom 1.3648153700000001 7.4754691199999996 4.3579897499999998 Hf
atom 1.3202945399999999 7.5772892599999997 9.5340324800000005 Hf
atom 3.5520599300000000 2.7656268300000000 1.6819187799999999 Hf
atom 3.6348940000000001 2.8265288599999998 6.9539836599999996 Hf
atom 3.5432135400000000 7.9365550899999997 1.6769416500000001 Hf
atom 3.6270429900000001 7.8901629499999997 6.9321238100000002 Hf
atom 3.5843581499999999 4.9463209199999998 4.3209168000000000 Hf
atom 3.5619453800000000 4.9299135800000000 9.5560981799999993 Hf
atom 3.6309096799999998 10.0582791900000004 4.2944817500000001 Hf
atom 3.6004928800000000 10.0345892800000005 9.5768734099999993 Hf
atom 6.3598708799999999 0.2572859900000000 0.7044605100000000 Hf
atom 6.3294686100000002 0.2335860500000000 5.9868269200000004 Hf
atom 6.3985607099999999 5.3619131500000003 0.7251683400000000 Hf
atom 6.3760992600000002 5.3455281100000001 5.9603865599999999 Hf
atom 6.3333953400000000 2.4016570599999998 3.3491979100000000 Hf
atom 6.4172704899999999 2.3551999900000000 8.6042814100000005 Hf
atom 6.3255196800000002 7.4653812500000001 3.3273456100000001 Hf
atom 6.4083631299999997 7.5263102100000001 8.5993269100000003 Hf
atom 8.6402045699999999 2.7146297499999998 0.7473082599999999 Hf
atom 8.5955658699999997 2.8163933999999999 5.9233242199999996 Hf
atom 8.5978369699999995 8.0149366700000009 0.6933839800000000 Hf
atom 8.5807237999999995 7.8449031800000002 5.9396114000000004 Hf
atom 8.5715364600000008 4.9597736299999999 3.2756011799999998 Hf
atom 8.6011583199999997 4.9248776300000001 8.5590616199999996 Hf
atom 8.5113240200000000 10.0206429600000000 3.4505778000000000 Hf
atom 8.9469489699999993 10.0295327600000004 8.0878429599999997 Si
atom 0.5560200100000000 1.4913628600000000 1.0617903600000000 O
atom 0.3745971800000000 1.7825150500000000 6.0822687699999998 O
atom 0.3472542700000000 6.9123060499999998 0.8373351500000000 O
atom 0.3668797400000000 6.8324870700000000 6.1165999099999997 O
atom 0.2712973700000000 0.8314314800000000 3.5962797399999999 O
atom 0.2483556600000000 0.8068281800000000 8.5955458900000004 O
atom 0.3255167400000000 5.9804150099999998 3.4821467799999999 O
atom 0.3314464400000000 5.9783941199999999 8.7361713099999996 O
atom 4.6570460200000001 4.2871935499999996 0.8494497900000000 O
atom 4.6296116899999999 4.3420993799999996 6.0525400400000002 O
atom 4.6654559100000004 9.4134549199999995 0.9018929800000000 O
atom 4.6399278400000004 9.4399254799999994 6.0700564200000002 O
atom 4.5781570800000004 3.3785085300000000 3.4730612800000000 O
atom 4.6681368499999998 3.4461035400000002 8.6405853199999996 O
atom 4.5615586600000002 8.5003587700000001 3.4528633800000001 O
atom 4.6466703100000002 8.5414930099999999 8.6275915100000002 O
atom 2.5092544700000001 1.2572521200000000 2.8614236200000001 O
atom 2.6916763900000000 1.2920165100000001 8.1237445800000003 O
atom 2.7203631900000000 6.4609478400000002 3.0120711400000002 O
atom 2.7403352399999998 6.4183733199999997 8.2296057999999999 O
atom 3.0102028299999999 1.4588616000000001 0.2078425300000000 O
atom 2.7960039999999999 1.3742993800000001 5.5249547300000001 O
atom 2.7468821399999999 6.4012038100000002 0.3911524400000000 O
atom 2.7531259600000002 6.4265273499999997 5.6200996099999996 O
atom 2.2038069800000000 3.8893457499999999 3.0310732800000002 O
atom 2.2196519600000002 3.8141126500000002 8.2651478199999993 O
atom 2.0676870500000000 9.0940424199999992 2.9141736599999999 O
atom 2.2118538000000001 8.9403140600000004 8.1755677799999997 O
atom 2.1806424899999999 3.8704836399999998 0.4280406000000000 O
atom 2.2171198799999998 3.8880294399999999 5.6451461800000002 O
atom 2.2960000200000001 8.9294601000000000 0.3250054400000000 O
atom 2.2575763499999999 8.9960043499999998 5.5632296200000004 O
atom 5.3137270100000000 1.7504056400000001 1.6537271600000001 O
atom 5.3988059899999996 1.7914918600000000 6.8284220099999997 O
atom 5.2923823800000003 6.8457169200000001 1.6407091700000001 O
atom 5.3822787500000002 6.9133190799999999 6.8082328499999996 O
atom 5.3204597600000003 0.8519255600000000 4.2112479299999999 O
atom 5.2949481799999996 0.8783853800000000 9.3793947299999996 O
atom 5.3308360300000004 5.9497713799999996 4.2287737500000002 O
atom 5.3034331300000002 6.0047027499999999 9.4318427899999993 O
atom 9.6290557400000001 4.3134836900000000 1.5451717000000000 O
atom 9.6349102299999991 4.3114237600000003 6.7991619099999996 O
atom 9.7120221499999992 9.4851214400000003 1.6856332900000000 O
atom 9.6889441900000008 9.4604981000000006 6.6851119199999998 O
atom 9.5935607199999993 3.4593533600000002 4.1647356000000002 O
atom 9.6132416400000000 3.3795158600000001 9.4439633900000004 O
atom 9.5857810899999993 8.5093342199999995 4.1990384199999999 O
atom 9.4043834600000000 8.8003820699999995 9.2194499800000003 O
atom 7.6643943300000004 1.3624824000000000 9.9564514099999997 O
atom 7.7028674400000003 1.2958031200000000 4.7180901400000002 O
atom 7.7797689999999999 6.4214117499999999 9.8532019799999997 O
atom 7.7433019400000003 6.4038231300000001 4.6361262900000000 O
atom 7.7485841300000002 1.3515581400000001 2.1056872200000001 O
atom 7.8928602999999997 1.1976570700000000 7.3670885600000000 O
atom 7.7407533300000004 6.4777507500000002 2.0162020300000001 O
atom 7.7566316700000000 6.4024834400000001 7.2502772899999997 O
atom 7.2135606499999998 3.8905695900000001 9.8901079000000003 O
atom 7.2072903100000003 3.8653259499999999 4.6611855899999997 O
atom 6.9501842299999996 8.8329612300000004 10.0735784899999992 O
atom 7.1644327499999996 8.9175637900000009 4.7564045000000004 O
atom 7.2200813100000003 3.8734605200000001 2.0517210399999999 O
atom 7.2400900100000003 3.8309413499999998 7.2692892000000002 O
atom 7.2687365200000000 8.9997902799999991 2.1574635899999999 O
atom 7.4513396900000002 9.0347351099999997 7.4199028299999998 O
