lattice_vector 10.0866196699999993 0.0495758800000000 -0.0674426600000000 
lattice_vector 0.0646722800000000 10.2905750999999999 0.0536386900000000 
lattice_vector -0.0532048800000000 -0.0488830000000000 5.2503068900000001 
atom 1.0643936199999999 0.3153312500000000 1.8380091300000001 Si
atom 1.3902810999999999 5.2719647600000004 1.8092369600000000 Hf
atom 1.3921345800000000 2.2828925500000001 4.3130934500000002 Hf
atom 1.2816660200000001 7.3152088199999996 4.4660311999999998 Hf
atom 3.6091986100000000 2.7492991999999998 1.7166544100000001 Hf
atom 3.5573144700000001 7.9968152400000001 1.8737113200000000 La
atom 3.6022605699999999 4.8440579200000000 4.4278096099999997 Hf
atom 3.6317364400000001 10.1347066399999992 4.5423354399999996 Hf
atom 6.4928567499999996 0.2646176900000000 0.7271304100000000 Hf
atom 6.4737948599999999 5.3761469599999998 0.8130280700000000 Hf
atom 6.4391053999999999 2.3630688800000001 3.3648644100000000 Hf
atom 6.4913786199999999 7.4871101299999996 3.4827378000000002 Hf
atom 8.7433638100000000 2.7774461300000000 0.7718888200000000 Hf
atom 8.7460516199999994 7.9736351200000000 0.8626589500000000 Hf
atom 8.6565353599999995 4.8867482200000003 3.4239288700000001 Hf
atom 8.7164615600000008 10.0580372800000006 3.4631422600000001 Hf
atom 0.4722487100000000 1.5632612600000000 0.8526070600000000 O
atom 0.3655485200000000 6.8549693200000004 1.0043004099999999 O
atom 0.3016586600000000 0.8161598900000000 3.3482297999999999 O
atom 0.2645682400000000 5.9052745399999997 3.5378438200000000 O
atom 4.7329985199999998 4.2658203200000004 0.8440362800000000 O
atom 4.8247581200000003 9.5804754299999999 0.8327732799999999 O
atom 4.7295958499999999 3.4475150100000000 3.4164537300000002 O
atom 4.9172744100000001 8.7414661400000000 3.6141295300000000 O
atom 2.5264875000000000 1.1244520499999999 2.6971004800000000 O
atom 2.6681062899999999 6.2216821299999996 3.1444901199999999 O
atom 3.1211470499999998 1.6835686900000000 0.0121020300000000 O
atom 2.6768717099999999 6.3366337200000000 0.4212998000000000 O
atom 2.2577781099999998 3.7293463800000000 3.0878870799999998 O
atom 2.2976242700000000 8.8534316499999992 3.6620042900000001 O
atom 2.2173582800000000 3.8807521800000000 0.4751991100000000 O
atom 2.1234200799999998 9.6864500299999996 0.8675848500000000 O
atom 5.3942774299999998 1.7280061300000000 1.6627932500000000 O
atom 5.5316020500000000 6.8036153600000002 1.8199598699999999 O
atom 5.3983609100000001 0.8825574200000000 4.2508634599999997 O
atom 5.3193061300000002 6.0399466700000000 4.4029323600000003 O
atom 9.7685866800000003 4.2036216800000004 1.7500095000000000 O
atom 9.8708879500000002 9.5184165699999994 1.7528109500000000 O
atom 9.7449312999999993 3.3987737600000001 4.3659167300000004 O
atom 9.7155670999999995 8.5508614299999994 4.3816976500000004 O
atom 7.8472244299999998 1.2519178799999999 4.6968252499999998 O
atom 7.8181670299999997 6.3885720399999997 4.8049507599999997 O
atom 7.8470251700000002 1.3118068899999999 2.0731726400000001 O
atom 7.9292094799999999 6.4409451100000004 2.1649852900000002 O
atom 7.3045225000000000 3.8028955400000002 4.7403114300000002 O
atom 7.3462084499999998 8.9855825700000000 4.8220324500000000 O
atom 7.3238567300000001 3.8668875500000000 2.0920223199999999 O
atom 7.4083786800000002 9.0276791500000009 2.1804834400000002 O
