lattice_vector 10.0359231900000001 0.0033589900000000 -0.0600036700000000 
lattice_vector 0.0348648500000000 10.2280870499999992 -0.0115593900000000 
lattice_vector -0.0328125500000000 -0.0195479000000000 10.4860844600000007 
atom 1.1612767900000001 0.0988953000000000 1.9652498700000001 Si
atom 1.2674649400000000 0.2584303100000000 6.9059632100000004 Hf
atom 1.4215005599999999 5.3573413800000003 1.8102312700000001 Hf
atom 1.3796350700000000 5.3028421600000000 7.0183985099999999 Hf
atom 1.3770595600000000 2.3348592600000000 4.2756271799999999 Hf
atom 1.4038870200000000 2.3388174799999999 9.6247804600000002 Hf
atom 1.3757371199999999 7.4482302400000000 4.4378440100000001 Hf
atom 1.2883857500000000 7.3611225899999999 9.6987080100000007 Hf
atom 3.6052604499999998 2.7787790800000001 1.7309120000000000 Hf
atom 3.6116476000000000 2.7940074199999998 6.9834950800000000 Hf
atom 3.5920160600000002 7.9956765599999997 1.8301866000000000 Hf
atom 3.7198412699999999 7.7944589000000004 6.9268754799999996 Hf
atom 3.6319269400000000 4.8836418000000004 4.3804078600000000 Hf
atom 3.6224629099999999 4.9106160100000000 9.6461722099999996 Hf
atom 3.6007938799999999 10.0243662600000008 4.3756535400000001 Hf
atom 3.5721510500000000 10.0384797799999994 9.5898661799999996 La
atom 6.4404914599999996 0.2172818300000000 0.8073533400000000 Hf
atom 6.3669805500000001 0.2043129700000000 6.0320174000000000 Hf
atom 6.4259167300000000 5.3306707299999996 0.7881612500000000 Hf
atom 6.4432135500000003 5.2846703699999997 5.9990384299999997 Hf
atom 6.3890067100000003 2.3258318299999998 3.3878502400000001 Hf
atom 6.4139054700000004 2.3453271000000000 8.6599303200000008 Hf
atom 6.3891984300000004 7.4244626199999999 3.3947716300000002 Hf
atom 6.4367767899999997 7.4210689399999996 8.6365261499999999 Hf
atom 8.7556509100000000 2.6909912399999998 0.8307773300000000 Hf
atom 8.6152884000000007 2.7624618100000000 5.9998229299999997 Hf
atom 8.6631989699999998 7.9032597000000004 0.7986914700000000 Hf
atom 8.6194345499999994 7.8571034700000002 6.0327627399999999 Hf
atom 8.6496791799999997 4.8888777499999998 3.3778965500000000 Hf
atom 8.6277991600000004 4.8397507900000001 8.6744200199999995 Hf
atom 8.6325996099999998 9.9837303399999993 3.4302486399999998 Hf
atom 8.6520793699999992 10.0097181899999992 8.6544628199999991 Hf
atom 0.5543870800000000 1.4665482299999999 0.9493437100000000 O
atom 0.2629344000000000 1.6300869899999999 5.9626228599999997 O
atom 0.3155727100000000 6.7624783600000002 0.8669260100000000 O
atom 0.3081596500000000 6.7607891000000002 6.1233895000000000 O
atom 0.3512751600000000 0.7796437500000000 3.4052292000000000 O
atom 0.3328372700000000 0.8224626900000001 8.7063024400000000 O
atom 0.3152882400000000 6.0028483599999998 3.4956795899999999 O
atom 0.3074173700000000 5.9383042399999999 8.7519060100000008 O
atom 4.6821184400000000 4.2851224200000004 0.8427968200000000 O
atom 4.6821998200000001 4.2763972900000002 6.0783250300000002 O
atom 4.8196422400000003 9.3201978899999993 0.9714807200000000 O
atom 4.6640105800000002 9.3975335900000001 6.0898113900000004 O
atom 4.6750884499999996 3.3788813700000002 3.4960206500000002 O
atom 4.6839579599999999 3.4255175000000002 8.6838712900000008 O
atom 4.6426496500000001 8.4779584299999993 3.5481819400000001 O
atom 4.6737935999999998 8.3318965699999996 8.6237377899999998 O
atom 2.6146066399999999 1.1469970100000000 2.7879033799999999 O
atom 2.5728090300000002 1.3588346400000000 8.0616808399999993 O
atom 2.7706371200000000 6.3983991900000001 3.0827970300000000 O
atom 2.6961959900000001 6.4716598799999998 8.2959435900000003 O
atom 3.0534513400000001 1.7586263900000001 0.1393704400000000 O
atom 2.7335437499999999 1.3223068800000000 5.5198187699999997 O
atom 2.8114207200000001 6.5770245999999997 0.4413991900000000 O
atom 2.7639350600000001 6.3602153599999998 5.6780502700000000 O
atom 2.2562696500000001 3.8189288000000001 3.0657379900000001 O
atom 2.2748218900000001 3.8789603100000001 8.3238101499999999 O
atom 2.1426650000000000 8.9819123100000002 3.1678449799999999 O
atom 2.1884875300000002 4.0357995500000001 0.4362558200000000 O
atom 2.2147159599999999 3.8294919599999999 5.6725742600000002 O
atom 2.0910947800000002 9.2904774200000002 0.7901690099999999 O
atom 2.2461176799999998 8.9385678899999998 5.7929790299999997 O
atom 5.3723556500000003 1.7175263900000000 1.6913321699999999 O
atom 5.3230027700000004 1.6951842200000000 6.9438031699999998 O
atom 5.3433077300000003 6.8078445500000004 1.7155816100000001 O
atom 5.4379803600000001 6.8005735400000002 6.8442680100000004 O
atom 5.3220890499999998 0.8272453100000000 4.2943661500000001 O
atom 5.5533261700000001 0.8163426900000000 9.5615692400000007 O
atom 5.3705793000000002 5.9236942399999997 4.2927827199999999 O
atom 5.3812678600000003 5.9232114200000003 9.5409272099999995 O
atom 9.7706997799999993 4.1959988099999999 1.7426326999999999 O
atom 9.7234465199999995 4.1611032200000002 6.9865179900000003 O
atom 9.7885761200000001 9.3568862100000008 1.7552774499999999 O
atom 9.7179409799999998 9.2922603499999994 6.9761256700000001 O
atom 9.6942970400000004 3.4133986400000000 4.3046820700000001 O
atom 9.7134022200000008 3.3925326400000002 9.6453090300000000 O
atom 9.6999068499999996 8.5482923399999997 4.3745345200000001 O
atom 9.7174366400000007 8.5516016900000000 9.6039653999999999 O
atom 7.9115852799999997 1.2347566900000000 10.0087192599999995 O
atom 7.7580193000000000 1.2441069499999999 4.7297935100000004 O
atom 7.8091272299999996 6.3461487300000003 9.9877027399999996 O
atom 7.7971840600000002 6.3607013400000003 4.7166719500000003 O
atom 7.8176423499999999 1.2659709699999999 2.1301316500000000 O
atom 7.7819760300000000 1.2815634700000000 7.3458801899999999 O
atom 7.8025876299999997 6.3925278900000002 2.0989509000000002 O
atom 7.8208968399999996 6.3600837300000004 7.3604852999999997 O
atom 7.2823999400000003 3.7702146700000001 10.0015099000000003 O
atom 7.2701736099999996 3.7991952200000001 4.7163367400000000 O
atom 7.2809894000000002 8.8916982699999991 9.9851872000000004 O
atom 7.2427189199999997 8.9100379000000007 4.7447896399999996 O
atom 7.3040149699999999 3.8171415000000000 2.0972925600000001 O
atom 7.2708296099999998 3.8352740500000002 7.3446867400000002 O
atom 7.3400414600000001 8.9390952800000001 2.1391279000000001 O
atom 7.2632879299999997 8.9522257799999991 7.3577790099999998 O
