lattice_vector 10.1187911100000001 0.0675443000000000 0.8112259300000000 
lattice_vector 0.0339634400000000 10.2445195099999999 0.0004010300000000 
lattice_vector 0.9016312000000000 -0.0425778900000000 10.4587230899999994 
atom 1.3209587000000000 0.1623080500000000 1.7984770600000000 Si
atom 1.9590805200000001 0.1988063800000000 6.8634436399999998 Hf
atom 1.5627386200000000 5.3316902700000002 1.6295957500000000 Hf
atom 2.0281156899999999 5.2950929699999998 6.8493426499999996 Hf
atom 6.5173443200000003 0.1792338700000000 2.0121558199999998 La
atom 7.0484256500000004 0.2317360800000000 7.2918396300000001 Hf
atom 6.5853483500000003 5.3883695400000002 2.0172286300000000 Hf
atom 7.0554560000000004 5.3712712900000001 7.2934055500000001 Hf
atom 1.7351962900000000 2.3127373100000002 4.1599706899999997 Hf
atom 2.2688738100000001 2.2857932500000002 9.4603535300000008 Hf
atom 1.7289395299999999 7.3882080600000002 4.2798677800000000 Hf
atom 2.2193801299999998 7.4297173200000000 9.4444246700000001 Hf
atom 6.9280988399999996 2.4527669200000002 4.7150106899999997 Hf
atom 7.2991507999999996 2.4095265900000000 9.8960460399999999 Hf
atom 6.8322057899999997 7.4836657200000003 4.6725219100000004 Hf
atom 7.2771853100000001 7.4788754099999997 9.9100680400000005 Hf
atom 3.7120631500000001 2.7942905200000001 1.3221134000000001 Hf
atom 4.2069051000000002 2.7613132700000000 6.5584695899999996 Hf
atom 3.6453816799999998 7.9685474699999999 1.3939239200000000 Hf
atom 4.2463573400000003 7.9282248299999996 6.6498114199999998 Hf
atom 8.8915247599999994 2.7624801600000000 1.8134139400000000 Hf
atom 9.3009953200000002 2.7982502000000000 7.0400003900000003 Hf
atom 8.9028353800000009 7.9457478200000002 1.7968850500000000 Hf
atom 9.2613593000000005 7.9162275299999996 7.0515792399999997 Hf
atom 4.0106799500000001 4.9025146700000004 3.9675371500000001 Hf
atom 4.4396884500000002 4.9127245000000004 9.1989109300000003 Hf
atom 3.7454938000000002 9.9125890400000003 4.0074461299999999 Hf
atom 4.4705870299999999 10.0979318899999999 9.2706140399999999 Hf
atom 9.0411428100000002 4.9481031399999997 4.3756008099999999 Hf
atom 9.5403002600000004 4.9005763599999996 9.6698648200000008 Hf
atom 9.0628047499999997 10.0446312500000001 4.4556990799999996 Hf
atom 9.5440378399999997 10.0510436500000004 9.6272500200000000 Hf
atom 0.6013413800000000 1.4954896000000000 0.8873709500000000 O
atom 0.8675937200000000 1.6304135000000000 5.9882144600000000 O
atom 0.4695892800000000 6.8064287099999996 0.8262100200000000 O
atom 0.8504223900000000 6.7302293100000004 6.0730724900000004 O
atom 5.4840107600000003 1.9508129299999999 1.2311916800000000 O
atom 5.9116078700000001 1.6510288200000001 6.3743161199999996 O
atom 5.4788350399999999 6.9079404400000000 1.2470294500000001 O
atom 5.9411507700000001 6.8400085800000001 6.4661750900000001 O
atom 0.6630835100000000 0.7630065400000000 3.3687233100000000 O
atom 1.1055430900000001 0.8539552200000000 8.6366236399999998 O
atom 0.6378838500000000 5.9390819300000004 3.4408879400000001 O
atom 1.1279598300000000 5.9568956699999998 8.6771497899999996 O
atom 6.2075478000000004 0.8871303400000000 9.0987235599999998 O
atom 5.7248264999999998 6.0000804199999997 3.8743876600000000 O
atom 6.1320793599999996 6.0481879999999997 9.0403043099999998 O
atom 4.8306867200000001 4.3697155199999997 2.1384200099999999 O
atom 5.3440029899999999 4.2477989599999999 7.3614291900000000 O
atom 4.7081043800000000 9.2733486099999993 2.3905870700000000 O
atom 5.3665112900000000 9.3824362899999993 7.4729675699999998 O
atom 9.9937912799999999 4.2605220399999997 2.6096573500000000 O
atom 10.4472765800000005 4.2369708599999996 7.8660127299999996 O
atom 10.0422435500000002 9.4811560000000004 2.6024230199999998 O
atom 10.4236951500000004 9.3747637200000007 7.8458243000000003 O
atom 5.1133139900000000 3.3556416300000000 4.7087703200000002 O
atom 5.6149123300000001 3.5412295299999998 10.0030880199999999 O
atom 5.1243001300000000 8.6623746799999992 4.8541669499999998 O
atom 5.5418094699999996 8.6227649700000004 10.1301772499999991 O
atom 10.1414445499999992 3.4351571800000000 5.1899102499999996 O
atom 10.6916358500000008 3.4500266200000000 10.5218048399999997 O
atom 10.1569268699999995 8.5632798900000004 5.2624581499999996 O
atom 10.7221688499999992 8.6256776399999993 10.4745428999999994 O
atom 2.7929359100000002 1.1556160900000001 2.4918217100000000 O
atom 3.4533744099999999 1.2855123900000001 7.8460519499999997 O
atom 2.9970647600000002 6.4452972700000002 2.7370616000000001 O
atom 3.4693109600000001 6.4284943600000002 7.9260007600000000 O
atom 8.1016298300000003 1.4149184699999999 3.2796581400000000 O
atom 8.5428484699999991 1.3491298599999999 8.3559255399999994 O
atom 8.0938933300000002 6.4461262899999996 3.1213779800000001 O
atom 8.5389993999999998 6.4505498899999996 8.3937978300000005 O
atom 3.2150600599999999 1.2387954800000001 5.2378894200000001 O
atom 3.9115823999999999 1.4908485800000000 10.3195076199999995 O
atom 3.2582051600000002 6.3468188300000001 5.3427498900000003 O
atom 3.7053338199999999 6.4237276899999998 10.5461846999999995 O
atom 8.3274627199999998 1.2571999800000000 5.8072742899999996 O
atom 8.8627822900000002 1.3219692199999999 10.9147964999999996 O
atom 8.2962331400000000 6.3775540099999999 5.7622190000000000 O
atom 8.7695116500000001 6.3572234700000001 10.9861684000000004 O
atom 2.2807089399999998 3.9752068500000002 0.2464155200000000 O
atom 2.7422504299999999 3.8489222100000000 5.4746401000000002 O
atom 2.2603611400000001 9.4117820800000001 0.5260820600000000 O
atom 2.6969938999999998 8.9385265300000007 5.5665718000000002 O
atom 7.4188617900000002 3.9254585500000001 0.7185365500000001 O
atom 7.8061834799999996 3.8927962300000001 5.9298916100000003 O
atom 7.5001439500000000 8.9368413600000007 0.5912665300000000 O
atom 7.7953456599999997 9.0114279400000008 5.9579259300000000 O
atom 2.5284079099999999 3.7591636600000000 2.8877342499999998 O
atom 2.9955225099999998 3.7699395600000001 8.1060812200000001 O
atom 2.2909063199999999 8.9039240799999995 2.9368443200000001 O
atom 3.0157785300000000 8.9194521600000005 8.2026082700000007 O
atom 7.5879127200000003 3.8539263500000001 3.2917771999999998 O
atom 8.0553457399999999 3.8498248600000000 8.5445233799999993 O
atom 7.7531787500000000 8.8598097500000002 3.3835344699999998 O
atom 8.0328104000000007 8.9492381699999992 8.5423131899999998 O
