lattice_vector 10.2320796800000000 -0.0147801600000000 0.0023741300000000 
lattice_vector 0.0067914400000000 5.1870535100000001 -0.0029563100000000 
lattice_vector -0.0016990700000000 -0.0005575700000000 10.5332527200000001 
atom 1.3449059900000000 0.1020319600000000 1.7165069200000000 La
atom 1.4182326000000001 0.2174875100000000 7.0564854600000002 Hf
atom 1.4118766300000001 2.3490418200000001 4.4405421699999996 Hf
atom 1.4614450500000000 2.4279414500000001 9.6506909099999998 Hf
atom 3.7417009100000000 2.7331673900000002 1.7860150400000001 Hf
atom 3.6217686800000002 2.7722218700000001 6.9790671399999997 Hf
atom 3.7034367100000001 4.9398821899999996 4.4169002600000002 Hf
atom 3.7129857700000000 4.9960717900000002 9.6903251800000003 Hf
atom 6.5760448800000004 0.1530748600000000 0.8831240500000000 Hf
atom 6.5250527500000004 0.2319486100000000 6.0931026800000003 Hf
atom 6.5366715500000003 2.3632905499999999 3.4767236300000000 Hf
atom 6.4629375400000004 2.4786427700000000 8.8170834100000004 La
atom 8.8277162400000009 2.7659771399999999 0.8412680700000000 Hf
atom 8.8166439099999998 2.8225883199999999 6.1148409199999998 Hf
atom 8.7403971499999997 4.9903724599999997 3.5527389399999998 Hf
atom 8.8594470399999992 5.0290043500000001 8.7459148300000003 Hf
atom 0.4435139200000000 2.0651005499999999 0.9205136100000000 O
atom 0.3536951700000000 1.7857227099999999 6.2168668399999998 O
atom 0.2213032700000000 0.9058361900000000 3.6882839000000001 O
atom 0.3815994600000000 0.8736694800000000 8.8258779700000005 O
atom 4.8293398300000003 4.2650438399999997 0.9250055000000000 O
atom 4.7852631199999998 4.2777348499999999 6.1397341499999998 O
atom 4.8192601100000001 3.4424915100000000 3.5188054300000000 O
atom 4.4304563400000001 3.3652431200000001 8.7472834000000006 O
atom 2.8801142700000000 1.2654339699999999 3.1682306599999999 O
atom 2.8132516200000000 1.2487452200000000 8.3078422500000002 O
atom 2.9261163600000000 1.3235486299999999 0.3739036700000000 O
atom 2.7643304500000001 1.2629790599999999 5.7078031100000004 O
atom 2.4056956299999999 3.7459803100000002 3.1535497200000000 O
atom 2.1732284599999998 3.8667359000000001 8.2870361799999994 O
atom 2.5142674899999999 3.7719991700000000 0.3464742500000000 O
atom 2.2983362100000000 3.8960295399999998 5.7096171299999998 O
atom 5.4998113100000001 1.7107780699999999 1.7072953000000000 O
atom 5.3381103699999999 1.6789992899999999 6.8448987399999996 O
atom 5.4683880499999997 0.7987013100000000 4.3159830699999997 O
atom 5.5561624399999996 0.5191774900000000 9.6123712599999998 O
atom 9.5482445200000008 4.3952217600000001 1.7841613500000000 O
atom 9.9361138800000006 4.3161902599999999 7.0127940999999998 O
atom 9.9001500500000006 3.4810668400000000 4.3922417300000003 O
atom 9.9426949800000006 3.4936317099999998 9.6074334500000003 O
atom 8.0406462600000008 1.2531319999999999 10.1599328900000003 O
atom 7.8804252300000002 1.3146216300000000 4.8258524800000000 O
atom 7.9304478600000001 1.3290900900000000 2.2264927100000000 O
atom 7.9956143099999997 1.3114557499999999 7.3664306699999997 O
atom 7.6287893699999998 3.9934803200000002 10.1850008800000005 O
atom 7.4147160699999999 3.8699950699999999 4.8221430300000003 O
atom 7.2894066899999999 3.9005903499999999 2.2450464200000000 O
atom 7.5213726300000001 4.0200080800000002 7.3778573200000004 O
