lattice_vector 10.1126891499999996 -0.0061194800000000 0.7583998000000000 
lattice_vector 0.0299418900000000 10.3211723299999996 -0.0469682400000000 
lattice_vector 0.9123246400000000 -0.0511046300000000 10.4909326800000002 
atom 1.2613571200000000 0.2274567300000000 1.7106642599999999 Si
atom 2.0331025700000001 0.2081731900000000 6.8067682700000001 Hf
atom 1.5541473699999999 5.3968138000000003 1.6335212100000001 Hf
atom 2.0672755100000000 5.3473842200000004 6.8415845700000002 Hf
atom 6.5359186700000000 0.2188239500000000 2.0099765800000000 Hf
atom 7.0972032399999998 0.0648042900000000 7.0647666100000004 Hf
atom 6.5891047399999998 5.3743104500000003 2.0280889300000000 Hf
atom 7.0905295400000004 5.3734296800000001 7.2588234099999998 Hf
atom 1.7321208600000000 2.2774985600000002 4.1665804499999997 Hf
atom 2.2328985100000001 2.4492667500000000 9.3669218700000005 Hf
atom 1.8129777400000000 7.4458468199999999 4.2621461500000004 Hf
atom 2.2424472099999999 7.5110679300000003 9.4718071500000001 Hf
atom 6.8443169399999997 2.3149691699999999 4.6204892800000001 Hf
atom 7.3441416300000002 2.5796896299999998 10.0110119700000002 Hf
atom 6.8327871399999998 7.4620738299999996 4.6016159099999996 Hf
atom 7.2986855000000004 7.4811291700000000 9.9057785099999993 Hf
atom 3.6718614199999999 2.7403943499999999 1.3125096400000000 Hf
atom 4.2651490699999997 2.8208544400000002 6.5527455699999999 Hf
atom 3.7308255300000002 7.9529769300000002 1.4085506699999999 Hf
atom 4.2478791999999999 7.9621283299999996 6.6132170700000001 Hf
atom 8.9058013400000000 2.7248697700000002 1.8308851799999999 Hf
atom 9.2722459900000000 2.7838775700000000 6.9756691399999999 Hf
atom 8.8454285000000006 7.9252754300000001 1.7413606600000000 Hf
atom 9.3213472500000005 7.8999124399999996 6.9587442900000003 Hf
atom 3.9969049299999999 4.8648743600000000 3.9540788400000002 Hf
atom 4.4650508000000002 4.9899985600000001 9.2304085300000001 Hf
atom 3.9737933999999999 10.0222574499999997 3.9040634299999999 Hf
atom 4.5883771299999996 10.2586784000000009 9.3602918200000005 La
atom 9.0607972100000005 4.9079882300000000 4.3707979500000000 Hf
atom 9.5759608699999994 4.9555406299999998 9.6216769299999996 Hf
atom 9.0771013600000003 10.0068539100000002 4.3070788100000001 Hf
atom 9.5257390999999991 10.1585337899999999 9.6187288599999992 La
atom 0.4576715300000000 1.5000921700000001 0.8565292100000000 O
atom 0.8090577799999999 1.6206713200000000 5.9769169199999999 O
atom 0.4646887000000000 6.8706324800000003 0.8867600300000000 O
atom 0.9239079600000000 6.8252400299999998 6.0994249700000003 O
atom 5.2433648399999999 1.3857376600000000 0.7838162300000000 O
atom 5.9325857299999996 1.6215837500000001 6.4034703400000001 O
atom 5.4722082399999996 6.8181572199999998 1.2602644900000000 O
atom 5.9815806399999998 6.8596052399999996 6.4430261299999998 O
atom 0.6605046500000000 0.7494396200000000 3.3212477900000001 O
atom 1.2462127500000000 0.9734728499999999 8.5461423399999994 O
atom 0.7042373800000000 5.9254789700000003 3.5075545099999998 O
atom 1.2153841500000000 5.9610130400000001 8.7045042400000003 O
atom 5.5908198100000002 0.9904831400000000 3.6833408900000002 O
atom 5.7181539900000002 5.9675240499999997 3.8397379500000000 O
atom 6.2328724199999996 5.9702680199999998 9.0790465800000000 O
atom 4.9425963499999996 4.1546246199999999 2.1609606900000000 O
atom 5.3870739900000002 4.2609779899999998 7.4183229099999997 O
atom 4.9095568199999997 9.3934392800000008 2.1624543799999998 O
atom 5.4104371999999996 9.4644245799999993 7.2831711900000000 O
atom 9.9943529000000009 4.2406022800000001 2.5832508100000000 O
atom 10.4665350999999998 4.2033712599999999 7.8016911400000000 O
atom 10.0065814100000008 9.4805186199999998 2.4797305900000000 O
atom 10.4413142800000003 9.4113210699999996 7.5860519899999996 O
atom 5.1685118599999997 3.4470689200000000 4.7796006499999999 O
atom 5.5834321700000000 3.4550971599999998 10.0182852699999998 O
atom 5.1631543999999998 8.6149679399999997 4.7518155499999999 O
atom 5.5425402200000002 8.4049918300000002 10.1031466900000009 O
atom 10.1335831800000005 3.3718138799999999 5.1688061899999997 O
atom 10.5942397800000006 3.3978034300000002 10.4977456900000004 O
atom 10.1793419899999993 8.4813711800000000 5.0744446700000001 O
atom 10.6098278500000003 8.3759365999999993 10.4336972499999998 O
atom 2.7581830300000001 1.1308187599999999 2.4371630099999999 O
atom 3.4807864400000001 1.4134979200000000 7.7759286899999998 O
atom 3.0543763700000000 6.3826866100000004 2.7127594700000000 O
atom 3.5411102900000002 6.4664818400000001 7.9425745499999998 O
atom 8.0664105799999994 1.2529135000000000 3.1590053400000002 O
atom 7.9554058000000003 1.3683583200000000 8.4136370399999993 O
atom 8.0977679600000005 6.4391492299999999 3.1095875199999998 O
atom 8.6117071000000003 6.4526279799999999 8.3562457499999994 O
atom 3.1984373900000000 1.2278538400000001 5.1896734899999997 O
atom 3.6496078299999999 1.6357722600000000 10.4060353299999999 O
atom 3.3064880400000001 6.3545441299999998 5.3401050799999998 O
atom 3.7068505799999998 6.4876610000000001 10.5749472299999994 O
atom 8.3398795700000008 1.1793494099999999 5.7137702399999997 O
atom 8.6019848900000007 1.3937850599999999 11.1721317700000000 O
atom 8.3215765600000005 6.3540395600000004 5.7172596000000002 O
atom 8.7807259299999991 6.3604067100000004 10.9890840300000008 O
atom 2.3317339300000000 4.0760524399999998 0.2651345800000000 O
atom 2.7511922400000000 3.8616879900000001 5.4738443600000002 O
atom 2.1753574599999999 9.4472271699999997 0.5899543100000000 O
atom 2.8082984799999999 9.0205111700000007 5.4995527600000003 O
atom 7.3888223100000001 3.9762825799999999 0.6778292400000000 O
atom 7.8115018100000002 3.8609213900000001 5.9170563700000001 O
atom 7.2678952499999996 9.0119141999999997 0.7288034200000000 O
atom 7.8694172699999996 8.9864580400000005 5.7818963300000004 O
atom 2.5453108699999998 3.7112120300000000 2.8814137099999999 O
atom 3.0315907800000002 3.8831042500000001 8.1108884099999994 O
atom 2.5828884400000001 8.8338065199999996 2.9800901400000002 O
atom 2.9509146899999998 8.9369203600000002 8.1118215199999995 O
atom 7.6237188900000001 3.7609868500000001 3.2827870699999999 O
atom 8.1229694099999996 3.8642939200000002 8.5392474699999994 O
atom 7.6128244000000000 8.9530543399999996 3.2441395700000002 O
atom 7.8841370800000004 8.8899792299999998 8.3799952199999996 O
