lattice_vector 10.0991592400000005 0.0456640300000000 0.7899683300000000 
lattice_vector 0.0521541600000000 10.2367252600000000 0.0066548200000000 
lattice_vector 0.8547878700000000 -0.0231876400000000 10.4375983300000001 
atom 1.3911846900000000 0.0419874000000000 1.8207569600000000 Si
atom 1.9211446299999999 0.2132660800000000 6.8307509700000004 Hf
atom 1.5671198300000000 5.3648915700000002 1.6495811199999999 Hf
atom 1.9879103000000000 5.3231282599999998 6.8448763200000000 Hf
atom 6.4426855600000001 0.1730994000000000 2.1247410900000001 Hf
atom 7.0006422199999996 0.2306029500000000 7.2569527899999997 Hf
atom 6.6105050099999998 5.3220044399999997 2.0198208400000000 Hf
atom 7.0292544799999996 5.3461518500000000 7.2591475200000000 Hf
atom 1.7223553500000000 2.3141425600000001 4.1577165400000000 Hf
atom 2.2969726700000002 2.2574855100000000 9.4335886599999998 Hf
atom 1.7535725000000000 7.4542824000000003 4.2692819799999997 Hf
atom 2.1855973500000001 7.4675938200000003 9.4558223899999998 Hf
atom 6.7689188700000003 2.3628149600000001 4.6574456399999997 Hf
atom 7.2004166400000003 2.4237160800000002 9.8150934000000003 Hf
atom 6.7873083599999999 7.4614801599999998 4.6368523200000000 Hf
atom 7.2334816799999997 7.4591918100000001 9.8855727800000004 Hf
atom 3.7471035300000000 2.7372177199999999 1.3501229299999999 Hf
atom 4.1625143099999997 2.8002782200000000 6.5747145099999997 Hf
atom 3.7058634200000000 7.9417640699999996 1.3740810000000001 Hf
atom 4.2056197099999997 7.9083321800000004 6.6173531600000004 Hf
atom 9.0044273500000003 2.6162191799999999 1.8608485600000000 La
atom 9.2309306000000007 2.8027694599999999 6.9814846900000003 Hf
atom 8.8459602000000004 7.9458414800000003 1.7842807000000001 Hf
atom 9.2191821399999991 7.8810514100000004 7.0049486200000004 Hf
atom 3.9729031300000002 4.9111178799999999 3.9692922600000000 Hf
atom 4.3984507900000001 4.9287657700000000 9.2021677600000000 Hf
atom 3.9065740600000001 10.0247159999999997 3.9918222100000000 Hf
atom 4.4606659000000004 10.0670388299999995 9.2276611000000006 Hf
atom 9.0129043299999996 4.9542827500000000 4.3844416900000001 Hf
atom 9.4993015799999991 4.8873918800000000 9.6206296600000005 Hf
atom 9.0187315300000002 10.0175510400000007 4.4161000000000001 Hf
atom 9.4930930399999998 10.0078371399999995 9.5424656700000003 Hf
atom 0.8714263600000000 1.3339551300000001 0.8156869600000000 O
atom 0.8231504900000000 1.6535219299999999 5.9759158699999997 O
atom 0.5043802900000000 6.9092472000000003 0.8854975600000000 O
atom 0.8828268700000000 6.8322887500000000 6.0969310700000001 O
atom 5.6212216699999997 1.7477278400000000 1.2196242200000000 O
atom 5.8937970300000000 1.7246499799999999 6.4683481699999996 O
atom 5.4978746400000000 6.8678174199999997 1.2515468999999999 O
atom 5.9206735400000001 6.8406844500000004 6.4582207599999997 O
atom 0.6247726300000001 0.7948249300000000 3.3042590999999999 O
atom 1.0301900799999999 0.8518639700000000 8.6439111400000002 O
atom 0.7019301500000000 5.9283974099999996 3.5326610500000002 O
atom 1.1138597600000000 5.9725665299999999 8.6878947800000006 O
atom 5.5157611500000003 0.9220684800000000 3.8587838099999998 O
atom 6.1881695499999996 0.8334501900000000 9.0637379199999994 O
atom 5.6943460600000000 5.9805580000000003 3.8434689600000000 O
atom 6.1258490300000004 6.0177711399999998 9.0574623200000008 O
atom 4.8659155399999996 4.2704631300000004 2.1594797400000001 O
atom 5.3044436700000004 4.2725625699999998 7.3939053000000001 O
atom 4.8342995799999997 9.3406826600000006 2.2417576299999999 O
atom 5.3210250800000001 9.4050500800000005 7.3871686299999997 O
atom 9.9316990300000008 4.4869405499999999 2.5752164400000002 O
atom 10.3503483999999997 4.3080897399999998 7.7426924599999998 O
atom 10.0168702199999995 9.4430746800000005 2.5787100900000000 O
atom 10.3499894700000006 9.3943836699999999 7.7780260999999999 O
atom 5.0577632100000001 3.4408700900000002 4.7942100200000004 O
atom 5.5679485700000004 3.5135480600000002 10.0151731500000007 O
atom 5.0623494600000001 8.5430704300000002 4.7767986400000000 O
atom 5.4881826900000004 8.5404340899999998 10.0324780400000009 O
atom 10.0737185500000006 3.3693639599999998 5.0892852299999998 O
atom 10.7110044400000000 3.4435673100000002 10.3063116400000006 O
atom 10.1184407600000004 8.5325792299999996 5.1964346199999998 O
atom 10.5623080900000001 8.5448944099999995 10.3974042600000001 O
atom 2.8685465400000001 1.1713022900000001 2.5465561299999999 O
atom 3.3933884600000002 1.2903020199999999 7.8492542199999997 O
atom 3.0248021399999998 6.4920389800000002 2.7453102100000000 O
atom 3.4527957300000001 6.4435330300000002 7.9427858300000000 O
atom 7.8682156000000001 1.1826947100000000 3.2415699199999999 O
atom 8.5108978499999992 1.3585657499999999 8.3862184899999992 O
atom 8.0699577999999992 6.4658642799999999 3.1269952499999998 O
atom 8.5028055100000000 6.4412111100000002 8.3635307099999991 O
atom 3.1696539499999998 1.2607525200000000 5.2736993500000002 O
atom 4.0018872200000004 1.4737728600000000 10.2813689099999994 O
atom 3.2411958599999999 6.3560235399999998 5.3500738700000001 O
atom 3.6656914899999999 6.4192681800000004 10.5471967800000002 O
atom 8.2712463500000002 1.2488459999999999 5.7651401800000004 O
atom 8.2751507499999999 6.3812492900000004 5.7474772099999996 O
atom 8.7393629399999995 6.4062944699999997 10.9660174200000000 O
atom 2.3141869800000001 3.9283651100000001 0.2873745500000000 O
atom 2.6771993599999999 3.8719520599999999 5.4700468000000004 O
atom 2.2966804900000000 9.3043861799999998 0.4661085000000000 O
atom 2.7148981100000000 8.9959982299999997 5.5178789100000003 O
atom 7.3536227299999997 3.9239645300000001 0.6075027400000000 O
atom 7.7619927899999999 3.8920100099999999 5.9163776099999996 O
atom 7.3914794500000003 9.1753153699999999 0.6861796600000000 O
atom 7.7596951299999999 9.0050028999999991 5.9057365300000004 O
atom 2.5242130100000000 3.7567072100000001 2.8727192000000001 O
atom 2.9771989400000001 3.7906176700000001 8.0944128099999997 O
atom 2.3373544100000001 8.9864683900000006 2.8717478800000000 O
atom 2.9597845000000000 8.9247174699999992 8.1623664100000006 O
atom 7.4985354299999996 3.8541335200000000 3.3725922100000001 O
atom 8.0065591999999999 3.8322112900000000 8.4850733599999995 O
atom 7.6037826099999997 8.8976543800000005 3.2985959600000001 O
atom 7.9951167400000003 8.9117264200000008 8.5132370399999999 O
