lattice_vector 10.0448920000000008 -0.0076040000000000 0.0222580000000000 
lattice_vector 0.0003350000000000 10.4218370000000000 -0.0049860000000000 
lattice_vector -0.0191690000000000 0.0012770000000000 10.0901639999999997 
atom 1.2254440000000000 0.0651250000000000 1.2237600000000000 La
atom 1.3347329999999999 0.1669810000000000 6.3056880000000000 Hf
atom 1.3332349999999999 5.3913919999999997 1.2651939999999999 Hf
atom 1.3488590000000000 5.3884639999999999 6.3181640000000003 Hf
atom 6.3886260000000004 0.1698470000000000 1.2468509999999999 Hf
atom 6.3998929999999996 0.1790310000000000 6.3953220000000002 Hf
atom 6.3523589999999999 5.3711820000000001 1.2965990000000001 Hf
atom 6.3582979999999996 5.3622100000000001 6.3430080000000002 Hf
atom 1.3135049999999999 2.4903759999999999 3.8069649999999999 Hf
atom 1.3311990000000000 2.4566759999999999 8.7901039999999995 Hf
atom 1.3632770000000001 7.6276099999999998 3.8243819999999999 Hf
atom 1.3426840000000000 7.6465360000000002 8.8241790000000009 Hf
atom 6.3997799999999998 2.4530439999999998 3.8293699999999999 Hf
atom 6.3547180000000001 2.4439329999999999 8.8462219999999991 Hf
atom 6.3685549999999997 7.6024659999999997 3.8497430000000001 Hf
atom 6.3776180000000000 7.6082369999999999 8.8228109999999997 Hf
atom 3.6341320000000001 2.7939569999999998 1.2838160000000001 Hf
atom 3.6645040000000000 2.7755619999999999 6.3292349999999997 Hf
atom 3.7197920000000000 7.9051790000000004 1.1913959999999999 Hf
atom 3.6640600000000001 7.9805630000000001 6.3345940000000001 Hf
atom 8.6362039999999993 2.8027880000000001 1.2868240000000000 Hf
atom 8.7104630000000007 2.8010250000000001 6.3567260000000001 Hf
atom 8.6265570000000000 7.9556680000000002 1.3122290000000001 Hf
atom 8.7092620000000007 7.9719150000000001 6.3149839999999999 Hf
atom 3.6626650000000001 5.0328970000000002 3.7957339999999999 Hf
atom 3.6617790000000001 5.0276839999999998 8.8442679999999996 Hf
atom 3.7687680000000001 10.3472100000000005 3.7245770000000000 La
atom 3.7009759999999998 10.2528629999999996 8.8146480000000000 Hf
atom 8.6906350000000003 5.0501329999999998 3.8300619999999999 Hf
atom 8.6923399999999997 5.0362710000000002 8.8690990000000003 Hf
atom 8.6343320000000006 10.2541829999999994 3.8660079999999999 Hf
atom 8.6659570000000006 10.2246439999999996 8.8263079999999992 Hf
atom 0.1990660000000000 2.0630280000000001 2.0876150000000000 O
atom 0.3717770000000000 1.9599169999999999 6.9383800000000004 O
atom 0.3294610000000000 7.1504539999999999 1.9730620000000001 O
atom 0.3587330000000000 7.1394820000000001 7.0115619999999996 O
atom 5.3048450000000003 1.8363179999999999 2.0514440000000000 O
atom 5.3713179999999996 1.9246529999999999 7.0492119999999998 O
atom 5.3679910000000000 7.0743570000000000 2.0320800000000001 O
atom 5.3739010000000000 7.0814310000000003 7.0345009999999997 O
atom 0.3529660000000000 0.6608350000000000 4.4258920000000002 O
atom 0.2891150000000000 0.7770210000000000 9.2701329999999995 O
atom 0.3404580000000000 5.9110259999999997 4.5181259999999996 O
atom 0.3150810000000000 5.9452160000000003 9.5385340000000003 O
atom 5.6238549999999998 0.7352030000000001 4.6156069999999998 O
atom 5.4254650000000000 0.6824970000000000 9.4800240000000002 O
atom 5.3952010000000001 5.8222160000000001 4.5093430000000003 O
atom 5.3309170000000003 5.9045860000000001 9.5971790000000006 O
atom 4.6710260000000003 4.4844419999999996 1.9916840000000000 O
atom 4.6676529999999996 4.5090079999999997 7.0425829999999996 O
atom 4.6606949999999996 9.6735659999999992 1.6135790000000001 O
atom 4.6665630000000000 9.7398790000000002 6.9805830000000002 O
atom 9.6536740000000005 4.5774010000000001 1.9995760000000000 O
atom 9.7047380000000008 4.5334890000000003 7.0772069999999996 O
atom 9.3545189999999998 9.7055039999999995 2.0391590000000002 O
atom 9.6564530000000008 9.7251949999999994 7.0055839999999998 O
atom 4.6379180000000000 3.2459250000000002 4.4977140000000002 O
atom 4.6682589999999999 3.3086110000000000 9.5509579999999996 O
atom 4.7324409999999997 8.3735820000000007 4.6150399999999996 O
atom 4.6834590000000000 8.4571810000000003 9.4074770000000001 O
atom 9.6744050000000001 3.3571049999999998 4.5588129999999998 O
atom 9.6820699999999995 3.3246190000000002 9.5860170000000000 O
atom 9.6547269999999994 8.4851600000000005 4.4897039999999997 O
atom 9.7503910000000005 8.5783769999999997 9.6598319999999998 O
atom 2.6306669999999999 1.4760759999999999 2.4923139999999999 O
atom 2.7183039999999998 1.2156199999999999 7.5505920000000000 O
atom 2.6971850000000002 6.3675420000000003 2.5081460000000000 O
atom 2.7017259999999998 6.4277850000000001 7.5676959999999998 O
atom 7.6766880000000004 1.2458330000000000 2.5709830000000000 O
atom 7.7435219999999996 1.2406610000000000 7.6098439999999998 O
atom 7.7264549999999996 6.4249950000000000 2.5425700000000000 O
atom 7.7402540000000002 6.4146720000000004 7.5763949999999998 O
atom 2.5723500000000001 1.4881949999999999 5.1258169999999996 O
atom 2.7549530000000000 1.4326170000000000 9.9924700000000009 O
atom 2.7319410000000000 6.5708440000000001 5.0469720000000002 O
atom 2.6762120000000000 6.5448680000000001 10.0657969999999999 O
atom 7.8307450000000003 1.4090300000000000 5.1007840000000000 O
atom 7.7262860000000000 1.3795980000000001 10.1194500000000005 O
atom 7.7351710000000002 6.5671210000000002 5.0728799999999996 O
atom 7.7037240000000002 6.5694070000000000 10.1014040000000005 O
atom 2.3173490000000001 4.0311789999999998 5.0482969999999998 O
atom 2.2865150000000001 3.9972690000000002 10.0860050000000001 O
atom 2.1995700000000000 9.1024799999999999 5.0993500000000003 O
atom 2.4152730000000000 9.0802770000000006 9.9659139999999997 O
atom 7.3223549999999999 3.9834790000000000 5.0678479999999997 O
atom 7.2924889999999998 3.9991360000000000 10.0970709999999997 O
atom 7.3367599999999999 9.1796889999999998 5.1098830000000000 O
atom 7.3166609999999999 9.1566050000000008 10.0991890000000009 O
atom 2.2582939999999998 3.9013900000000001 2.5245050000000000 O
atom 2.3136109999999999 3.8394740000000001 7.5551199999999996 O
atom 2.3956700000000000 8.8079929999999997 2.4955530000000001 O
atom 2.2987890000000002 9.0597200000000004 7.5504270000000000 O
atom 7.3151679999999999 3.8510460000000002 2.5399680000000000 O
atom 7.3324049999999996 3.8338239999999999 7.5884299999999998 O
atom 7.1566520000000002 9.0314789999999991 2.5663299999999998 O
atom 7.3477769999999998 9.0091230000000007 7.5930280000000003 O
