lattice_vector 10.0242279300000003 0.0614888100000000 0.1278791400000000 
lattice_vector 0.0431946500000000 10.3822474899999992 -0.0449386100000000 
lattice_vector 0.0782205700000000 -0.0799915500000000 10.0745252000000001 
atom 0.9384951100000000 0.1269914700000000 0.9492270900000001 Si
atom 1.3481103600000000 0.1335774600000000 6.3723259600000004 Hf
atom 1.4317801200000000 5.4430659700000001 1.3385724400000001 Hf
atom 1.4433012700000001 5.3347818299999998 6.2232825299999996 Hf
atom 6.3467479000000004 0.1966989100000000 1.3143375700000000 Hf
atom 6.3246409600000000 0.1579842700000000 6.3466995199999996 Hf
atom 6.4189032299999997 5.3519077199999998 1.3050287100000000 Hf
atom 6.3867575900000002 5.3300896800000004 6.2910935500000003 Hf
atom 1.5262394500000001 2.3075125700000001 3.7550079099999998 Hf
atom 1.6693388800000000 2.3011971600000001 8.7790290300000002 Hf
atom 1.4479977399999999 7.6340007900000000 3.8101865500000001 Hf
atom 1.4324243900000000 7.5701502400000003 8.8683919800000002 Hf
atom 6.4079008000000002 2.4480732500000002 3.8045717400000001 Hf
atom 6.4073626700000004 2.4116319300000000 8.8611645800000005 Hf
atom 6.4373122800000004 7.6298514199999996 3.8078299499999999 Hf
atom 6.3464441899999997 7.5975192800000002 8.8669717600000002 Hf
atom 3.7175045400000002 2.7629999900000000 1.3209138000000000 Hf
atom 3.7787934200000000 2.7672597900000002 6.2858422200000001 Hf
atom 3.7303942999999999 7.9831851800000004 1.3913060300000000 Hf
atom 3.7305083799999998 7.9620617800000000 6.3664023399999996 Hf
atom 8.8665955299999997 2.6434120200000000 1.4165212899999999 La
atom 8.7517307899999999 2.6846223500000002 6.2606155499999998 Hf
atom 8.7562083899999994 7.9508372700000001 1.2937973599999999 Hf
atom 8.7334613300000008 7.9488081099999999 6.3550159099999997 Hf
atom 3.7468084300000002 5.0246181999999999 3.7857439700000000 Hf
atom 3.7464389900000001 5.0125270500000001 8.8443017000000008 Hf
atom 3.7443214600000001 10.2056102400000004 3.8276218499999999 Hf
atom 3.7582207099999998 10.1758821299999997 8.9350637299999995 Hf
atom 8.7693797700000005 5.0506487399999997 3.8334602300000000 Hf
atom 8.8551509799999994 5.1139755700000000 8.7573116700000000 La
atom 8.7710461199999994 10.2153864199999997 3.8667493500000001 Hf
atom 8.6605936999999997 10.1662865999999994 8.8137819999999998 Hf
atom 0.8643063300000000 1.4593411999999999 1.9542913700000000 O
atom 0.3347305200000000 1.8358490000000001 7.2522237499999997 O
atom 0.4301052400000000 7.1791208099999997 2.0212074699999998 O
atom 0.3035646700000000 6.9243545500000003 7.1275629100000000 O
atom 5.5207853199999999 2.0130116400000002 1.9172091800000000 O
atom 5.3877211200000001 1.8840700300000000 7.0543727900000004 O
atom 5.3985803099999998 7.1018140499999998 2.0551382500000002 O
atom 5.3430385200000003 7.0505364799999999 7.0814657199999997 O
atom 0.3372198500000000 0.6957382000000000 4.6304035900000002 O
atom 0.3175530900000000 0.7942238200000000 9.6624388700000008 O
atom 0.4511711400000000 5.8627655699999996 4.4508839800000004 O
atom 0.5375964500000000 5.9514031899999997 9.7078231200000005 O
atom 5.3831891599999997 0.7302129600000000 4.5752880200000003 O
atom 5.3905400900000000 0.6689469500000000 9.5934543199999993 O
atom 5.4396012300000001 5.8815779299999997 4.5081891000000001 O
atom 5.4306447100000002 5.8379049600000004 9.5497143900000001 O
atom 4.6652117300000002 4.5328235899999996 1.9643327300000000 O
atom 4.7013466199999998 4.5039974500000000 7.0278176999999999 O
atom 4.7901088900000000 9.6914721400000001 2.0499158199999998 O
atom 4.7253296300000001 9.6717765399999998 7.1098480700000000 O
atom 9.7538228900000004 4.6574651999999999 2.0093682600000000 O
atom 9.8101225900000006 4.3664788400000001 6.7336314799999997 O
atom 9.7864920600000005 9.7744236600000001 1.8500289500000000 O
atom 9.7461974300000005 9.6504632600000004 7.0749724699999996 O
atom 4.7519957300000000 3.3218391800000000 4.5444971199999999 O
atom 4.6498983999999997 3.2482573600000002 9.4867718199999995 O
atom 4.7869914400000004 8.5002404100000000 4.6181928100000000 O
atom 4.6324789800000001 8.4612007499999997 9.6123793699999993 O
atom 9.6965048800000009 3.2004866100000000 4.2587007999999997 O
atom 9.7575930700000004 8.5247831099999996 4.5846328500000002 O
atom 9.7246634200000006 8.5223217499999997 9.5478127599999993 O
atom 3.1726032700000002 1.4324352000000000 2.7713191500000001 O
atom 2.8023723800000000 1.1719317800000000 7.6162840899999997 O
atom 2.7875597100000000 6.4242134999999996 2.5720382399999999 O
atom 2.7197898800000000 6.3836851699999997 7.5886559900000004 O
atom 7.6817302400000003 1.1052779200000000 2.6396935400000001 O
atom 7.7337982399999996 1.1636742000000000 7.5423969900000003 O
atom 7.7931175000000001 6.4158933300000003 2.5417415700000001 O
atom 7.6390393000000003 6.4785863499999996 7.5057797600000002 O
atom 2.6942186700000001 1.3361063700000000 5.1736588799999996 O
atom 2.8044413499999998 1.3031225500000001 10.1352488600000008 O
atom 2.8001863000000000 6.5616193100000002 5.0678355100000001 O
atom 2.8607616000000000 6.5800891100000003 10.1243270699999997 O
atom 7.7347351599999996 1.3564191500000000 5.0531316100000003 O
atom 7.7310301299999997 1.2626749900000001 10.0242583500000002 O
atom 7.7848784899999997 6.5852436499999998 5.0516865700000002 O
atom 7.6789957400000004 6.6412887600000001 10.1582440199999997 O
atom 2.3942391000000001 3.9353315900000001 5.0015012299999997 O
atom 2.2458773500000002 3.8972404400000000 10.0441991700000006 O
atom 2.3598658299999999 9.1448462399999997 5.1345893399999998 O
atom 2.1459501200000002 9.3004701599999997 10.2825659599999994 O
atom 7.4283056500000004 3.9641197600000000 5.0681145799999996 O
atom 7.3520475100000002 3.8568533999999999 10.0960783999999997 O
atom 7.4126768299999997 9.1791671899999994 5.0673673499999996 O
atom 7.3539737199999999 9.1196433199999998 10.0779593799999994 O
atom 2.3272754299999998 3.8365856599999999 2.5107454900000001 O
atom 2.3777256900000001 3.7682367999999999 7.5274820699999996 O
atom 2.5046411100000001 8.9587648899999994 2.6783952700000002 O
atom 2.3673527499999998 9.0003684899999996 7.6634756199999998 O
atom 7.2893274200000002 3.9264834000000000 2.6313121499999998 O
atom 7.3635268199999997 3.6943238799999998 7.4830183200000002 O
atom 7.4859465500000004 8.9779520000000002 2.5511122099999999 O
atom 7.3636108299999998 8.9889956400000006 7.5834298400000000 O
