lattice_vector 10.0201504700000008 0.0250877900000000 0.7151100500000001 
lattice_vector 0.0249253600000000 10.2018299100000007 -0.0361187700000000 
lattice_vector 0.8266953600000000 -0.0407299600000000 10.3824335399999992 
atom 1.3408535300000000 0.1434003700000000 1.8746946000000000 Si
atom 1.9168406499999999 0.1980980600000000 6.8139560399999999 Hf
atom 1.5697336300000000 5.2828368699999997 1.6242026199999999 Hf
atom 1.9553639800000000 5.2806409199999997 6.7848659299999996 Hf
atom 6.4487965799999998 0.2739870100000000 1.9459823999999999 Hf
atom 6.9272497800000004 0.1896378800000000 7.1505180599999996 Hf
atom 6.4522980299999997 5.2666409600000001 1.8978359199999999 Hf
atom 6.9535622200000002 5.3164809000000002 7.1273908900000000 Hf
atom 1.7133058200000000 2.2885543899999998 4.1113118200000001 Hf
atom 2.2337223499999999 2.2480502300000000 9.4944433299999993 Hf
atom 1.7119949699999999 7.4109033699999998 4.1913056600000003 Hf
atom 2.1219046200000000 7.4396113300000000 9.3807972900000003 Hf
atom 6.7168795299999999 2.3365780599999999 4.5478459800000000 Hf
atom 7.2874863400000001 2.3159892599999998 9.6955630199999998 Hf
atom 6.6763437400000001 7.3999600299999999 4.4894806000000003 Hf
atom 7.1390490299999998 7.4402634499999998 9.7562791799999999 Hf
atom 4.0411913799999999 2.8834009400000000 0.8218441700000000 Si
atom 4.1205679499999999 2.7505036999999999 6.5468541599999996 Hf
atom 3.6313538900000002 7.9460177300000003 1.3307151200000000 Hf
atom 4.1322650100000002 7.8753938500000000 6.5119741400000004 Hf
atom 8.8296764599999999 2.7048928200000000 1.7391597900000000 Hf
atom 9.1591435099999998 2.7553666300000001 6.8500619800000004 Hf
atom 8.7455387899999995 7.8856864199999999 1.6973871199999999 Hf
atom 9.1264623900000004 7.8437802000000003 6.8714794599999998 Hf
atom 3.8528194400000002 4.8013543500000004 3.9002109800000002 Hf
atom 4.3453643199999998 4.9423542600000001 9.0989698499999996 Hf
atom 3.8564639800000000 10.0145158500000004 3.8539003500000000 Hf
atom 4.3809280199999998 10.0651830600000007 9.1797821000000006 Hf
atom 8.9149039499999994 4.8869732900000002 4.2562361099999997 Hf
atom 9.3998776999999993 4.8572925299999996 9.5046292500000007 Hf
atom 8.8859344399999998 9.9531319699999994 4.2722677500000001 Hf
atom 9.3801470499999997 9.9691283599999991 9.4559673800000006 Hf
atom 0.6192510200000000 1.4880873200000000 0.9195706000000000 O
atom 0.8294620100000000 1.6450701599999999 5.9688466699999996 O
atom 0.4480702300000000 6.8152198899999998 0.8401858600000000 O
atom 0.8370389100000000 6.7668307099999998 6.0287156800000004 O
atom 5.3842496400000002 1.8263377199999999 1.1348681000000000 O
atom 5.8545991099999997 1.7125447100000000 6.3976861400000002 O
atom 5.3784774899999999 6.8066478600000000 1.1672810199999999 O
atom 5.8388374799999996 6.7969338800000001 6.3249752099999998 O
atom 0.5588153200000000 0.7610358600000000 3.3696007899999998 O
atom 1.0581244299999999 0.8266650200000000 8.6443088499999998 O
atom 0.5984366600000000 5.9427026700000001 3.4114850900000002 O
atom 1.0814052100000000 5.9200211800000000 8.6324803800000005 O
atom 5.5887133100000002 0.8497064900000000 3.7659115999999999 O
atom 6.1463566199999997 0.8033094900000000 9.0046723800000006 O
atom 5.6084802900000001 5.8486088499999997 3.6991433699999998 O
atom 6.0586443900000004 5.9790201900000000 8.9219511399999991 O
atom 4.6499289199999998 4.0719498400000003 1.9562316500000001 O
atom 5.2130840899999997 4.2746757000000004 7.2822267199999997 O
atom 4.7958304600000004 9.3714197499999994 2.0757746899999998 O
atom 5.2134212199999999 9.3745712799999996 7.2909880200000003 O
atom 9.8560110299999995 4.2480581900000001 2.4609682500000001 O
atom 10.2673182999999995 4.2222423700000000 7.6848004400000001 O
atom 9.9196433699999993 9.3834707300000009 2.4559505399999999 O
atom 10.2505873300000001 9.3372740299999997 7.6519053200000000 O
atom 4.9963243000000004 3.3699156200000000 4.7027906300000000 O
atom 5.6135113600000004 3.4857491800000000 9.8318400799999992 O
atom 4.9548561600000003 8.4525672099999998 4.6272070300000001 O
atom 5.3520076999999997 8.4681465800000009 9.8893481800000007 O
atom 9.9733099400000000 3.3444021500000001 5.0178438800000000 O
atom 10.5616052000000007 3.3753891999999999 10.3530247800000001 O
atom 9.9934865899999998 8.4774435300000004 5.0629303500000002 O
atom 10.4106595399999993 8.4587829400000007 10.2492912999999994 O
atom 2.7112674100000000 1.0964178800000000 2.5797666499999998 O
atom 3.3866259699999999 1.2889696200000000 7.8917519100000000 O
atom 2.9818288000000002 6.4380821499999996 2.6781523800000002 O
atom 3.3986587199999998 6.4174755499999998 7.8584777399999997 O
atom 7.9560973700000002 1.2912806800000001 3.0379320100000000 O
atom 8.4538553800000003 1.3000748700000000 8.2130345400000007 O
atom 7.9400826100000002 6.3905254700000000 2.9902909400000000 O
atom 8.4252574500000001 6.3926129999999999 8.2377167199999999 O
atom 3.1902600699999999 1.2363212400000001 5.2544119100000000 O
atom 3.9970787699999999 1.5710568600000001 10.3958237800000006 O
atom 3.1755234899999998 6.2824349300000000 5.2639632499999998 O
atom 3.5749610900000000 6.3784509900000002 10.4492574000000005 O
atom 8.1710213700000001 1.2079264300000001 5.6358183999999998 O
atom 8.6273663999999997 1.2121749300000000 10.8470712400000000 O
atom 8.1762433699999999 6.3261506699999996 5.6084706899999999 O
atom 8.5802203499999994 6.3008699899999998 10.8223077199999995 O
atom 2.5630052399999999 3.8724689900000002 0.3766218400000000 O
atom 2.6569798200000001 3.8115063299999998 5.4842521700000004 O
atom 2.2223135500000000 9.3874677399999999 0.4262830800000000 O
atom 2.6563568800000001 8.9553487900000004 5.4355564899999997 O
atom 7.3670537899999999 3.8419089300000002 0.6112661400000000 O
atom 7.6645312399999996 3.8609801799999999 5.7868358600000001 O
atom 7.2550000199999998 9.0077659000000008 0.5976152300000001 O
atom 7.6339011299999999 8.9300297900000007 5.7700257800000001 O
atom 2.3075215999999998 3.8520420199999998 2.9785729900000000 O
atom 2.9021141899999998 3.7619980900000001 8.1207167099999999 O
atom 2.3121536499999999 8.8878343199999996 2.8120021400000001 O
atom 2.9006450199999998 8.8880847799999998 8.0952101699999996 O
atom 7.4798194899999997 3.7490940199999998 3.1676251500000001 O
atom 7.9295671800000003 3.7827004899999999 8.3809611200000003 O
atom 7.4760987600000002 8.8788481299999997 3.1581506099999999 O
atom 7.8930361800000002 8.8666982799999996 8.3797311000000008 O
