lattice_vector 10.0427599999999995 0.0065420000000000 -0.0018960000000000 
lattice_vector -0.0046680000000000 10.2239629999999995 -0.0039690000000000 
lattice_vector -0.0022610000000000 0.0063510000000000 10.0427230000000005 
atom 1.2561180000000001 0.0009310000000000 1.2562869999999999 Si
atom 1.2538360000000000 0.0037780000000000 6.2772470000000000 Hf
atom 1.2526560000000000 5.1115979999999999 1.2530490000000001 Hf
atom 1.2526489999999999 5.1146050000000001 6.2732539999999997 Hf
atom 6.2772470000000000 0.0040140000000000 1.2540549999999999 Hf
atom 6.2770999999999999 0.0071190000000000 6.2772720000000000 Hf
atom 6.2729889999999999 5.1149500000000003 1.2532930000000000 Hf
atom 6.2741749999999996 5.1183319999999997 6.2746240000000002 La
atom 1.2904050000000000 2.5816830000000000 3.7668680000000001 Hf
atom 1.2152320000000001 2.5857410000000001 8.7847240000000006 Hf
atom 1.2154110000000000 7.6449530000000001 3.7651840000000001 Hf
atom 1.2890860000000000 7.6471320000000000 8.7821020000000001 Hf
atom 6.2829240000000004 2.5187010000000001 3.7341750000000000 Hf
atom 6.2684080000000000 2.5221680000000002 8.8164169999999995 Hf
atom 6.2665319999999998 7.7150730000000003 3.7334269999999998 Hf
atom 6.2787400000000000 7.7172390000000002 8.8153520000000007 Hf
atom 3.7667959999999998 2.5817950000000001 1.2906110000000000 Hf
atom 3.7336380000000000 2.5187529999999998 6.2830740000000000 Hf
atom 3.7648130000000002 7.6448039999999997 1.2158510000000000 Hf
atom 3.7327830000000000 7.7149270000000003 6.2670349999999999 Hf
atom 8.7846340000000005 2.5859679999999998 1.2156460000000000 Hf
atom 8.8160989999999995 2.5222530000000001 6.2688069999999998 Hf
atom 8.7818550000000002 7.6472860000000003 1.2897940000000001 Hf
atom 8.8146059999999995 7.7172570000000000 6.2795199999999998 Hf
atom 3.7338079999999998 0.0234880000000000 3.7338019999999998 Hf
atom 3.7323050000000002 -0.0139160000000000 8.8194130000000008 Hf
atom 3.7625769999999998 5.1448850000000004 3.7630680000000001 Hf
atom 3.7618049999999998 5.0882529999999999 8.7851689999999998 Hf
atom 8.8193769999999994 -0.0138460000000000 3.7327249999999998 Hf
atom 8.8200520000000004 0.0282320000000000 8.8204820000000002 Hf
atom 8.7848500000000005 5.0885569999999998 3.7624379999999999 Hf
atom 8.7839880000000008 5.1560439999999996 8.7847460000000002 Hf
atom -0.2626140000000000 1.6371350000000000 -0.2625350000000000 O
atom -0.0620700000000000 1.4895670000000001 4.8278889999999999 O
atom 0.0493790000000000 6.6926829999999997 0.0497270000000000 O
atom 0.0824630000000000 6.6289119999999997 5.1036960000000002 O
atom 4.8276969999999997 1.4897560000000001 -0.0619870000000000 O
atom 4.9834360000000002 1.4694550000000000 4.9836939999999998 O
atom 5.1033650000000002 6.6289939999999996 0.0831580000000000 O
atom 4.9689589999999999 6.6888649999999998 4.9694989999999999 O
atom 0.2487490000000000 0.8871780000000000 2.2640400000000001 O
atom -0.0059180000000000 1.0564860000000000 7.4017220000000004 O
atom -0.0214620000000000 6.1027410000000000 2.5224270000000000 O
atom -0.0148080000000000 6.1598069999999998 7.5593550000000000 O
atom 5.1530870000000002 1.0568299999999999 2.5138620000000000 O
atom 5.0350190000000001 1.0341080000000000 7.5147279999999999 O
atom 4.9845439999999996 6.1596399999999996 2.5175410000000000 O
atom 4.8868140000000002 6.3347579999999999 7.6592979999999997 O
atom 0.0534680000000000 3.5304289999999998 2.4536159999999998 O
atom 0.0862220000000000 3.5988030000000002 7.4421299999999997 O
atom -0.2670750000000000 8.5853260000000002 2.7708740000000001 O
atom -0.0657670000000000 8.7382349999999995 7.7239000000000004 O
atom 5.1059200000000002 3.5986189999999998 2.4223669999999999 O
atom 4.9710599999999996 3.5464880000000001 7.5789320000000000 O
atom 4.8220789999999996 8.7379829999999998 2.5688520000000001 O
atom 4.9801929999999999 8.7669440000000005 7.5652949999999999 O
atom -0.0186560000000000 4.1193410000000004 -0.0186450000000000 O
atom -0.0122340000000000 4.0682609999999997 4.9861870000000001 O
atom 0.2443540000000000 9.3376959999999993 0.2454880000000000 O
atom -0.0076420000000000 9.1703150000000004 5.1501760000000001 O
atom 4.9862370000000000 4.0683900000000000 -0.0118170000000000 O
atom 4.8888179999999997 3.9006880000000002 4.8892910000000001 O
atom 5.1494980000000004 9.1705830000000006 -0.0068470000000000 O
atom 5.0339289999999997 9.2009109999999996 5.0346229999999998 O
atom 2.7734109999999998 1.6413610000000001 2.7735740000000000 O
atom 2.5695280000000000 1.4935440000000000 7.7265940000000004 O
atom 2.4501870000000001 6.6952249999999998 2.4506130000000002 O
atom 2.4190399999999999 6.6326630000000000 7.4404750000000002 O
atom 7.7266430000000001 1.4938009999999999 2.5700820000000002 O
atom 7.5656249999999998 1.4722860000000000 7.5658960000000004 O
atom 7.4401469999999996 6.6328750000000003 2.4198580000000001 O
atom 7.5761909999999997 6.6926319999999997 7.5769359999999999 O
atom 2.2637849999999999 0.8870570000000000 0.2487470000000000 O
atom 2.5137489999999998 1.0565690000000001 5.1531349999999998 O
atom 2.5219920000000000 6.1027779999999998 -0.0211620000000000 O
atom 2.5168279999999998 6.1595310000000003 4.9849220000000001 O
atom 7.4017369999999998 1.0568480000000000 -0.0055220000000000 O
atom 7.5147690000000003 1.0342709999999999 5.0355129999999999 O
atom 7.5589050000000002 6.1600359999999998 -0.0142750000000000 O
atom 7.6585200000000002 6.3347680000000004 4.8875320000000002 O
atom 2.4536090000000002 3.5303920000000000 0.0535280000000000 O
atom 2.4218970000000000 3.5986080000000000 5.1059789999999996 O
atom 2.7701319999999998 8.5854199999999992 -0.2661150000000000 O
atom 2.5683980000000002 8.7378520000000002 4.8225949999999997 O
atom 7.4420539999999997 3.5990739999999999 0.0866410000000000 O
atom 7.5786140000000000 3.5466340000000001 4.9715800000000003 O
atom 7.7232609999999999 8.7385289999999998 -0.0646400000000000 O
atom 7.5646610000000001 8.7669650000000008 4.9810590000000001 O
atom 2.5246870000000001 4.1226859999999999 2.5248360000000001 O
atom 2.5194000000000001 4.0720280000000004 7.5614160000000004 O
atom 2.2587210000000000 9.3388880000000007 2.2594829999999999 O
atom 2.5094740000000000 9.1744289999999999 7.3967989999999997 O
atom 7.5611940000000004 4.0721569999999998 2.5199069999999999 O
atom 7.6615489999999999 3.9044420000000000 7.6620429999999997 O
atom 7.3961230000000002 9.1747040000000002 2.5104590000000000 O
atom 7.5113209999999997 9.2037650000000006 7.5122790000000004 O
