lattice_vector 10.0564967099999993 0.0056569000000000 -0.0164345900000000 
lattice_vector -0.0024792700000000 10.4467205100000005 0.0044872700000000 
lattice_vector -0.0501209800000000 -0.0702524600000000 5.0228571899999999 
atom 1.2216805799999999 0.0522779900000000 1.2353472700000001 La
atom 1.3028469400000000 5.3641205100000002 1.2455291600000000 Hf
atom 6.3549140599999996 0.1435596300000000 1.2777830800000001 Hf
atom 6.3563635300000003 5.3834012400000004 1.2536018400000000 Hf
atom 1.2439574600000001 2.4656468999999999 3.7602631299999998 Hf
atom 1.3262920400000000 7.5906088199999999 3.8003744799999999 Hf
atom 6.3690813999999998 2.3809271399999998 3.7711070300000000 Hf
atom 6.3500062699999997 7.5901343399999996 3.7956883200000000 Hf
atom 3.7461457500000002 2.8238217400000001 1.1299357200000000 Hf
atom 3.6830054900000002 7.9366444800000000 1.2618440300000000 Hf
atom 8.6784151099999995 2.8111675500000000 1.2741186099999999 Hf
atom 8.6560732599999994 7.9694326400000000 1.2968829799999999 Hf
atom 3.6493599900000002 4.9938746700000003 3.7395998200000000 Hf
atom 3.7295267800000000 10.1366234399999993 3.8141821500000002 Hf
atom 8.6554583800000007 5.0215344899999996 3.7857311299999998 Hf
atom 8.6053204000000001 10.2032777400000008 3.7991778799999998 Hf
atom 0.3542878300000000 2.0986965700000000 1.9208921500000000 O
atom 0.3501164700000000 7.1496875800000002 1.9716623300000000 O
atom 5.3135676500000004 1.8781319800000000 1.9793378600000000 O
atom 5.3578353800000000 7.0928200300000004 1.9921952100000000 O
atom 0.2883410800000000 0.7002224400000000 4.1456470100000002 O
atom 0.2941869400000000 5.8804891300000000 4.4975283199999998 O
atom 5.3979081999999998 0.6383680600000000 4.4709773999999998 O
atom 5.3276046600000004 5.8609145199999997 4.4834637199999996 O
atom 4.6738299100000003 4.5180779400000004 1.9277026500000001 O
atom 4.6019599199999996 9.7785550099999998 1.9393533300000001 O
atom 9.6669435000000004 4.5803688500000002 1.9904652800000000 O
atom 9.4053992500000003 9.6759975199999992 2.0310742099999999 O
atom 4.6758399199999996 3.2835230300000000 4.4289488099999996 O
atom 4.7221586100000001 8.4850656900000008 4.5323686800000003 O
atom 9.6393670399999998 3.3056541300000002 4.5012559500000000 O
atom 9.7332913600000008 8.5419336799999996 4.5825845100000002 O
atom 2.6588092900000002 6.3328227600000000 2.4941771400000001 O
atom 7.6903088100000003 1.2155456000000000 2.5248276100000000 O
atom 7.7176520499999999 6.4234906399999998 2.5103229300000001 O
atom 2.7554563800000000 1.3524708900000000 4.8231717099999996 O
atom 2.6796811699999998 6.5011410100000004 5.0120412099999996 O
atom 7.7096092100000000 1.3252480000000000 5.0509838599999997 O
atom 7.6900137700000002 6.5215947099999996 5.0148830899999997 O
atom 2.2706414000000001 3.9660058999999999 4.9815734400000000 O
atom 2.4017038500000001 9.0238294000000003 4.9665148600000002 O
atom 7.2899635299999996 3.9372653000000000 5.0212003799999998 O
atom 7.2977313900000000 9.1173615600000009 5.0685139200000000 O
atom 2.3735740900000000 3.6915943699999998 2.4686160500000001 O
atom 2.4184437700000001 8.8945875200000000 2.5739946599999999 O
atom 7.3066654000000000 3.8206510499999999 2.5166251800000001 O
atom 7.1732659700000001 9.0213879899999991 2.5535383500000002 O
