lattice_vector 9.9741480899999999 0.0375043800000000 -0.1911040800000000 
lattice_vector 0.0670334500000000 10.1863247500000007 0.1025572100000000 
lattice_vector -0.1063969700000000 0.0276567500000000 10.4185690599999994 
atom 1.0445934800000001 0.2651340600000000 2.2065790800000000 Si
atom 1.2602415600000001 0.2618873100000000 6.8594712800000002 Hf
atom 1.5220191900000000 5.3476210000000002 1.7389496200000001 Hf
atom 1.3254335699999999 5.3192526500000001 7.0366550400000003 Hf
atom 1.2412607700000000 2.4811853600000000 4.3314716100000004 Hf
atom 1.4024113100000000 2.2804505599999998 9.5864728199999991 Hf
atom 1.2830574100000001 7.4172436599999996 4.4033840900000003 Hf
atom 1.4093994299999999 7.4994639999999997 9.6005494999999996 Hf
atom 3.5903198800000000 2.7302121800000001 1.7081283400000000 Hf
atom 3.5211524800000000 2.7902487499999999 6.9283949900000001 Hf
atom 3.6328886499999999 7.9347111400000001 1.7414496699999999 Hf
atom 3.5661722700000000 7.8875214600000003 6.9539588099999996 Hf
atom 3.5636796400000001 4.9115312800000002 4.3784230600000003 Hf
atom 3.5877750599999998 4.8955157299999996 9.5714002199999992 Hf
atom 3.5689437499999999 10.0337733500000006 4.3457521000000003 Hf
atom 3.5865608600000001 10.0112099800000003 9.5837685599999993 Hf
atom 6.3911129300000002 0.2326027300000000 0.6911394600000000 Hf
atom 6.2600295299999997 0.2766251400000000 5.9165974600000002 Hf
atom 6.4525279099999997 5.2972012800000003 0.8259945200000000 Hf
atom 6.3285550099999996 5.3473794999999997 6.0067582599999998 Hf
atom 6.3644523199999998 2.4142369100000001 3.3610813700000000 Hf
atom 6.3267519300000004 2.3819778100000000 8.5595724999999998 Hf
atom 6.3887886399999996 7.3958741999999997 3.4306193399999998 Hf
atom 6.3489348699999999 7.4711446099999996 8.6366177999999998 Hf
atom 8.7131782999999992 2.6631378300000002 0.7378829800000000 Hf
atom 8.4457182000000000 2.8915657900000000 5.9017087300000002 Hf
atom 8.7387416800000004 7.9135286699999998 0.7686567000000000 Hf
atom 8.5057419799999998 7.8591063500000002 5.9899607300000000 Hf
atom 8.9097976100000000 4.8795341900000002 2.8631556599999999 Si
atom 8.5879414599999997 4.9100608299999999 8.6283175100000005 Hf
atom 8.4992343300000002 9.9828958300000004 3.4332745700000000 Hf
atom 8.5897936500000007 10.0395277400000005 8.5538676700000007 Hf
atom 0.5699665300000000 1.4901244300000001 1.0593526499999999 O
atom 0.2240490500000000 1.8150805200000000 6.0033023700000001 O
atom 0.4792154400000000 6.8587780399999998 0.9551819300000000 O
atom 0.2942652500000000 6.8093084399999997 6.1437662099999999 O
atom 0.2291238900000000 0.8339082900000000 3.5721377799999998 O
atom 0.2823469500000000 0.8730773700000000 8.6416028199999992 O
atom 0.2502246400000000 5.8711169099999996 3.4634172300000001 O
atom 0.3344389900000000 5.9274493399999999 8.8032311100000005 O
atom 4.7191991499999997 4.2497912299999996 0.8730670800000000 O
atom 4.5249729299999997 4.3360171699999999 6.0999747199999996 O
atom 4.7777410500000004 9.3542731700000008 0.8823402800000000 O
atom 4.5812318999999997 9.4164474600000005 6.0764635299999998 O
atom 4.5902273800000000 3.3931295200000000 3.4529160399999999 O
atom 4.6037429500000000 3.4140380800000001 8.6452472100000008 O
atom 4.6041237700000002 8.5125910900000008 3.4814270800000000 O
atom 4.6191548700000000 8.5089527999999994 8.6748073600000009 O
atom 2.4686007800000001 1.2641916200000001 2.8592803800000000 O
atom 2.6700848399999999 1.2536999000000000 8.1171586300000005 O
atom 2.7034606200000000 6.4595861299999999 3.0666312200000001 O
atom 2.7405488999999998 6.3731591099999996 8.2670636399999999 O
atom 3.0437069100000000 1.4339316600000001 0.2174113400000000 O
atom 2.6475232100000001 1.3701548900000000 5.5027208400000003 O
atom 2.8829395000000000 6.3785826400000003 0.4558485900000000 O
atom 2.6869253500000001 6.4089846799999997 5.6637714099999998 O
atom 2.2046788799999999 3.8593715199999998 3.0566300200000001 O
atom 2.1782642700000001 3.7947381299999998 8.2815972999999996 O
atom 2.0924103299999999 9.0914688300000002 2.9427539000000000 O
atom 2.1792640099999998 8.9233737400000006 8.2070031399999994 O
atom 2.2611533200000000 3.8673976900000002 0.4462307500000000 O
atom 2.1000803800000001 3.8812164000000000 5.6487582200000004 O
atom 2.4061765099999999 8.9036513399999997 0.3671301100000000 O
atom 2.1652255100000000 8.9667912800000007 5.5893440300000004 O
atom 5.3643466899999996 1.7513348500000001 1.6164966800000000 O
atom 5.2441916700000002 1.7580831600000000 6.8426551599999996 O
atom 5.4171828800000004 6.8182052600000000 1.6904168100000001 O
atom 5.2958352299999998 6.8494368000000003 6.9159543299999999 O
atom 5.2351453799999996 0.8945752600000000 4.1962489400000003 O
atom 5.3232151800000000 0.8361323500000000 9.3878941200000003 O
atom 5.2438805400000001 5.9765347499999999 4.2897897499999997 O
atom 5.3336376899999998 5.9421984200000004 9.5139213100000006 O
atom 9.7250022699999992 4.3105171899999997 1.4973774399999999 O
atom 9.5657953300000003 4.2991834600000001 6.8465580499999996 O
atom 9.7713288299999999 9.4594494099999995 1.7092232599999999 O
atom 9.5803838500000005 9.4312193900000008 6.7872941999999998 O
atom 9.3848530599999993 3.6541324999999998 4.0100890099999997 O
atom 9.6241921000000001 3.3570526100000002 9.4850055599999994 O
atom 9.5424773900000002 8.4721021600000004 4.2168141600000002 O
atom 9.6208339200000008 8.5493809600000006 9.4468770299999996 O
atom 7.7479141199999999 1.2910578900000000 9.8392981099999997 O
atom 7.6931339300000001 1.2770996699999999 4.6232626699999999 O
atom 7.7496886199999997 6.3920129399999999 10.0014637499999992 O
atom 7.6156572599999999 6.4267622800000002 4.8047472400000002 O
atom 7.7499339999999997 1.2850823300000001 2.0131603100000000 O
atom 7.6696892400000003 1.3773542400000001 7.2065076200000000 O
atom 7.9286577999999999 6.2396282899999997 2.2295929900000000 O
atom 7.7358117300000000 6.4351393400000001 7.3835605099999997 O
atom 7.2006486900000004 3.8020743800000001 9.9852429199999992 O
atom 6.9111540400000004 3.7104829200000000 4.8518012700000002 O
atom 7.2283184900000004 8.9498321700000005 9.9268402400000006 O
atom 7.1383246400000004 8.9517099699999996 4.7163024199999999 O
atom 7.4857526600000002 3.8805329999999998 2.2099740600000000 O
atom 7.1780181299999999 3.9184887800000001 7.3706347200000000 O
atom 7.3178793999999998 8.8711881300000002 2.1051569600000000 O
atom 7.1744965100000000 8.9855918700000004 7.3233203199999997 O
