lattice_vector 10.1704695300000001 0.0007692400000000 0.0591544900000000 
lattice_vector 0.0014301200000000 10.3621171299999997 -0.0484955300000000 
lattice_vector -0.0296417900000000 -0.0255314800000000 5.2578983199999998 
atom 1.1705691899999999 0.0295061500000000 1.6203907700000000 La
atom 1.4079603599999999 5.4133849600000001 1.7417991700000000 Hf
atom 1.3930183100000000 2.3861723399999999 4.3267374199999997 Hf
atom 1.3570893200000000 7.5799116399999997 4.3933907100000003 Hf
atom 3.5697794200000001 2.7706333800000000 1.6522528700000001 Hf
atom 3.7041841099999999 7.9312665300000003 1.7628914899999999 Hf
atom 3.6076854100000002 4.9831233900000003 4.3162870299999998 Hf
atom 3.6598311400000001 10.1024355499999992 4.3545159900000003 Hf
atom 6.4966167600000002 0.1791225300000000 0.9651479200000000 Hf
atom 6.4613170499999999 5.3472527899999998 0.8493573900000000 Hf
atom 6.2447585900000000 2.5363752300000000 3.6688291099999999 La
atom 6.4837303500000001 7.5141684800000004 3.5015641300000002 Hf
atom 8.7636754099999994 2.8258135000000002 0.9150385100000000 Hf
atom 8.7118944400000000 7.9449256799999999 0.9527522899999999 Hf
atom 8.7796561000000004 4.9972362099999996 3.5071472199999998 Hf
atom 8.6448430999999992 10.1575704099999999 3.6164829799999998 Hf
atom 0.4263529700000000 2.0350806800000001 0.9070661000000000 O
atom 0.2716454000000000 6.7958027400000001 0.7423026800000000 O
atom 0.2184534900000000 0.9021918100000000 3.6497536099999999 O
atom 0.2750772900000000 6.1708383800000002 3.3979479100000001 O
atom 4.9125177100000004 3.9536475599999998 0.3397368900000000 O
atom 4.7828709500000004 9.4221305399999995 0.8860216500000000 O
atom 4.6442339400000003 3.9986313700000000 2.8896278999999998 O
atom 4.7626034900000001 8.5860019899999998 3.4723994999999999 O
atom 2.8807522300000001 1.3370441000000000 3.0390220999999999 O
atom 2.7434083899999999 6.4518802300000004 3.0353623999999999 O
atom 2.8451460800000001 1.3356938300000001 0.2705394200000000 O
atom 2.7547436699999999 6.4606091000000001 0.4048422900000000 O
atom 2.1714451600000002 3.8561532600000001 3.0244842099999998 O
atom 2.3556701300000000 8.9665046999999998 3.0650315300000002 O
atom 2.3273624000000002 3.9534770300000002 0.3893832600000000 O
atom 2.4922140399999999 8.9183363300000007 0.3342862100000000 O
atom 5.3155482500000000 1.6631009299999999 1.6294804100000000 O
atom 5.3695723500000003 6.7568750499999997 1.8323704300000001 O
atom 5.4918567800000000 0.5304940900000000 4.3733181099999996 O
atom 5.3360366299999997 6.1314612999999998 4.4877765700000003 O
atom 9.8573314500000002 4.3419856200000000 1.8099682100000001 O
atom 9.7332139600000005 8.9305063300000000 2.3903009499999999 O
atom 9.8482007100000004 3.5065069200000001 4.3967906799999996 O
atom 9.9720560200000001 8.9739395799999997 4.9431369800000002 O
atom 7.9032867800000002 1.2303090000000001 5.0383575499999997 O
atom 7.8146243200000001 6.4673031800000000 4.8545430500000002 O
atom 7.9708815000000000 1.2285554900000000 2.2702913400000000 O
atom 7.8336894700000004 6.4760290700000001 2.2234898799999998 O
atom 7.5514802500000000 4.0094059299999998 4.9212240400000002 O
atom 7.3876789900000004 8.9741853099999993 4.8644417200000003 O
atom 7.4459803200000003 3.9613877999999998 2.1895410800000001 O
atom 7.2616442200000000 9.0715491999999998 2.2279508500000000 O
