lattice_vector 10.1101865400000008 0.0595558200000000 0.7761938600000000 
lattice_vector 0.0353673400000000 10.3095058000000002 -0.0744819500000000 
lattice_vector 0.7899931300000000 -0.0905073600000000 10.4405726199999993 
atom 1.3257591300000000 0.0943653000000000 1.8095348800000000 Si
atom 1.8812274000000000 0.1538889900000000 6.7632883200000000 Hf
atom 1.5460338899999999 5.3775333999999999 1.6041414199999999 Hf
atom 1.8698693600000000 5.2437410000000000 6.7942448400000002 La
atom 6.5465326399999997 0.2637959500000000 2.0213178799999998 Hf
atom 7.0379768299999999 0.2268793800000000 7.2224988699999999 Hf
atom 6.5510168699999998 5.3852314799999998 1.9913532000000000 Hf
atom 6.9712531999999996 5.3595452699999999 7.2365334299999997 Hf
atom 1.7144657299999999 2.3267861299999999 4.1444934099999999 Hf
atom 2.1742744100000002 2.1701876400000000 9.4609020000000008 Hf
atom 1.7082598700000000 7.5232052200000004 4.1652876699999997 Hf
atom 2.0701276300000000 7.6754713299999997 9.4335661300000009 La
atom 6.7962361299999996 2.3847510700000001 4.5938594400000001 Hf
atom 7.2456705399999999 2.3218880400000002 9.8861302799999997 Hf
atom 6.8643808799999997 7.5032649700000000 4.5591629400000002 Hf
atom 7.1439613399999997 7.5065831000000003 9.8272664200000008 Hf
atom 3.7025082899999999 2.7371656500000001 1.3568208300000000 Hf
atom 4.1750775200000003 2.7385065599999998 6.5426532100000001 Hf
atom 3.7030161399999999 8.0168315700000008 1.3077971100000001 Hf
atom 4.3037218499999996 8.1064912400000004 6.2775762899999998 Hf
atom 8.9226129400000005 2.7502176800000000 1.7875562599999999 Hf
atom 9.1481211099999999 2.7662977099999999 6.9592781800000001 Hf
atom 8.7626917300000002 7.9740516699999997 1.7569684400000001 Hf
atom 9.1792119999999997 7.9422910800000004 6.9397843400000001 Hf
atom 3.9758502600000001 4.9339382499999997 3.9408161800000001 Hf
atom 4.4337029299999999 4.7464764900000000 9.3025769300000007 Hf
atom 3.9056413399999999 10.1446474299999991 3.7797675900000001 Hf
atom 4.4432802699999998 10.1398373100000008 9.0637592700000003 Hf
atom 9.0308658000000008 4.9325634100000002 4.3554964700000003 Hf
atom 9.3906861500000005 4.8702180700000000 9.6549879399999998 Hf
atom 9.0203974999999996 10.0971814099999992 4.2884843699999999 Hf
atom 9.3857077300000000 10.0856663799999993 9.5151581299999997 Hf
atom 0.6360453200000000 1.4996295100000001 0.9299267900000000 O
atom 0.8460777900000001 1.7285927400000001 6.0435235900000004 O
atom 0.3880753600000000 6.9164619800000002 1.0607713999999999 O
atom 0.8847634000000000 7.1165566099999999 6.0594290600000003 O
atom 5.4984235600000000 1.7571679899999999 1.2309653700000001 O
atom 5.9423344699999996 1.7735456700000001 6.4652174799999997 O
atom 5.4430051500000003 6.9260308300000002 1.2058105500000000 O
atom 5.9071680400000002 6.9080170200000000 6.3856338900000003 O
atom 0.6674846700000000 0.6984753400000000 3.3804122400000001 O
atom 1.1059435300000000 0.5834238000000000 8.7106819099999999 O
atom 0.7183000600000000 5.8427641899999996 3.5667454300000001 O
atom 1.0191867200000000 5.7223738300000004 8.8816056499999991 O
atom 5.6177147800000000 0.9228379400000000 3.8100059200000000 O
atom 6.1656633599999999 0.8056471100000000 9.0695465399999993 O
atom 5.7077241499999998 6.0258610299999997 3.8093793800000002 O
atom 6.0093424400000002 6.0165185000000001 9.0083769300000007 O
atom 4.8415081200000003 4.3052033400000003 2.1408086900000001 O
atom 5.1453208300000002 4.3947629399999997 7.3343911300000002 O
atom 4.8400792399999997 9.4810171099999998 2.0590956500000002 O
atom 5.3647050800000002 9.5334958699999994 7.2323321600000003 O
atom 9.9521256400000002 4.3070919099999996 2.5332166400000000 O
atom 10.0278486200000003 4.3358959700000002 7.7483809299999997 O
atom 9.9812092900000007 9.5471596000000005 2.4270465500000000 O
atom 10.2408919100000002 9.5458205500000002 7.6403203099999999 O
atom 5.1314128400000003 3.4834091599999999 4.7632895700000004 O
atom 5.5631323500000001 3.4333731799999998 10.0803022500000008 O
atom 5.1519472799999999 8.6933552800000005 4.5907037900000001 O
atom 5.2948012400000000 8.4962612400000008 9.8862669099999998 O
atom 10.0664379999999998 3.3649985500000001 5.1078234000000000 O
atom 10.4995118099999996 3.2343694799999998 10.3831858500000003 O
atom 10.0281929200000004 8.5230857499999999 5.0007787500000003 O
atom 10.1433945600000008 8.4454400599999992 10.3161070800000001 O
atom 2.8076875100000001 1.1857122300000000 2.5042169200000002 O
atom 3.3503822200000002 1.2137903200000000 7.7987305899999999 O
atom 2.9922871799999999 6.5193077199999996 2.6856004800000002 O
atom 8.0517838600000005 1.3251856000000000 3.1100300299999999 O
atom 8.4868217700000006 1.3468479600000001 8.3467630199999991 O
atom 8.0583781800000001 6.4773894500000004 3.1000055400000002 O
atom 8.4107989900000000 6.4834770900000001 8.3403324300000001 O
atom 3.1932619400000002 1.2512301800000001 5.2123263199999998 O
atom 3.8686200799999999 1.4174887100000000 10.2706811099999999 O
atom 3.3204055900000000 6.4886475800000003 5.2717561899999996 O
atom 3.6327119500000000 6.2753369599999997 10.5259616200000004 O
atom 8.2592631700000005 1.2355023500000000 5.6978894200000001 O
atom 8.6723906799999995 1.1777356699999999 10.9718168600000006 O
atom 8.2642674899999999 6.3912797499999998 5.7073930900000001 O
atom 8.5636535899999995 6.3402520100000004 10.9502324800000004 O
atom 2.2835210300000002 3.8981251000000001 0.2961507800000000 O
atom 2.7841376699999998 3.7620143800000001 5.3376466499999999 O
atom 2.2558311000000000 9.5317250100000006 0.4165168000000000 O
atom 2.7104622699999998 9.1117363299999994 5.2670905499999998 O
atom 7.4176017600000002 3.9024762900000001 0.7176855100000000 O
atom 7.7378173600000002 3.9165910300000002 5.8703421100000002 O
atom 7.1766825699999997 9.1236255899999996 0.6343403000000000 O
atom 7.7545582000000000 9.0681232699999992 5.8084072200000003 O
atom 2.5088396999999998 3.7693929700000002 2.8518697199999998 O
atom 3.0306280900000000 3.6286193600000001 8.1894767399999999 O
atom 2.3460768200000000 9.0136470699999993 2.7489623200000000 O
atom 3.0864437300000001 8.8918604499999994 7.7854844500000002 O
atom 7.5896683700000001 3.8158133400000001 3.2571603100000002 O
atom 7.7950508500000000 3.7949198200000001 8.5184276600000004 O
atom 7.5871270199999996 8.9936114000000007 3.2120827099999998 O
atom 7.9223679499999999 8.9748264500000001 8.4375334199999994 O
