lattice_vector 5.0610574799999997 -0.0296976900000000 0.3956662500000000 
lattice_vector -0.0132183400000000 10.3213605000000008 -0.0474750500000000 
lattice_vector 0.8275887100000000 -0.0277916700000000 10.4268467900000008 
atom 1.3186218800000000 -0.0067116000000000 1.4798781500000000 La
atom 1.9417690900000000 0.2175038700000000 6.8618293299999999 Hf
atom 1.4739489500000000 5.3024630999999998 1.6150887700000001 Hf
atom 1.9237668999999999 5.3725842200000002 6.8041483500000002 Hf
atom 1.6764461300000000 2.3016416400000002 4.2069934699999996 Hf
atom 2.1324234099999999 2.3915704500000001 9.4186073300000004 Hf
atom 1.6964486599999999 7.4651295299999996 4.1943148600000004 Hf
atom 2.1827158799999999 7.5265751099999996 9.4103583000000004 Hf
atom 3.6771748799999999 2.7403484599999999 1.3418298900000001 Hf
atom 4.1463946500000004 2.7755415999999999 6.5667099699999998 Hf
atom 3.7373891499999998 7.7868620399999999 1.3455588100000000 Hf
atom 4.1441782399999996 7.9239293699999998 6.5287259100000004 Hf
atom 3.9010661999999998 4.8742324600000000 3.9542588200000002 Hf
atom 4.3633683300000001 4.9023729300000003 9.1502878200000008 Hf
atom 3.8375462200000001 10.1090816900000000 4.0227226099999998 Hf
atom 4.4133545099999996 10.0793292099999992 9.1505349000000002 Hf
atom 0.3935190900000000 1.9033085800000000 0.8006599100000000 O
atom 0.8108432000000000 1.7269460400000001 6.0818527800000002 O
atom 0.5150763100000000 6.9875233000000003 0.9101193700000000 O
atom 0.8151555600000000 6.8840075100000000 6.0174594700000004 O
atom 0.5459741600000000 0.7757069400000000 3.5531604300000001 O
atom 1.0735414599999999 0.8570827100000000 8.6561855500000000 O
atom 0.5930963600000000 5.9495527499999996 3.4524635400000001 O
atom 1.0065303299999999 6.0676027100000001 8.6440274899999991 O
atom 4.7510322800000004 4.3289301599999996 2.0959520500000002 O
atom 5.2389626600000003 4.3108821400000004 7.3160842300000004 O
atom 5.2894832599999999 9.3694456499999994 7.3847205400000000 O
atom 5.0024040599999999 3.3490591099999998 4.7156172900000000 O
atom 5.4361353100000001 3.4101195600000000 9.8953941800000003 O
atom 5.0336631199999999 8.5489899600000001 4.6753461200000004 O
atom 5.7444026299999997 8.8285220100000004 10.2604094000000003 O
atom 3.0226810999999998 1.3067899500000000 2.7698706799999999 O
atom 3.4288077399999999 1.3134133200000000 7.9134807800000004 O
atom 2.9481218299999998 6.3759729600000004 2.6967794399999998 O
atom 3.3980327199999998 6.4875309200000002 7.8928968700000004 O
atom 3.1399533200000000 1.2320221099999999 5.3620197799999998 O
atom 3.6374447700000001 1.2440758999999999 10.4425266899999993 O
atom 3.1712654699999998 6.3778541200000003 5.2918855699999998 O
atom 3.6241325799999999 6.3399321999999998 10.5188967600000005 O
atom 2.2535397800000001 3.9195681499999999 0.2367349200000000 O
atom 2.6527696600000001 3.8897124600000001 5.4644144099999998 O
atom 2.5402099900000001 8.8915899500000002 0.0996516500000000 O
atom 2.6509690899999998 9.0422020100000005 5.4645106900000000 O
atom 2.4036240200000001 3.7754893699999998 2.8526480699999999 O
atom 2.8751671999999999 3.8344568300000001 8.0559391100000006 O
atom 2.6668764299999999 8.8217605300000006 2.8430144199999998 O
atom 2.9024945799999999 8.9826824100000007 8.0392565600000001 O
