lattice_vector 10.0399775499999997 0.0485333200000000 -0.1038684200000000 
lattice_vector 0.0415955900000000 10.3005775100000001 -0.0538629600000000 
lattice_vector -0.1137258500000000 0.0194488500000000 5.2118171100000001 
atom 1.1768513199999999 0.0169176900000000 1.5489626999999999 La
atom 1.3602952100000001 5.4035008600000003 1.6475744600000000 Hf
atom 1.3232446499999999 2.3948104300000002 4.2694424499999997 Hf
atom 1.0499299900000001 7.6418484600000003 4.2020351099999997 Hf
atom 3.5686066900000002 2.7934727900000000 1.6816479300000000 Hf
atom 3.6897624200000001 7.8995102700000004 1.4891898500000000 Hf
atom 3.5042819800000000 4.9984922400000000 4.2874578400000001 Hf
atom 3.6758828800000001 10.2139591000000003 4.1991439599999998 Hf
atom 6.4253683500000003 0.2731729500000000 0.7986183200000000 Hf
atom 6.4102585999999997 5.3473965400000001 0.7078116200000000 Hf
atom 6.3685429100000004 2.4326368700000001 3.3350918500000000 Hf
atom 6.3113246299999997 7.5611282700000002 3.3548524799999999 Hf
atom 8.6752977100000006 2.8562956900000001 0.7232996100000000 Hf
atom 8.6005345400000000 7.9082030200000002 0.8742894800000000 Hf
atom 8.5917013600000001 4.9834939299999998 3.3166594100000002 Hf
atom 8.6084415399999994 10.1232572300000001 3.4899373499999999 Hf
atom 0.4095305200000000 1.9611209599999999 0.8737017700000000 O
atom 0.2907573500000000 6.8339977699999999 0.6691894200000000 O
atom 0.2376208500000000 0.8369556700000000 3.5755848399999999 O
atom 0.2736296700000000 5.9766539500000002 3.3990445100000000 O
atom 4.6646342499999998 4.3242601299999999 0.7595961300000000 O
atom 4.7638061799999996 9.4949638800000002 0.7385664000000000 O
atom 4.6346771699999998 3.4847243300000001 3.3876514700000002 O
atom 4.5820353699999998 8.6320149100000005 3.2707147700000001 O
atom 2.7436853700000001 1.3223332500000000 2.9673391800000002 O
atom 2.6012732399999998 6.6763839799999998 2.8860492099999999 O
atom 2.8655141700000000 1.3696990600000001 0.2850745000000000 O
atom 2.7263033100000000 6.4140259000000004 0.3056276500000000 O
atom 2.1986387000000001 3.9310550399999999 2.9585566900000000 O
atom 2.2352137500000002 3.9072229699999999 0.3557088000000000 O
atom 2.4719945399999999 8.8963281300000006 0.0022034800000000 O
atom 5.3626141799999996 1.7800063900000000 1.6213230599999999 O
atom 5.3780296900000000 6.8920676800000003 1.5754640000000000 O
atom 5.3780838099999997 0.8817237800000000 4.2152064600000001 O
atom 5.2460727399999998 6.0796089799999997 4.2150179400000001 O
atom 9.6036897900000007 4.4686425999999999 1.5178659299999999 O
atom 9.8294328199999992 8.6489968299999997 2.5367848099999999 O
atom 9.5761371200000003 3.4489747300000002 4.1178293899999998 O
atom 9.7006913699999995 9.1828997900000005 5.0090760899999998 O
atom 7.7079565099999998 1.3375173300000001 4.7419005800000003 O
atom 7.7150738099999998 6.4927272399999998 4.7001704599999998 O
atom 7.8458030000000001 1.3152247800000001 2.1147352000000001 O
atom 7.6855567000000002 6.4679083899999998 2.1082962900000002 O
atom 7.1752532000000002 3.9260449400000001 4.6381247700000001 O
atom 7.2003592100000002 8.9929518300000009 4.6950231999999996 O
atom 7.2373168200000002 3.8933275100000002 2.0370651199999998 O
atom 7.3124061600000001 9.1130773600000001 2.0889509500000001 O
