lattice_vector 10.0237319800000009 0.0679516300000000 0.7918718700000000 
lattice_vector 0.0849600600000000 10.1562659699999998 -0.0255154900000000 
lattice_vector 0.8517043500000000 -0.0123655300000000 10.4469994699999997 
atom 1.3200278999999999 0.1659359100000000 1.8107329900000000 Si
atom 1.9183747900000001 0.1854780500000000 6.8181533600000002 Hf
atom 1.6004729900000001 5.3376093999999998 1.6617931600000000 Hf
atom 1.9979511599999999 5.1882539100000002 6.7996018600000001 Hf
atom 6.5295786199999997 0.2792309400000000 2.0312775900000002 Hf
atom 6.9365009000000004 0.2744596500000000 7.2207884699999996 Hf
atom 6.5679731900000000 5.3569677899999997 1.9795537700000001 Hf
atom 6.9976482300000002 5.3183798800000002 7.2517328000000001 Hf
atom 1.7611147500000000 2.3292117999999999 4.2004850700000000 Hf
atom 2.2195469299999999 2.2811960400000002 9.4665820699999994 Hf
atom 1.8513820100000000 7.3134109000000000 4.2214834899999998 Hf
atom 2.1696941299999999 7.3807406100000001 9.3939152400000001 Hf
atom 6.6632738399999996 2.4223346399999999 4.5915775900000000 Hf
atom 7.1947194799999998 2.3855865800000000 9.8745026199999995 Hf
atom 6.7773846899999999 7.4121528200000002 4.6089809700000002 Hf
atom 7.2087815600000003 7.4702785000000000 9.8464777300000002 Hf
atom 3.7194445300000001 2.7774443600000001 1.4070259500000000 Hf
atom 4.1127494899999997 2.8107319500000001 6.5895494299999999 Hf
atom 3.7125506399999999 7.9509607899999999 1.3570573800000001 Hf
atom 4.2468278599999998 7.8689755799999999 6.6327389500000002 Hf
atom 8.8429641700000001 2.7503179000000002 1.8081448600000001 Hf
atom 9.1611326200000001 2.7761977199999999 6.9720097599999997 Hf
atom 8.8107987199999993 7.9174820300000004 1.7633719400000001 Hf
atom 9.2318746199999993 7.8470213700000002 6.9729045000000003 Hf
atom 4.1626097700000004 4.9337708800000000 3.8010272999999999 Si
atom 4.4134103800000002 4.9076453700000000 9.2354916500000002 Hf
atom 3.9649295800000002 9.9269955200000002 3.9191293599999999 Hf
atom 4.4191395099999999 10.0617332000000008 9.2277453000000005 Hf
atom 8.9742243800000008 4.8944338700000003 4.3670385100000004 Hf
atom 9.4195421600000007 4.8864267100000003 9.6251171299999996 Hf
atom 9.0201453300000001 9.9729334699999992 4.3930168800000002 Hf
atom 9.4428178500000008 9.9994840099999998 9.5683184600000004 Hf
atom 0.5922154700000000 1.4654071399999999 0.8688273900000000 O
atom 0.7322945400000000 1.4985937499999999 5.9107867499999998 O
atom 0.4647364400000000 6.7394435300000000 0.7968491500000000 O
atom 0.9521349099999999 6.6948510900000002 6.0087527300000003 O
atom 5.4475179899999997 1.7391055499999999 1.2155657600000001 O
atom 5.7992707399999999 1.7125097100000000 6.3433464700000002 O
atom 5.4536342900000001 6.8238995100000004 1.1842134400000000 O
atom 5.9022991700000000 6.7627171199999996 6.3918179300000002 O
atom 0.6423450900000000 0.7905658000000000 3.3286597599999999 O
atom 1.0332087200000000 0.8845652000000001 8.6051378399999994 O
atom 0.6386715900000000 5.9579031599999999 3.3981866799999998 O
atom 1.0986006300000000 5.9183290199999998 8.6313953500000000 O
atom 5.5346723600000001 0.9805030600000000 3.7674559900000002 O
atom 6.0829387099999996 0.9456754300000000 9.0106584999999999 O
atom 5.5843952999999997 5.9535419300000001 3.8080025100000001 O
atom 6.0769876299999996 6.0549552599999998 8.9956105700000002 O
atom 4.8373845500000003 4.3155394200000003 2.2795919200000001 O
atom 5.2989726499999996 4.2082376799999999 7.4491690699999999 O
atom 4.9245597700000001 9.3057281599999992 2.1822024700000000 O
atom 5.3179353699999998 9.3316823899999992 7.3951357700000004 O
atom 9.9701831799999994 4.1930307899999999 2.6320361499999998 O
atom 10.2734546400000006 4.2154055899999996 7.8354010299999999 O
atom 10.0039997799999991 9.3746087599999992 2.5658368899999999 O
atom 10.3636902299999996 9.2625600899999991 7.8238748400000002 O
atom 4.8897848799999997 3.6381768800000001 4.7401427800000002 O
atom 5.6003314399999997 3.5958146400000000 10.1436059299999997 O
atom 5.0990236299999996 8.5215835999999996 4.7821852299999996 O
atom 5.4651610699999997 8.5546026600000005 10.0173500600000001 O
atom 10.0570270199999996 3.4356998399999998 5.1839593500000003 O
atom 10.5574023199999996 3.4487074799999999 10.5033587500000003 O
atom 10.1344270699999992 8.5063797900000004 5.1882949800000002 O
atom 10.5377332300000006 8.5547326199999993 10.4275084499999995 O
atom 2.7763998700000001 1.2245748700000001 2.4942163200000000 O
atom 3.3627932800000000 1.3016538200000001 7.8495846599999997 O
atom 3.1122895499999998 6.3982582900000002 2.6891062600000000 O
atom 3.4337474700000001 6.3833988799999997 7.8478252599999996 O
atom 7.9697532899999999 1.3525283800000001 3.1316256700000000 O
atom 8.4255083499999994 1.3439336300000000 8.3137683700000000 O
atom 7.9944670400000000 6.4286089200000003 3.0931020999999999 O
atom 8.4753042000000001 6.4153514300000003 8.3343444299999998 O
atom 3.1709787199999999 1.1748132400000000 5.2521016999999999 O
atom 3.8794952000000000 1.5420497300000000 10.3267241300000006 O
atom 3.2804559800000002 5.8914055899999997 5.0796712900000003 O
atom 3.6563697600000000 6.4385303499999997 10.5121076099999993 O
atom 8.1458105300000003 1.2847821200000000 5.6890191899999998 O
atom 8.6678077299999998 1.2853004900000000 10.9618123099999991 O
atom 8.2577734599999992 6.3346177900000002 5.7133181799999999 O
atom 8.6880557399999994 6.3771563400000000 10.9344229500000001 O
atom 2.3097979700000000 3.9313951000000000 0.3561833700000000 O
atom 2.4541121299999999 3.5513369699999999 5.7279952400000003 O
atom 2.2850531799999998 9.3704457399999992 0.4978276700000000 O
atom 2.7599136199999998 8.8112943599999998 5.5135028400000001 O
atom 7.3590921199999997 3.8888175399999998 0.7102281499999999 O
atom 7.6880834499999997 3.8758378499999999 5.8845329800000004 O
atom 7.3306282800000000 8.9955015700000001 0.6593638100000000 O
atom 7.7521828299999997 8.9403314599999995 5.8851172700000003 O
atom 2.7055656699999999 3.8849949000000001 3.1159473000000002 O
atom 2.9690359900000001 3.7910096700000002 8.2052661100000002 O
atom 2.4454537400000000 8.8752238699999992 2.8875288900000000 O
atom 2.9829369400000001 8.8658937699999996 8.1786107900000005 O
atom 7.5341669199999997 3.8205812400000001 3.2671551900000000 O
atom 7.9304203700000002 3.8175669900000000 8.5322445800000004 O
atom 7.5932014099999998 8.9011089999999999 3.2793954900000002 O
atom 7.9657907000000003 8.9017567399999997 8.4851847599999992 O
