lattice_vector 9.9225982300000002 -0.0386439100000000 0.0566989700000000 
lattice_vector 0.0076868000000000 10.3781432500000008 -0.0482102200000000 
lattice_vector 0.0214834000000000 -0.0656851800000000 9.9740538599999997 
atom 1.1845838300000000 0.3576931800000000 1.0917583000000000 Si
atom 1.3566406799999999 0.1429073500000000 6.2751213999999997 Hf
atom 1.3288443700000001 5.3202247600000003 1.2264879900000001 Hf
atom 1.3609257900000000 5.3100574800000002 6.2205510100000003 Hf
atom 6.2977717100000001 0.1472902600000000 1.2926965300000000 Hf
atom 6.2594706999999996 0.0801915500000000 6.2400129199999999 Hf
atom 6.3239662799999996 5.3506012099999998 1.2859137800000000 Hf
atom 6.3034671299999996 5.3101641800000001 6.2389023699999999 Hf
atom 1.3347821300000000 2.3153601699999999 3.6715531399999999 Hf
atom 1.3328340599999999 2.4145696100000000 8.7344027799999999 Hf
atom 1.3669602400000000 7.5345296499999996 3.7565288500000000 Hf
atom 1.3271329400000000 7.5795672999999999 8.7387998800000002 Hf
atom 6.3104083500000003 2.3550555700000002 3.7930298300000000 Hf
atom 6.3058489499999997 2.3507443200000000 8.7242829600000000 Hf
atom 6.3365141200000004 7.5889913699999996 3.7533496700000000 Hf
atom 6.2952400900000001 7.5647573299999999 8.7465977000000006 Hf
atom 3.6902672399999998 2.7362958200000000 1.1900456800000001 Hf
atom 3.6418245599999999 2.7152581800000002 6.2329313500000003 Hf
atom 3.6589842400000001 7.8978042999999998 1.2617131100000001 Hf
atom 3.6528626200000001 7.9363120100000000 6.2744798700000004 Hf
atom 8.5853406400000001 2.7276037199999998 1.2637928899999999 Hf
atom 8.6133326399999994 2.6782981700000001 6.2536931200000003 Hf
atom 8.7002974399999999 7.9408573799999997 1.2389704399999999 Hf
atom 8.6297664199999993 7.8940685999999998 6.2422947799999999 Hf
atom 3.6629268300000000 4.9474300900000001 3.7421644999999999 Hf
atom 3.6548138899999998 5.0018445199999997 8.7147713099999997 Hf
atom 3.6081169200000001 10.1190496700000008 3.6857966300000000 Hf
atom 3.5783697499999998 10.1761910300000000 8.8167855999999993 Hf
atom 8.6057251099999998 4.9484483800000003 3.7749327400000001 Hf
atom 8.5936010100000004 4.9568347599999996 8.7397343999999997 Hf
atom 8.6766717999999994 10.1669575099999996 3.7135064099999999 Hf
atom 8.6046721099999992 10.1455444099999994 8.7159905500000008 Hf
atom 0.3821033900000000 1.8413635399999999 1.7807049200000000 O
atom 0.3461381500000000 1.8606271599999999 6.9760741599999996 O
atom 0.3886784000000000 7.0727811400000000 1.9195224200000001 O
atom 0.3834395300000000 7.0643483099999997 6.9078217100000003 O
atom 5.2629203200000001 1.8459850099999999 2.0309233899999999 O
atom 5.3337619900000002 1.8581343100000001 6.9239395500000001 O
atom 5.3445518500000002 7.0729417600000000 1.9775515600000000 O
atom 5.3227650000000004 7.0308067000000003 6.9552535400000002 O
atom 0.3598059300000000 0.6609212400000000 4.5054226100000001 O
atom 0.3651383900000000 0.6142149500000000 9.5211849300000004 O
atom 0.3714871400000000 5.8017173800000004 4.4290363199999998 O
atom 0.3547078800000000 5.8297904400000000 9.4084985600000000 O
atom 5.3272687100000002 0.6247118800000000 4.4478402299999997 O
atom 5.2606995400000001 0.6797749900000000 9.5245916200000007 O
atom 5.3605224400000004 5.8285919499999999 4.4164085000000002 O
atom 5.3267591100000002 5.8341387300000003 9.4595082999999995 O
atom 4.6377888100000000 4.4608845300000004 1.9196971899999999 O
atom 4.6082316499999996 4.4589670600000000 6.9199713899999997 O
atom 4.6913327200000001 9.6242768800000000 1.9532386900000001 O
atom 4.6084707600000003 9.6572131599999995 6.9934986400000003 O
atom 9.5967546299999995 4.4094940700000000 1.9916057500000000 O
atom 9.5772785000000002 4.4254500700000001 6.9384016800000001 O
atom 9.8589964299999995 9.7256759200000005 1.8616303800000000 O
atom 9.6021184599999998 9.6212196799999994 6.9456127800000003 O
atom 4.6420827600000001 3.2398366099999998 4.4635997999999999 O
atom 4.6083620999999999 3.2279586100000000 9.3881621299999996 O
atom 4.6880461200000001 8.4528274099999994 4.5299173200000000 O
atom 4.5566870200000000 8.4320935099999996 9.4066700200000000 O
atom 9.5730995500000002 3.1608918400000001 4.4169276200000001 O
atom 9.5631353400000005 3.2091354399999998 9.4380960300000005 O
atom 9.5996716699999993 8.4073973700000000 4.4233693599999997 O
atom 9.5449225299999991 8.3861361799999994 9.3830626099999996 O
atom 2.3856079399999999 0.8348790000000000 2.4032989300000001 O
atom 2.7067593599999999 1.1906870300000001 7.5104999200000000 O
atom 2.6789429000000000 6.2283689600000001 2.4654948800000001 O
atom 2.6905233000000002 6.3779480399999997 7.4794505700000000 O
atom 7.6730872200000002 1.1742917799999999 2.5009542499999999 O
atom 7.6334635300000002 1.1291902800000000 7.4889077400000001 O
atom 7.6985557900000003 6.3584653299999996 2.5069734000000001 O
atom 7.6510406499999997 6.3463840300000003 7.4947943199999996 O
atom 2.7168055999999998 1.3327102200000001 4.9350645399999999 O
atom 2.5659918500000001 1.3419056899999999 10.0378670600000000 O
atom 2.7384379000000001 6.5056922500000001 4.9857799600000003 O
atom 2.6725470400000000 6.5449708199999996 9.9579546299999997 O
atom 7.6689396299999997 1.2994895799999999 4.9983275799999998 O
atom 7.6388160300000001 1.3058823900000001 9.9754286800000003 O
atom 7.6637354599999998 6.5139330900000001 5.0016734600000001 O
atom 7.6687526500000001 6.5148586999999996 9.9933991899999999 O
atom 2.2774712799999999 3.9019965000000001 4.9530336999999998 O
atom 2.3137136500000000 3.9419605099999999 9.9349987300000002 O
atom 2.2920883900000000 9.1084695599999996 5.0421876499999998 O
atom 2.1794178899999999 9.2946297300000005 10.2007185800000002 O
atom 7.2671316700000004 3.9050832600000001 5.0084669799999997 O
atom 7.2500460599999998 3.8962509600000002 9.9817322799999992 O
atom 7.3098897000000003 9.1197751300000007 4.9558147000000004 O
atom 7.2449879399999997 9.1049064800000004 9.9446463099999995 O
atom 2.3465814200000001 3.6497684200000000 2.4523965500000000 O
atom 2.2824481799999998 3.7761292200000001 7.4610180300000000 O
atom 2.5286434899999999 8.6948508100000002 2.6571958400000000 O
atom 2.2791706399999998 8.9843265900000002 7.5615541600000000 O
atom 7.2360772799999999 3.7604693500000002 2.5073231699999998 O
atom 7.2509794100000002 3.7430770700000000 7.4846594399999997 O
atom 7.3793505000000001 8.9640992599999993 2.4561513300000000 O
atom 7.2535124299999998 8.9247240199999993 7.4559514900000003 O
