lattice_vector 10.0340254600000005 0.0148344300000000 -0.0003288900000000 
lattice_vector -0.0092599200000000 10.0333155400000003 -0.0081732100000000 
lattice_vector -0.0007669600000000 0.0138312200000000 10.0340742699999996 
atom 1.2610565499999999 0.0128858000000000 1.2611436000000000 Si
atom 1.2626010299999999 0.0188487400000000 6.2779825100000002 Hf
atom 1.2565057100000001 5.0296496099999999 1.2571406500000000 Hf
atom 1.2565836699999999 5.0353846400000002 6.2752582200000004 Hf
atom 6.2779005500000000 0.0194870000000000 1.2629195900000001 Hf
atom 6.2788808899999999 0.0251729300000000 6.2792024399999997 Hf
atom 6.2746347399999998 5.0357651499999996 1.2574403700000001 Hf
atom 6.2737781100000003 5.0420002700000000 6.2747074200000004 Si
atom 1.3165237800000000 2.5297478899999999 3.7743768599999998 Hf
atom 1.2050832400000000 2.5349465200000001 8.7813748700000005 Hf
atom 1.1991454699999999 7.5356394099999999 3.7699468100000000 Hf
atom 1.3120634099999999 7.5416722399999996 8.7762782700000006 Hf
atom 6.3330774900000000 2.5263588299999999 3.7645591800000000 Hf
atom 6.2216543800000004 2.5316322900000001 8.7920937899999991 Hf
atom 6.2162695000000001 7.5519147799999997 3.7600423500000000 Hf
atom 6.3295461599999996 7.5607784400000000 8.7883726699999993 Hf
atom 3.7739508100000001 2.5299107400000000 1.3168475799999999 Hf
atom 3.7639585800000002 2.5260916199999999 6.3335340200000001 Hf
atom 3.7690626500000000 7.5358683600000003 1.2000279500000000 Hf
atom 3.7589509200000002 7.5516001199999998 6.2173007900000004 Hf
atom 8.7811143299999994 2.5356156200000002 1.2058106500000001 Hf
atom 8.7915108199999992 2.5318103299999999 6.2222649099999998 Hf
atom 8.7753539600000003 7.5423743600000002 1.3133315299999999 Hf
atom 8.7871288100000005 7.5609210899999999 6.3307105400000001 Hf
atom 3.7766412300000001 0.0755496000000000 3.7768167099999999 Hf
atom 3.7767339299999998 -0.0303214300000000 8.7819182500000004 Hf
atom 3.7596379500000001 5.0924148000000002 3.7604013100000002 Hf
atom 3.7617856299999999 4.9865663199999997 8.7885793600000000 Hf
atom 8.7817570600000003 -0.0298084500000000 3.7771491699999999 Hf
atom 8.7836855299999996 0.0887854400000000 8.7841281099999993 Hf
atom 8.7878691199999999 4.9870435700000000 3.7626577900000000 Hf
atom 8.7876658100000000 5.1050244100000004 8.7886783699999995 Hf
atom -0.2678472700000000 1.5374439799999999 -0.2677807700000000 O
atom -0.1032201300000000 1.3790897200000001 4.7958053999999999 O
atom -0.1080003700000000 6.5074565000000000 -0.1072983100000000 O
atom -0.2271057600000000 6.3964921099999996 4.9098571399999997 O
atom 4.7957062500000003 1.3795373900000001 -0.1029793300000000 O
atom 4.9135063199999998 1.5031638100000000 4.9138955299999996 O
atom 4.9092450100000002 6.3969877899999998 -0.2261677400000000 O
atom 4.7442190300000000 6.5655364499999997 4.7451031400000003 O
atom 0.2907533000000000 0.9821688800000000 2.2290880500000001 O
atom 0.0855998300000000 1.1944143800000000 7.3592415600000001 O
atom 0.0802500900000000 6.1087353400000000 2.4357184900000002 O
atom 0.1759046600000000 6.2120005899999997 7.4522221799999997 O
atom 5.1981336200000001 1.1968114900000000 2.4394824200000000 O
atom 5.1022419799999996 1.1049975000000001 7.4566378899999997 O
atom 5.0971968199999997 6.2130103999999999 2.3370410200000000 O
atom 5.3018552699999999 6.0102400999999999 7.2417683300000002 O
atom -0.1066807000000000 3.5466376199999998 2.6256528900000000 O
atom -0.2233013900000000 3.6697764899999998 7.6418027999999998 O
atom -0.2738965800000000 8.5182433000000000 2.7828451400000001 O
atom -0.1105986300000000 8.6864987100000004 7.7542889500000003 O
atom 4.9101343999999996 3.6712313299999999 2.7421438800000000 O
atom 4.7483169399999996 3.5138312799999998 7.8051762900000003 O
atom 4.7881475399999998 8.6877560700000007 2.6204152199999999 O
atom 4.9068852999999999 8.5763494500000004 7.6373322400000001 O
atom 0.0821006400000000 3.9454915800000001 0.0825758900000000 O
atom 0.1789605000000000 3.8548401600000002 5.0999787300000001 O
atom 0.2829851700000000 9.0763484099999996 0.2839430100000000 O
atom 0.0774048100000000 8.8717684800000001 5.1918756400000001 O
atom 5.0994149300000000 3.8553613800000002 0.1796516600000000 O
atom 5.3070749599999996 4.0680953999999998 5.3077354400000001 O
atom 5.1909229699999999 8.8723289600000008 0.0786926300000000 O
atom 5.0941842700000004 8.9749859599999997 5.0954163399999999 O
atom 2.7877377100000000 1.5431807799999999 2.7881098199999998 O
atom 2.6271427100000002 1.3881354800000001 7.7602982300000001 O
atom 2.6217335199999998 6.5154499699999997 2.6225340899999998 O
atom 2.7378538500000000 6.4049814500000002 7.6398203200000001 O
atom 7.7599086000000002 1.3885799999999999 2.6277276600000001 O
atom 7.6439938900000000 1.5128979800000000 7.6445544800000000 O
atom 7.6388642000000004 6.4054447100000003 2.7389521999999999 O
atom 7.7992590699999997 6.5740767499999997 7.8004411500000002 O
atom 2.2291024500000001 0.9823729400000000 0.2911502000000000 O
atom 2.4391297700000001 1.1964527700000001 5.1984735600000000 O
atom 2.4351044100000001 6.1089351299999999 0.0810792300000000 O
atom 2.3361660500000001 6.2127085900000001 5.0979749999999999 O
atom 7.3591898000000002 1.1951821199999999 0.0860835600000000 O
atom 7.4563666199999998 1.1052055999999999 5.1028301100000002 O
atom 7.4515216200000003 6.2127526399999997 0.1770432200000000 O
atom 7.2409083499999998 6.0104363400000000 5.3030392199999996 O
atom 2.6251528600000000 3.5469190700000000 -0.1063089900000000 O
atom 2.7414848400000000 3.6710533900000000 4.9106705799999997 O
atom 2.7818920500000002 8.5185996799999995 -0.2728468500000000 O
atom 2.6192872100000000 8.6875866800000008 4.7892760499999998 O
atom 7.6414245799999998 3.6705636300000002 -0.2226271500000000 O
atom 7.8045785199999997 3.5141401800000001 4.7490936499999998 O
atom 7.7533295799999999 8.6872176600000000 -0.1093408100000000 O
atom 7.6361233000000004 8.5766258400000002 4.9081157299999996 O
atom 2.4350465899999998 3.9523024599999999 2.4354961199999998 O
atom 2.3394232300000000 3.8616694400000000 7.4525859299999997 O
atom 2.2215322400000002 9.0787230999999995 2.2227419899999998 O
atom 2.4318282400000002 8.8785838100000003 7.3516666700000002 O
atom 7.4521805499999996 3.8622016100000001 2.3402005699999999 O
atom 7.2450841600000002 4.0767435100000000 7.2459156800000004 O
atom 7.3505761500000002 8.8790822800000004 2.4330204599999998 O
atom 7.4489763099999999 8.9838776199999995 7.4503059800000004 O
