lattice_vector 9.9257849399999998 0.0313757100000000 -0.0325864900000000 
lattice_vector -0.0019596800000000 10.3902324099999994 -0.2099626200000000 
lattice_vector 0.0008886100000000 -0.1510771400000000 9.9147317200000007 
atom 1.0649239800000001 0.2449755500000000 1.1763879500000001 Si
atom 1.3506568800000001 0.1313396200000000 6.2569670999999998 Hf
atom 1.0820928500000000 5.3398640000000004 0.9276932300000000 Hf
atom 1.3602933300000000 5.3067592200000000 6.1296332099999997 Hf
atom 6.2401880500000004 0.2627505200000000 1.1645611600000001 Hf
atom 6.1875062700000001 0.0799947200000000 6.0919857700000000 Hf
atom 6.3156205200000004 5.3919707299999997 1.1067859200000001 Hf
atom 6.2204975100000004 5.2698366900000000 6.0030136000000001 Hf
atom 1.3766200700000000 2.2319922600000002 3.5642113900000001 Hf
atom 1.4450118500000000 2.3609579799999998 8.8216349399999991 Hf
atom 1.3332803200000001 7.4210292600000001 3.5651567800000001 Hf
atom 1.3204072899999999 7.6329523699999999 8.5752486200000000 Hf
atom 6.2369956999999996 2.4072700199999999 3.6204032200000000 Hf
atom 6.3058182000000000 2.3439930100000002 8.5421441500000004 Hf
atom 6.3083509600000003 7.6066180799999996 3.5709144799999999 Hf
atom 6.3152561900000004 7.5721639800000000 8.4381287500000006 Hf
atom 3.8585896800000001 2.9571196199999998 1.0274734000000001 Si
atom 3.5966934600000000 2.7176363700000001 6.1650597600000001 Hf
atom 3.7808134899999999 7.9696830600000004 0.9448965000000000 Hf
atom 3.6038557899999999 7.9381509499999998 6.0923260900000002 Hf
atom 8.5827466000000001 2.8189705599999999 1.1623218799999999 Hf
atom 8.6867163900000008 2.6267867900000001 6.0350522700000004 Hf
atom 8.5905927700000007 8.0354831099999995 1.0188814600000000 Hf
atom 8.6600765000000006 7.9123393799999997 5.9447533300000002 Hf
atom 3.6158624700000002 4.8381632100000003 3.5570270100000001 Hf
atom 3.6279472699999999 4.9848473999999996 8.6465889499999999 Hf
atom 3.5566879299999998 10.0465320499999997 3.4646437099999998 Hf
atom 3.5792439699999998 10.2465521800000001 8.6257080599999991 Hf
atom 8.5766270500000008 4.9834185099999999 3.6494243700000002 Hf
atom 8.5607215900000000 4.9387650299999999 8.4491432399999997 Hf
atom 8.5998263399999999 10.2295280900000005 3.4651004599999999 Hf
atom 8.6041820999999992 10.1752106500000004 8.3961380299999995 Hf
atom 0.3609296800000000 1.8208680600000000 1.7625907100000000 O
atom 0.3211475200000000 1.8062733700000000 7.0904952300000001 O
atom 0.3173124800000000 7.1161430200000000 1.7137039999999999 O
atom 0.4078639600000000 7.0805682299999999 6.7427034600000004 O
atom 5.1612020599999999 2.0183630199999998 1.7395970100000000 O
atom 5.2874128499999999 1.8495764600000000 6.7968001300000003 O
atom 5.3029105599999999 7.0832698799999996 1.8302376199999999 O
atom 5.3029964999999999 7.0290641500000000 6.6995309699999996 O
atom 0.2496810400000000 0.7058329300000000 4.5818015900000004 O
atom 0.4827695900000000 0.5662027900000000 9.4976652000000001 O
atom 0.2732922700000000 5.8356256799999997 4.4292126500000002 O
atom 0.3187438900000000 5.8588176799999996 9.0731698699999992 O
atom 5.2813361600000004 0.6466913500000000 4.2522389900000004 O
atom 5.3808634700000004 0.6137956100000000 9.2649419999999996 O
atom 5.3165906400000003 5.8107195200000001 4.1903621900000001 O
atom 5.2727761800000001 5.9084909899999998 9.2900953400000006 O
atom 4.5869058400000000 4.4753809999999996 1.6945230899999999 O
atom 4.6159458400000002 4.4302461600000003 6.8986793600000000 O
atom 4.6152064599999996 9.7507765800000001 1.6495357399999999 O
atom 4.5548659599999999 9.6923604700000006 6.7378407100000004 O
atom 9.6057184000000007 4.4619487600000003 1.9391671100000001 O
atom 9.5853625000000005 4.4224172299999998 6.7099928300000000 O
atom 9.6944588700000001 9.7884075399999997 1.5980272900000001 O
atom 9.6089943000000009 9.6466289900000000 6.6620149800000004 O
atom 4.6809478899999997 3.2806725900000000 4.4877541299999999 O
atom 4.6590676699999998 3.2107262900000002 9.3861251800000005 O
atom 4.6948976399999998 8.4933347900000005 4.3734345599999997 O
atom 4.5533793200000003 8.4584155100000000 9.0710873299999992 O
atom 9.5882413000000000 3.2017005799999998 4.2270850700000002 O
atom 9.7456674299999992 3.4014161700000001 9.4376096799999996 O
atom 9.5649981600000000 8.4630961700000000 4.1087120099999996 O
atom 9.5066611000000005 8.4312760400000002 9.1159259499999994 O
atom 2.0961190799999998 0.4724165300000000 2.5009813099999998 O
atom 2.7039136699999999 1.1978439299999999 7.5000416100000002 O
atom 2.2796903799999999 5.8059716400000001 2.4447289600000000 O
atom 2.7106883499999999 6.3845372899999999 7.3673169500000002 O
atom 7.6195648499999997 1.2463909700000000 2.3556754700000000 O
atom 7.6070114899999997 1.0809103000000000 7.2953334999999999 O
atom 7.6803391899999998 6.4047503099999998 2.3108982600000001 O
atom 7.6117923500000000 6.3099608800000002 7.2354368500000001 O
atom 2.7055115100000000 1.2657615000000000 4.9060771200000000 O
atom 2.9242130999999998 1.4962075100000001 10.0945176500000002 O
atom 2.7322714200000000 6.4543569099999996 4.8420853099999999 O
atom 2.5930367099999998 6.5187867700000002 9.8386945400000005 O
atom 7.5722890100000004 1.3413736300000001 4.8277708099999996 O
atom 7.7091421599999999 1.3349423000000000 9.7710206100000008 O
atom 7.5945572200000004 6.5396418399999998 4.7989930100000002 O
atom 7.6327230300000002 6.4929152400000003 9.7236177999999995 O
atom 2.2381424499999998 3.8574296299999999 4.8465173400000001 O
atom 2.4488040000000000 3.8906905799999998 10.0080274800000009 O
atom 2.2179785500000002 9.0613046599999993 4.8318469600000000 O
atom 2.1448628799999998 9.2717504500000008 10.0046749899999998 O
atom 7.2695218800000001 3.9065441299999999 4.8293409799999996 O
atom 7.2938179500000002 3.8918055599999999 9.7617339399999992 O
atom 7.3061057800000002 9.1593857700000001 4.7116022099999997 O
atom 7.2188695999999997 9.1258677600000002 9.6553813500000008 O
atom 2.8308363200000000 3.0836070900000001 2.4217282700000000 O
atom 2.2585165599999999 3.7657774499999999 7.4500787400000004 O
atom 2.7093948600000002 8.3832519399999992 2.5110998400000000 O
atom 2.2661949199999998 9.0169893999999999 7.3797915999999999 O
atom 7.1937960900000002 3.8260913099999998 2.3453072800000001 O
atom 7.2924769899999999 3.6747459299999998 7.2731938500000002 O
atom 7.2556688700000000 9.0305117799999994 2.2350863200000002 O
atom 7.2748195400000002 8.9148892100000001 7.1752685600000001 O
