lattice_vector 9.9971749200000009 0.0192653100000000 -0.0019107900000000 
lattice_vector -0.0098585900000000 10.1743558899999993 -0.0081452500000000 
lattice_vector -0.0011741200000000 0.0222206900000000 9.9971389100000003 
atom 1.2488227599999999 0.0094213600000000 1.2504140500000001 Si
atom 1.2520344699999999 0.0190846500000000 6.2481099699999998 Hf
atom 1.2467483300000000 5.0967156899999999 1.2478844600000001 Hf
atom 1.2452624100000000 5.1057828900000004 6.2474657899999997 Hf
atom 6.2464457199999996 0.0179085700000000 1.2514843700000000 Hf
atom 6.2487288100000002 0.0290499700000000 6.2491954999999999 Hf
atom 6.2478452899999999 5.1049433600000000 1.2462444800000001 Hf
atom 6.2450315800000000 5.1156773900000001 6.2455163300000001 Hf
atom 1.2943496999999999 2.5840930400000000 3.7534219499999999 Hf
atom 1.2106789600000001 2.5900815300000000 8.7513010100000006 Hf
atom 1.2033546399999999 7.6201448000000003 3.7476635900000002 Hf
atom 1.2878111000000001 7.6304714200000001 8.7442415300000000 Hf
atom 6.2786323199999998 2.5408474299999999 3.7435558900000001 Hf
atom 6.2208051500000003 2.5497804700000000 8.7572127099999992 Hf
atom 6.2163789800000000 7.6808744100000004 3.7378063699999999 Hf
atom 6.2744401900000000 7.6916505900000001 8.7508330200000000 Hf
atom 3.7536421099999999 2.5835081600000001 1.2947226100000000 Hf
atom 3.7434417099999999 2.5415343099999999 6.2784957300000004 Hf
atom 3.7482085399999998 7.6179579400000001 1.2030231199999999 Hf
atom 3.7380479000000002 7.6808634500000004 6.2171349300000003 Hf
atom 8.7515654000000005 2.5878691699999998 1.2107461700000000 Hf
atom 8.7572869499999992 2.5487697200000001 6.2200590299999998 Hf
atom 8.7445160600000005 7.6296337999999997 1.2870016700000000 Hf
atom 8.7511746200000005 7.6915885599999996 6.2745532099999997 Hf
atom 3.7230298300000002 0.0526636400000000 3.7236118299999998 Hf
atom 3.7237461500000002 -0.0055240400000000 8.7750395900000004 Hf
atom 3.7715415100000000 5.1208361800000004 3.7720365100000000 Hf
atom 3.7712418300000001 5.1038242399999998 8.7195546200000003 Hf
atom 8.7741839200000005 -0.0070212300000000 3.7239830299999999 Hf
atom 8.7745735499999995 0.0739327200000000 8.7744710700000006 Hf
atom 8.7188474199999995 5.1043561300000002 3.7718731000000001 Hf
atom 8.7185271400000008 5.1337801799999996 8.7187584900000008 Hf
atom -0.2541668800000000 1.6171603100000000 -0.2536540600000000 O
atom -0.0810542500000000 1.4864962200000000 4.8022040400000003 O
atom 0.0134127200000000 6.6527732600000000 0.0141770600000000 O
atom -0.0341268400000000 6.5733997500000001 5.0054667300000002 O
atom 4.8017280099999997 1.4844225400000000 -0.0804879000000000 O
atom 4.9335971799999996 1.5119235300000000 4.9338616100000001 O
atom 5.0047203800000002 6.5709980600000000 -0.0337616300000000 O
atom 4.9628909200000004 6.5969743400000000 4.9632945900000003 O
atom 0.2420305200000000 0.9071780800000000 2.2478945200000000 O
atom 0.0214571100000000 1.0950589300000000 7.3680330999999999 O
atom -0.0016889700000000 6.0898776300000002 2.5025530599999999 O
atom 0.0215272100000000 6.1742535399999996 7.5020490000000004 O
atom 5.1288318700000000 1.0983921000000001 2.4816016099999998 O
atom 5.0352217300000000 1.0834032099999999 7.4670751299999996 O
atom 4.9947743500000001 6.1742366700000000 2.4705036499999999 O
atom 5.0147823000000002 6.1839753799999997 7.4714748100000001 O
atom 0.0134365200000000 3.5340290300000001 2.4881962400000002 O
atom -0.0296607200000000 3.6320433699999999 7.4921198100000002 O
atom -0.2570735400000000 8.5703738499999993 2.7466343100000001 O
atom -0.0897502100000000 8.7189000599999993 7.6906511899999996 O
atom 5.0066084200000001 3.6345917499999998 2.5283181500000000 O
atom 4.9677302399999999 3.6304549599999998 7.5276127500000003 O
atom 4.7954434600000004 8.7197605800000009 2.5767625900000000 O
atom 4.9252442099999998 8.7148902100000001 7.5600565199999998 O
atom 0.0001064800000000 4.0954002500000000 -0.0005905100000000 O
atom 0.0239901200000000 4.0318424899999998 4.9968247600000000 O
atom 0.2377722200000000 9.2820480500000002 0.2425877700000000 O
atom 0.0137707300000000 9.1093889200000007 5.1248941200000004 O
atom 4.9975275999999997 4.0301022000000000 0.0241109100000000 O
atom 5.0185884200000004 4.0433814799999999 5.0190146400000000 O
atom 5.1224082800000001 9.1069869200000007 0.0149442100000000 O
atom 5.0264319899999998 9.1430852100000006 5.0273665699999999 O
atom 2.7474250499999999 1.6276348700000001 2.7475717199999998 O
atom 2.5835942300000001 1.4985762899999999 7.6931490900000004 O
atom 2.4861560300000001 6.6660361100000003 2.4864397899999999 O
atom 2.5243464300000000 6.5840894199999997 7.4897066099999998 O
atom 7.6929201400000000 1.4978983500000000 2.5837598399999999 O
atom 7.5656624299999997 1.5225846599999999 7.5654767300000003 O
atom 7.4892215100000001 6.5836119799999997 2.5244254100000001 O
atom 7.5232247599999997 6.6049600499999999 7.5233623300000003 O
atom 2.2471075599999999 0.9057065200000000 0.2428845200000000 O
atom 2.4814112000000002 1.0987787099999999 5.1291395499999997 O
atom 2.5020557299999999 6.0883855699999998 -0.0016438900000000 O
atom 2.4701090500000000 6.1746857999999998 4.9946625899999999 O
atom 7.3675520299999997 1.0926785400000001 0.0210091200000000 O
atom 7.4663804499999999 1.0828567600000001 5.0349009499999999 O
atom 7.5018526100000003 6.1722083999999997 0.0216989600000000 O
atom 7.4710262900000002 6.1836891999999999 5.0150608999999999 O
atom 2.4893746100000000 3.5325595600000002 0.0119664100000000 O
atom 2.5279207900000000 3.6347525200000002 5.0061704100000002 O
atom 2.7431766400000002 8.5698326900000001 -0.2535618200000000 O
atom 2.5756629300000000 8.7201302799999993 4.7983729500000001 O
atom 7.4926423800000004 3.6297783799999999 -0.0292435400000000 O
atom 7.5271781400000002 3.6304398099999999 4.9683464300000004 O
atom 7.6879162299999999 8.7167289900000000 -0.0888482700000000 O
atom 7.5589167300000000 8.7144245300000005 4.9262428700000003 O
atom 2.5019484500000000 4.1089322399999997 2.5008217099999999 O
atom 2.4735956200000002 4.0426009499999997 7.5013957400000004 O
atom 2.2431349100000002 9.2934165899999996 2.2484575100000002 O
atom 2.4728729100000000 9.1199124800000000 7.3628691300000000 O
atom 7.5023358399999998 4.0418724199999998 2.4739023200000001 O
atom 7.4751427499999998 4.0518423700000001 7.4761502100000001 O
atom 7.3601471099999998 9.1198206400000004 2.4741313599999999 O
atom 7.4568947200000002 9.1527921899999996 7.4578132000000004 O
