lattice_vector 10.0126924600000002 0.0027247200000000 0.0811100400000000 
lattice_vector 0.0180956000000000 10.4244778500000006 -0.0143417200000000 
lattice_vector -0.0094305400000000 -0.0811760400000000 10.0547039199999997 
atom 1.1286806199999999 0.3123543300000000 1.1387825600000001 Si
atom 1.3646533599999999 0.1312441400000000 6.3099801500000003 Hf
atom 1.2999825100000000 5.3519829500000000 1.1853564000000001 Hf
atom 1.0647973399999999 5.0111190199999998 5.9147055499999999 Hf
atom 6.3145704299999998 0.2059792000000000 1.2995763199999999 Hf
atom 6.2764564900000002 0.1017841500000000 6.2961675599999998 Hf
atom 6.3824606299999997 5.4366965499999997 1.3739215400000000 Hf
atom 6.4201415300000004 5.3320059700000000 6.3268454900000002 Hf
atom 1.3608047900000000 2.2908645100000000 3.6634439099999998 Hf
atom 1.3458076900000000 2.4462852700000002 8.7815605500000000 Hf
atom 1.3721917600000000 7.5740379999999998 3.7439736199999998 Hf
atom 1.1571281400000000 7.7715374600000002 8.8496464800000005 Hf
atom 6.3435796299999998 2.3567889100000001 3.8125969700000000 Hf
atom 6.3180170200000001 2.3720813100000000 8.8094163900000009 Hf
atom 6.4326691499999997 7.6565179600000004 3.8702445000000001 Hf
atom 6.4115268299999997 7.6444924500000004 8.9376229899999995 Hf
atom 3.7434252899999998 2.8065162400000001 1.1491155399999999 Hf
atom 3.6764359999999998 2.6973432100000001 6.2027015399999996 Hf
atom 3.7999145900000002 7.8858452500000000 1.2270287300000000 Hf
atom 3.7292705000000002 7.8536853799999999 6.2979174400000000 La
atom 8.6689523200000007 2.7641922800000001 1.2656647900000000 Hf
atom 8.6303347600000002 2.6789652899999998 6.3756304200000002 Hf
atom 8.7525618499999993 8.0254471699999996 1.3647536499999999 Hf
atom 8.7733401000000004 7.9401144800000001 6.3546995500000003 Hf
atom 3.7193237899999998 4.9621987799999996 3.7551515300000000 Hf
atom 3.7423925900000001 5.1724955300000000 8.6510196500000003 La
atom 3.6448561599999998 10.1611077499999993 3.6757833400000002 Hf
atom 3.5827816700000001 10.2584063000000008 8.9334806800000006 Hf
atom 8.6042395900000006 4.9535630700000004 3.7972886500000000 Hf
atom 8.6532096700000007 5.0090879900000003 8.8960747500000004 Hf
atom 8.7471670499999998 10.2547863400000008 3.8159542000000002 Hf
atom 8.6582248400000008 10.2627483500000007 8.8430404899999999 Hf
atom 0.3236765700000000 1.8247549100000000 1.8570139200000000 O
atom 0.2464241900000000 1.7719994699999999 7.0980502100000002 O
atom 0.3725000300000000 7.1190117800000001 1.9459986800000000 O
atom 0.6904876599999999 6.9201418099999996 6.9870015199999997 O
atom 5.2664409399999998 1.8579879200000000 2.0681824299999998 O
atom 5.3668399400000002 1.8965623000000000 7.0018452199999999 O
atom 5.3757890499999998 7.1159891200000001 2.2190365000000001 O
atom 5.3901562900000002 6.7551219299999996 7.4131207200000002 O
atom 0.2911151900000000 0.7252248200000000 4.5785320100000000 O
atom 0.3092308800000000 0.6457672100000000 9.6673368600000007 O
atom 0.2035726000000000 5.9192441799999997 4.3530918600000001 O
atom 0.2735840900000000 5.9117570300000004 9.5227409499999993 O
atom 5.3551300199999998 0.6711305500000000 4.5131061399999997 O
atom 5.2699910000000001 0.7498472700000000 9.6305320099999996 O
atom 5.3263754800000003 5.9768650200000000 4.6262413000000002 O
atom 5.3016491700000001 6.1670981800000000 9.9398411099999997 O
atom 4.7348453099999999 4.4872639000000003 1.9922599500000000 O
atom 4.6539005900000001 4.4149117100000002 6.6811188399999999 O
atom 4.7269798300000003 9.6868195200000002 1.9318287400000000 O
atom 4.7357046699999996 9.7793520600000008 7.1897307399999999 O
atom 9.7130465099999999 4.4266486299999999 2.0884021499999998 O
atom 9.5475083900000008 4.4274922300000004 7.1047238200000002 O
atom 9.9326915699999994 9.7804777499999993 1.9893893100000000 O
atom 9.7730100499999999 9.5685750100000000 7.1532494900000003 O
atom 4.6743823700000000 3.2372115699999999 4.4048178699999996 O
atom 4.7358471599999996 3.3287934099999998 9.5385382799999991 O
atom 4.8484240200000004 8.6562834300000002 4.5288789999999999 O
atom 4.6209466800000003 8.5619759900000005 9.5181214199999999 O
atom 9.8441009699999995 3.3920654799999999 4.7462284300000004 O
atom 9.6415272299999994 3.2687841899999999 9.5657093900000003 O
atom 9.7157983100000003 8.4958927499999994 4.5374626500000002 O
atom 9.5312952400000004 8.5116070799999992 9.6002824199999992 O
atom 2.3109282300000000 0.7602621500000000 2.4023904599999999 O
atom 2.6975838699999999 1.2077464099999999 7.5171996999999999 O
atom 2.6972023200000002 6.1829967000000003 2.4025691500000002 O
atom 7.7179602699999998 1.1878181000000001 2.5193600400000000 O
atom 7.6607274299999997 1.1336691999999999 7.5546699999999998 O
atom 7.7641355100000000 6.4175942600000004 2.6087533299999999 O
atom 7.8407785800000003 6.4421556400000002 7.6268590200000004 O
atom 2.7241132200000000 1.3066104800000000 4.9122767400000003 O
atom 2.6302954900000000 1.4225456200000000 10.0469939099999994 O
atom 2.5604959300000001 6.3319902900000002 4.9857813400000000 O
atom 2.5298560600000002 6.7848231400000003 9.9470401600000002 O
atom 7.7392038699999999 1.3502878599999999 5.0345335100000002 O
atom 7.6697585999999998 1.3639673400000001 10.0538865499999996 O
atom 7.7202601700000004 6.5394092099999996 5.1266636800000001 O
atom 7.7381200000000003 6.5896033000000003 10.1700019099999999 O
atom 2.3404499099999998 3.8214709899999999 4.8642161399999999 O
atom 2.2336774699999999 3.9423893600000000 10.0078391000000000 O
atom 2.2460102200000001 9.1982779800000003 4.9988978299999998 O
atom 2.1237489500000000 9.4100124199999993 10.3319183999999993 O
atom 7.3273291399999998 3.8999770699999998 5.0588137700000004 O
atom 7.2958821100000000 3.9841962999999998 10.1112757400000000 O
atom 7.4548809000000000 9.1725876799999995 5.1130449200000001 O
atom 7.3038945899999996 9.2248388699999992 10.1006575400000003 O
atom 2.3956107100000001 3.6073379200000000 2.4379766900000002 O
atom 2.1983844299999999 3.7638571600000001 7.3554821600000002 O
atom 2.6759397599999999 8.6235025800000003 2.6862444000000001 O
atom 2.2562634099999999 9.0929211300000006 7.7200718200000003 O
atom 7.3394193599999999 3.7632371099999999 2.5520841600000002 O
atom 7.2524624199999996 3.7920070899999998 7.5917042199999996 O
atom 7.4326472399999997 9.0348962900000007 2.5725383200000000 O
atom 7.3684393400000001 8.9625477799999995 7.5745555800000002 O
