lattice_vector 10.1351423999999994 0.0524902500000000 0.7732318000000000 
lattice_vector 0.0281031000000000 10.3315436399999996 -0.0747051400000000 
lattice_vector 0.7920996100000000 -0.1130611100000000 10.4043015099999998 
atom 1.2121451299999999 0.2101268700000000 1.7074176000000001 Si
atom 1.9506354500000000 0.1590803000000000 6.7788687200000002 Hf
atom 1.5230491500000001 5.3753863800000001 1.6128814199999999 Hf
atom 1.9810000699999999 5.3100182100000000 6.8225226499999998 Hf
atom 6.5763443099999996 0.2534879300000000 1.9864266799999999 Hf
atom 7.0007619300000004 0.1847596300000000 7.1886024800000001 Hf
atom 6.5687624099999997 5.4196761899999997 1.9635753899999999 Hf
atom 6.8332213199999998 5.1948091500000002 7.0834895099999997 La
atom 1.7356202599999999 2.3038126600000002 4.1007742399999998 Hf
atom 2.1869163100000000 2.2198141599999999 9.4242696400000003 Hf
atom 1.8184032900000000 7.4477032799999998 4.2002496300000001 Hf
atom 2.1672994299999999 7.5014785799999997 9.4098775499999991 Hf
atom 6.8185873499999996 2.3494256400000002 4.5862862099999999 Hf
atom 7.2166612099999998 2.2961684899999999 9.8182929600000008 Hf
atom 6.7895633399999999 7.5590927199999998 4.5365749700000002 Hf
atom 6.9501039400000000 7.6681942100000002 9.7227060200000004 La
atom 3.7410812800000000 2.7548679400000000 1.3297133299999999 Hf
atom 4.0829209200000003 2.7122662900000001 6.5128482999999999 Hf
atom 3.6262821100000000 8.0031728900000001 1.4145923499999999 Hf
atom 4.1644741500000002 7.9618769900000004 6.5475732300000002 Hf
atom 8.8444519100000001 2.7703088299999998 1.7915986900000000 Hf
atom 9.2961226900000007 2.7542142300000001 6.9240825700000004 Hf
atom 8.8378620100000003 7.9898999399999999 1.6463781900000001 Hf
atom 9.3604951900000000 8.0718794400000000 6.6767946900000004 Hf
atom 3.9988484700000000 4.8941509099999996 3.9505517900000000 Hf
atom 4.2794564499999996 4.8528945800000001 9.2064714300000006 Hf
atom 3.9622217000000002 10.0841384999999999 3.8192811000000000 Hf
atom 4.3421115400000003 10.1426668800000002 9.1175584599999997 Hf
atom 9.0492826999999991 4.9531631100000002 4.3051179499999996 Hf
atom 9.5684164900000006 4.7596527499999999 9.6696658299999996 Hf
atom 9.0016363500000001 10.1296994799999993 4.2239904199999998 Hf
atom 9.4995472200000002 10.0816526100000008 9.4370096199999995 Hf
atom 0.5527499500000000 1.5517338899999999 0.8785628500000000 O
atom 0.8669964999999999 1.6601414100000000 5.9556704299999996 O
atom 0.4504733600000000 6.9307475099999998 0.8391260500000000 O
atom 0.8416555000000000 6.8330671599999997 6.0291088300000002 O
atom 5.5505183400000000 1.8175298200000001 1.2686512599999999 O
atom 5.9560221200000001 1.8180152900000000 6.5255278199999998 O
atom 5.4143001100000001 6.9921529600000003 1.4412850600000000 O
atom 5.9766637999999999 7.1746750900000000 6.4417886900000001 O
atom 0.6362875000000000 0.7430467500000000 3.2964741399999999 O
atom 1.0276037200000001 0.7937478100000001 8.6029659299999999 O
atom 0.6455190900000000 5.9776924500000002 3.4322147099999998 O
atom 1.0595083700000001 5.9486309400000001 8.6590392000000005 O
atom 5.7066202800000001 0.7965986000000000 3.8493076500000001 O
atom 6.2463624299999996 0.5542179300000000 9.1689143000000008 O
atom 5.7932711799999996 5.8825165300000002 3.9475901000000002 O
atom 6.0389414600000002 5.7261425600000004 9.1631583899999995 O
atom 4.8573290699999996 4.3356713500000001 2.1098180700000002 O
atom 4.8188039399999996 4.3946624600000002 7.2372779899999999 O
atom 4.8528504600000000 9.5462006099999996 1.9651693299999999 O
atom 5.2419197600000000 9.5473885400000000 7.2662994500000000 O
atom 9.9471610199999994 4.3214864700000000 2.5077107199999999 O
atom 10.3131345999999997 4.3604983700000002 7.7252885200000003 O
atom 9.9691654199999995 9.5649090900000004 2.4283817600000002 O
atom 10.4277870799999999 9.5024864200000003 7.6127844199999997 O
atom 5.0718282600000002 3.3602186399999998 4.7291768899999997 O
atom 5.4616728400000003 3.2966791199999999 9.8615683799999996 O
atom 5.0175697200000000 8.5427335000000006 4.5878854699999998 O
atom 4.8408234800000001 8.3697846200000008 9.8677759500000004 O
atom 10.1996368999999998 3.4328974699999999 5.0706836199999996 O
atom 10.5881422300000008 3.3200166400000000 10.4498604200000003 O
atom 10.2243215500000009 8.6762896499999993 5.0098494400000000 O
atom 10.5400186100000006 8.5340168300000006 10.2319990700000005 O
atom 2.7990963600000001 1.1787427900000000 2.4836442700000001 O
atom 3.3857579800000002 1.2613051399999999 7.8335377800000003 O
atom 3.0008712399999999 6.4236287499999998 2.7314450300000002 O
atom 3.3773088300000000 6.4955145800000000 7.9264735100000001 O
atom 8.0631528899999996 1.3223781200000000 3.0948659799999998 O
atom 8.4667778899999995 1.2791116600000001 8.2594782700000007 O
atom 8.0687487299999994 6.5066457099999999 3.0267631900000000 O
atom 3.2046418200000000 1.2150900499999999 5.1903370600000001 O
atom 3.7953392899999998 1.3759975400000000 10.3025649399999999 O
atom 3.2431060100000000 6.3632410699999999 5.3254296200000004 O
atom 3.5208200000000001 6.3165504600000002 10.5631111600000001 O
atom 8.2863124999999993 1.2171012900000000 5.6803583499999997 O
atom 8.7097802200000007 1.2155562099999999 10.8867143399999993 O
atom 8.3729841700000005 6.4820379399999997 5.6405277600000003 O
atom 8.6956363499999991 6.3036378300000004 10.7962330200000007 O
atom 2.2881850799999999 3.9357350699999998 0.2852375000000000 O
atom 2.6710135300000002 3.8601889699999998 5.4153865899999998 O
atom 2.1029175599999999 9.5244982300000007 0.5128759700000000 O
atom 2.7323863099999999 9.0421173699999997 5.4302028499999997 O
atom 7.4078124200000000 3.9142768900000000 0.6964597700000000 O
atom 7.9233559400000004 3.7633545000000002 5.7176452900000001 O
atom 7.4830390099999997 9.2448933699999998 0.5995229300000000 O
atom 7.7755776200000000 9.1214830700000000 5.6861053200000002 O
atom 2.5427067700000001 3.7576496000000001 2.8466888899999998 O
atom 2.7235355299999999 3.7101821199999998 8.0904274800000007 O
atom 2.5070833499999998 8.8938489000000001 2.9123674700000000 O
atom 2.8763599399999999 8.9906579299999994 8.0577067200000005 O
atom 7.5748744400000003 3.8048951000000000 3.2230508000000002 O
atom 8.1245455199999999 3.7252341599999999 8.5427663200000001 O
atom 7.5976075600000001 8.9925040099999993 3.1470219199999998 O
atom 8.1609383100000006 8.9126956300000000 8.1873231600000000 O
