lattice_vector 5.0626378399999998 -0.0162766400000000 0.0097300100000000 
lattice_vector 0.0010196500000000 10.4546782999999994 -0.0631006500000000 
lattice_vector 0.0165768500000000 -0.0714130800000000 10.1890721499999994 
atom 1.2629766400000000 -0.0779414000000000 1.2435352399999999 La
atom 1.3560139099999999 0.1120219300000000 6.3544252700000001 Hf
atom 1.3945125400000000 5.3635855399999999 1.2761430899999999 Hf
atom 1.3646393800000001 5.3475428599999999 6.3322765700000003 Hf
atom 1.4082006300000001 2.4165607499999999 3.8759528799999998 Hf
atom 1.3370065799999999 2.4056012600000001 8.7909157100000002 Hf
atom 1.3754839800000001 7.5813633999999999 3.8571588700000001 Hf
atom 1.3966255400000001 7.5687650800000004 8.8762789099999999 Hf
atom 3.7456037599999998 2.6260536700000001 1.1902354300000000 La
atom 3.7339092500000000 2.7580377500000002 6.3526657200000001 Hf
atom 3.7428123900000001 7.8657762499999997 1.2313633900000001 Hf
atom 3.7331634299999998 7.9383614299999996 6.3306091999999996 Hf
atom 3.7080585899999998 4.9946978800000004 3.8102854200000000 Hf
atom 3.6936215799999998 5.0148711800000001 8.8578591600000003 Hf
atom 3.6964538600000001 10.2187654899999991 3.8808050700000001 Hf
atom 3.6954133499999999 10.1834807000000005 8.7940797100000001 Hf
atom 0.5817843200000000 1.9909473400000000 2.0928196500000000 O
atom 0.3916962000000000 1.8866671500000001 6.9736425600000000 O
atom 0.4379623500000000 7.2241679799999998 1.9922195400000000 O
atom 0.3457380600000000 7.0910120799999996 7.0821341599999998 O
atom 0.3686498100000000 0.6256686900000000 4.5488435899999997 O
atom 0.0824037400000000 0.9119537900000000 9.5650981000000002 O
atom 0.3780168300000000 5.8801971499999999 4.5333017900000003 O
atom 0.2841536500000000 5.9734601100000004 9.6669188300000002 O
atom 4.7540138499999998 4.6586917600000000 2.0409814200000000 O
atom 4.7014292800000002 4.5235378300000004 6.9849991600000001 O
atom 4.3517393699999998 9.7712845500000007 1.9622388600000000 O
atom 4.7193279300000004 9.6801983899999993 7.0338294499999998 O
atom 4.7004169200000003 3.2491756399999998 4.5126523900000004 O
atom 4.7541658499999997 3.3949421800000001 9.3538553699999998 O
atom 4.7513518799999996 8.4685675400000004 4.5547494200000003 O
atom 4.9677938099999999 8.6426496099999994 9.7279031899999993 O
atom 2.7262056499999998 1.1327918800000001 2.7755054399999999 O
atom 2.7523058499999999 1.1741640300000000 7.5664184099999998 O
atom 2.7707154200000002 6.3758351400000004 2.5069142599999998 O
atom 2.7319494600000001 6.4101337699999998 7.5823188500000001 O
atom 2.7469240400000001 1.3206231300000000 5.1648084100000000 O
atom 2.5486410300000002 1.1638141099999999 9.9414770800000003 O
atom 2.7593741899999999 6.5535151400000000 5.0637016199999998 O
atom 2.7342501000000001 6.4836750299999997 10.1434483199999992 O
atom 2.3641205300000001 3.9539049199999998 5.1058604799999996 O
atom 2.2588151600000002 3.9704425200000002 10.0752101500000002 O
atom 2.3373838000000000 9.1560568500000006 5.0682213699999998 O
atom 2.5719901400000000 8.9377772400000008 10.0269963000000004 O
atom 2.2670866500000000 3.9135588000000001 2.6193810399999999 O
atom 2.3417604900000000 3.8133682699999998 7.5731662899999996 O
atom 2.4524502600000000 8.8041065799999991 2.5846402400000001 O
atom 2.3228342799999999 9.0030768000000005 7.5516259899999998 O
