lattice_vector 10.0714385899999996 -0.0683905700000000 -0.0667499400000000 
lattice_vector -0.0147655400000000 10.3126582500000001 -0.0189058100000000 
lattice_vector -0.0884052000000000 -0.0454281900000000 5.2250027200000000 
atom 1.1312390500000000 -0.0041134100000000 1.4976639199999999 La
atom 1.3485513099999999 5.3950230299999999 1.6678922599999999 Hf
atom 1.2350736400000000 2.3995417899999998 4.3290689300000000 Hf
atom 1.0495303499999999 7.7245426100000003 4.1199076999999997 Hf
atom 3.6130072599999998 2.8049617200000001 1.6297230599999999 Hf
atom 3.6310042199999999 7.8369640399999998 1.7014844200000001 Hf
atom 3.4911036800000002 4.9340530500000002 4.3098421099999999 Hf
atom 3.6514937600000001 9.9379089599999997 4.3665621899999998 Hf
atom 6.4422794899999998 0.1714719000000000 0.8250681200000000 Hf
atom 6.4061208299999999 5.2983503299999999 0.7428030900000000 Hf
atom 6.3313602299999996 2.2998783100000000 3.3876039699999998 Hf
atom 6.3724687400000004 7.4194045400000004 3.4004939300000001 Hf
atom 8.6327892100000003 2.7824279999999999 0.7655848000000000 Hf
atom 8.6445364799999993 7.8037036700000000 0.9040845400000000 Hf
atom 8.5978819200000007 4.8720928499999996 3.3511230699999999 Hf
atom 8.5688063700000008 10.0192907099999999 3.5364714700000000 Hf
atom 0.3345618200000000 1.9915354599999999 0.8736709000000000 O
atom 0.3389276000000000 6.8732983599999997 0.6685869600000000 O
atom 0.2595899700000000 0.8381992300000000 3.5410277500000000 O
atom 0.2407106400000000 6.0331025399999998 3.3843767599999999 O
atom 4.6938861599999999 4.2079114799999999 0.7396634000000000 O
atom 4.7384893600000000 9.3755499100000002 0.8290547200000000 O
atom 4.5958340399999997 3.3756762999999999 3.3808946899999999 O
atom 4.7346726500000003 8.5260955999999997 3.3993632499999999 O
atom 2.6478649500000002 6.4500022899999996 3.0302202700000000 O
atom 2.8399550800000002 1.3340311199999999 0.1945263700000000 O
atom 2.8459230099999999 6.3170252299999996 0.4801032400000000 O
atom 2.1806432199999999 3.7827297799999999 2.9494164800000000 O
atom 2.3511987599999999 9.0278456499999997 2.9790043399999999 O
atom 2.2212593900000002 3.9005841200000000 0.3619640100000000 O
atom 2.4266476099999998 8.7768676899999996 0.2374729200000000 O
atom 5.3142871800000000 1.6377539600000000 1.6807429300000001 O
atom 5.3599869199999999 6.7833810000000003 1.6645784200000000 O
atom 5.3491365300000000 0.7675191000000000 4.2946356300000001 O
atom 5.2916274999999997 5.9387775600000001 4.2700014900000003 O
atom 9.6099364499999993 4.3539402200000001 1.5769289300000000 O
atom 9.7540019099999995 8.5452343899999992 2.5711080399999999 O
atom 9.5770036600000008 3.3570763900000000 4.1919069400000000 O
atom 9.7334998200000005 9.0421639700000007 5.0185629199999999 O
atom 7.7187665799999996 1.1944628300000000 4.7803621300000003 O
atom 7.7601819200000000 6.3423482800000004 4.7445522899999997 O
atom 7.8201015099999998 1.2236153700000001 2.1600097599999999 O
atom 7.7241091500000003 6.3628567699999996 2.1232980399999999 O
atom 7.1744501899999999 3.7793933700000002 4.6807369599999999 O
atom 7.2415643799999998 8.8642837799999992 4.7570783600000004 O
atom 7.2144291300000001 3.7998406100000000 2.0825874600000001 O
atom 7.3099192799999999 9.0188264599999997 2.1200719800000001 O
