lattice_vector 10.0958195199999992 0.0390345600000000 0.8205022600000000 
lattice_vector 0.0391988800000000 10.2277367199999993 0.0094124500000000 
lattice_vector 0.8344765200000001 -0.0498867600000000 10.4327961699999996 
atom 1.3344157100000000 0.1114745100000000 1.8064657300000000 Si
atom 1.8119995799999999 0.1140958100000000 6.9048841799999998 Hf
atom 1.5770110300000000 5.3727022800000004 1.6562655900000001 Hf
atom 1.9602501900000000 5.2877222200000000 6.8494198600000002 Hf
atom 6.6201300600000001 0.2507458800000000 2.0320735600000002 Hf
atom 6.9739355500000002 0.2058274200000000 7.2587818700000000 Hf
atom 6.5653251299999997 5.3382688399999996 2.0359403399999998 Hf
atom 7.0271096300000000 5.3199783099999998 7.2948657099999998 Hf
atom 1.6170536000000000 2.3666342899999999 4.0941773599999998 Hf
atom 2.1838245199999999 2.2529867900000000 9.4330511099999992 Hf
atom 1.7542951000000000 7.4631490700000001 4.2638568699999997 Hf
atom 2.1472673800000002 7.4246639999999999 9.4677225099999998 Hf
atom 6.8646899499999998 2.3713640699999998 4.6533639899999999 Hf
atom 7.2157607900000000 2.3427170400000001 9.9013606500000009 Hf
atom 6.7779975099999996 7.4464440800000000 4.6655062899999997 Hf
atom 7.1678189300000001 7.4398945799999998 9.9132364400000004 Hf
atom 3.7047865999999998 2.7715669400000000 1.3121908499999999 Hf
atom 4.1794691700000000 2.8113841200000000 6.6165583000000003 Hf
atom 3.7015429700000002 8.0226412099999997 1.4190267999999999 Hf
atom 4.1889022899999997 7.8521943299999997 6.6335572200000001 Hf
atom 8.9223511000000002 2.7481907799999998 1.8219681400000001 Hf
atom 9.2324942900000000 2.7531897800000000 7.0394316600000000 Hf
atom 8.8310785799999998 7.9233031799999996 1.8084343899999999 Hf
atom 9.1823499799999997 7.8458912600000001 7.0275032900000003 Hf
atom 3.9760941900000000 4.8780605799999996 3.9851435999999998 Hf
atom 4.3678372799999998 4.9073549800000000 9.2357782200000003 Hf
atom 3.9714651299999999 10.2045375200000006 4.0571151299999997 La
atom 4.3964434900000002 10.0543478999999998 9.2203237300000005 Hf
atom 8.9978590799999996 4.9498854600000000 4.3836083700000001 Hf
atom 9.4467829600000002 4.8735020599999999 9.6657980600000002 Hf
atom 8.9994458000000002 9.9999181200000002 4.4215992000000002 Hf
atom 9.3895568899999997 9.9860959299999994 9.6499607500000000 Hf
atom 0.5921122800000000 1.4842271899999999 0.8678036700000000 O
atom 0.8973593700000000 1.6322019900000000 5.9498989199999999 O
atom 0.4428367300000000 6.8203339600000001 0.8535049000000000 O
atom 0.8303261400000000 6.7626253199999997 6.0766475099999999 O
atom 5.4803737600000000 1.7530108000000000 1.2959864000000001 O
atom 5.8643336699999997 1.6897389700000001 6.4452190299999996 O
atom 5.4662995199999997 6.8753412599999999 1.2959630400000000 O
atom 5.9426268599999998 6.8256174500000002 6.5346536000000004 O
atom 0.6556545800000000 0.7261367200000000 3.3742416700000000 O
atom 0.9903994000000000 0.8144539600000000 8.6640131000000000 O
atom 0.6527621200000000 5.9497470100000003 3.4709276099999999 O
atom 1.0738473799999999 5.9314037099999997 8.6821254400000001 O
atom 5.9920438899999997 0.7673499400000000 3.9039912200000000 O
atom 6.1493395199999998 0.8195157500000000 9.0836569199999992 O
atom 5.7569721200000004 5.8483882500000002 3.9265914999999998 O
atom 6.1082222599999998 5.9500837899999999 9.0952312000000006 O
atom 4.8344109199999998 4.2957454899999998 2.1530290299999999 O
atom 5.2678466999999998 4.2790106999999997 7.3815992100000001 O
atom 4.9425042399999999 9.4077420699999994 2.1087513000000002 O
atom 5.2565302599999999 9.4053594500000006 7.3617562799999998 O
atom 9.9849621099999997 4.2537261300000004 2.6265771899999999 O
atom 10.3539732799999999 4.2141908800000003 7.8443047999999997 O
atom 10.0045266200000000 9.4219780800000006 2.5925012000000001 O
atom 10.2531574400000007 9.3416097199999992 7.8478614699999998 O
atom 5.0106374899999997 3.2680980000000002 4.7189302299999998 O
atom 5.5530548399999997 3.4713082900000001 10.0099119699999992 O
atom 5.0200780700000003 8.3317037999999997 4.7858184100000001 O
atom 5.3931604599999998 8.4899795800000000 9.9972509899999995 O
atom 10.0521139500000007 3.4086872300000000 5.1854109900000003 O
atom 10.5928698200000007 3.3945743700000000 10.4775986400000001 O
atom 10.0931984299999993 8.5144710400000001 5.2312287900000003 O
atom 10.5326016399999993 8.5187466100000009 10.4303800899999999 O
atom 2.6912338000000000 1.2720544800000000 2.3879828999999999 O
atom 3.3469204399999999 1.2625839999999999 7.7356175000000000 O
atom 3.0331897500000000 6.4705159800000001 2.7693624300000002 O
atom 3.4148576500000001 6.3983134200000000 7.9604084300000002 O
atom 8.1905672400000000 1.3386902400000000 3.1345452599999999 O
atom 8.4761756399999992 1.3093279499999999 8.3599557000000004 O
atom 8.0650611800000007 6.4353242499999999 3.1367305299999999 O
atom 8.4814906200000006 6.4033679599999997 8.3962481300000000 O
atom 3.8565749100000000 1.4867433600000000 10.2282917900000001 O
atom 3.2083589600000000 6.2944297699999998 5.3674906299999998 O
atom 3.6334639100000001 6.4176401900000002 10.5762374099999992 O
atom 8.2813082199999997 1.2329347600000000 5.7751922200000001 O
atom 8.6892083600000003 1.2263343900000001 10.9826921199999994 O
atom 8.2623327399999997 6.3385935099999999 5.7711010399999996 O
atom 8.6761340600000008 6.3392040600000001 10.9808239699999994 O
atom 2.2822385800000000 3.9684083900000000 0.2734839700000000 O
atom 2.6803273399999998 3.7942036600000000 5.4789809500000004 O
atom 2.2488505200000000 9.3987267600000006 0.4664367300000000 O
atom 2.6351662400000002 8.9419778900000004 5.6192957600000000 O
atom 7.4007146800000001 3.8862542300000000 0.7326433500000000 O
atom 7.7603504699999997 3.8655530200000001 5.9495671300000001 O
atom 7.3524403999999999 9.0140503699999996 0.7033501100000000 O
atom 7.7298708400000002 8.9751919699999991 5.9202909600000000 O
atom 2.5149197000000001 3.7931783200000000 2.8827336099999998 O
atom 2.9346737100000002 3.7648632700000002 8.1242249599999994 O
atom 2.2964467800000001 8.9221110800000005 2.8200978600000002 O
atom 2.9238475300000002 8.8824109399999998 8.2019372500000003 O
atom 7.5889556000000002 3.7952663900000001 3.2981487399999998 O
atom 7.9862951799999999 3.7805244500000001 8.5524228099999995 O
atom 7.6198329500000002 8.8945036700000006 3.2997913099999998 O
atom 7.9156319499999999 8.8820634599999995 8.5437892099999999 O
