lattice_vector 10.1786075799999995 0.0617202800000000 0.8663398000000000 
lattice_vector -0.0130115300000000 10.2717072500000004 -0.1371013900000000 
lattice_vector 0.8999689800000000 -0.1024084900000000 10.5621105100000001 
atom 1.0015427200000000 0.1690116800000000 1.3400024200000000 Si
atom 1.9520346099999999 0.1589122100000000 6.9178730799999997 Hf
atom 1.5383183800000000 5.3634964600000004 1.5693905600000000 Hf
atom 1.9888820899999999 5.2976073399999999 6.8640580199999999 Hf
atom 6.7023449099999999 0.3015707700000000 2.1749584999999998 La
atom 7.0533514400000001 0.1896953100000000 7.4181331200000002 Hf
atom 6.4463356799999998 5.5128360599999997 1.9256970600000001 Hf
atom 7.0656395999999999 5.3364692900000001 7.3174201300000004 Hf
atom 1.9012253299999999 2.2739405499999998 4.1600985000000001 Hf
atom 2.2945937700000001 2.3105209599999998 9.4602498199999996 Hf
atom 1.8302550600000000 7.4208550500000001 4.2894040799999997 Hf
atom 2.1684191400000001 7.4167280599999996 9.4588672799999998 Hf
atom 6.7099942400000003 2.3546619099999999 4.9464095700000001 Hf
atom 7.2881445500000002 2.3530467499999999 9.9699803399999993 Hf
atom 6.8670670300000003 7.4430231899999999 4.6720030799999996 Hf
atom 7.2169215400000004 7.5445261199999996 9.9095421800000008 Hf
atom 3.7565732999999999 2.7702661800000001 1.3723576399999999 Hf
atom 4.1546518199999998 2.7856103499999998 6.6949923699999996 Hf
atom 3.6129866000000002 8.0566411799999997 1.4123820800000000 Hf
atom 4.2478772600000001 7.8867908900000003 6.6487156199999999 Hf
atom 8.9632603900000003 2.8624238900000001 1.6016744599999999 Hf
atom 9.3375872100000006 2.7355332300000001 7.0491504899999997 Hf
atom 8.8006412500000000 7.8793923599999998 1.6678959799999999 Hf
atom 9.2822049100000008 7.8707324800000000 7.0508380199999996 Hf
atom 3.9638141800000000 4.8977272799999998 3.9662346799999999 Hf
atom 4.4567637099999997 4.9209379300000000 9.2861873199999998 Hf
atom 3.9992319400000000 10.0223863800000004 3.9968910300000000 Hf
atom 4.4267349200000004 10.0867979999999999 9.2464975999999997 Hf
atom 9.2286039500000001 4.9285875399999997 4.4577570599999996 Hf
atom 9.5210383400000005 4.9139848300000004 9.6708855499999995 Hf
atom 9.2859353900000006 10.1885770299999994 4.5002798799999999 La
atom 9.5327411000000009 10.0320821000000002 9.5998770199999992 Hf
atom 0.4202999900000000 1.5212589000000001 0.5673536400000000 O
atom 0.7120455900000000 1.3405218299999999 5.7404225499999999 O
atom 0.3842155300000000 6.8526022600000003 0.7738884000000000 O
atom 0.8539111500000000 6.7126384699999999 6.0889651999999996 O
atom 5.5094872800000001 1.8855599000000001 1.1410562099999999 O
atom 5.8469736100000000 1.7225847000000001 6.7276018899999999 O
atom 5.4046897200000004 6.9809609500000001 1.1718452399999999 O
atom 5.9506887400000004 6.7770067799999998 6.4886728900000001 O
atom 1.0994324200000001 0.8360622300000000 2.8497957000000000 O
atom 1.0386432000000001 0.9203735700000000 8.5961789399999997 O
atom 0.6829150100000000 5.9164700699999999 3.4621527699999999 O
atom 1.0595893100000000 5.9565681000000001 8.6697726199999998 O
atom 5.8380852499999998 0.7340970999999999 4.2704790299999997 O
atom 6.1979896700000001 0.8279291500000000 9.2264803299999993 O
atom 5.6751535999999998 6.0191117800000002 3.8000466300000002 O
atom 6.1422429100000002 6.0393807500000003 9.1044461999999999 O
atom 4.8973364500000001 4.2835407999999999 2.1970838200000000 O
atom 5.3305151700000000 4.2725338300000004 7.4786071099999996 O
atom 4.7830526500000001 9.4112077099999993 2.2151719000000001 O
atom 5.3141618099999999 9.3788775799999993 7.4583420100000000 O
atom 9.9546253700000005 4.2919448200000003 2.6232713200000002 O
atom 10.4763496600000003 4.1881477299999998 7.8921777899999999 O
atom 9.8138950499999993 9.6100370000000002 2.2555958100000000 O
atom 10.4231566400000002 9.3485024100000000 7.8408217000000002 O
atom 5.1001410399999996 3.5075274900000002 4.9120422000000001 O
atom 5.6172716200000004 3.5262738499999999 10.1016258800000003 O
atom 5.1321669900000000 8.5094405700000006 4.8370229699999996 O
atom 5.4143962200000004 8.5922225500000007 10.1344286500000003 O
atom 10.2310137700000006 3.3276828900000002 5.2020254000000001 O
atom 10.7626559299999993 3.5258893900000001 10.4997950400000004 O
atom 10.2694600099999995 8.4331093399999997 5.2981239699999998 O
atom 10.6720287299999992 8.5535983000000009 10.4440109000000003 O
atom 3.4901481599999999 1.5344019600000001 2.9939408500000000 O
atom 3.4357200600000000 1.2830399800000001 8.0049670600000002 O
atom 2.9995693200000000 6.4156809299999997 2.6712923800000001 O
atom 3.4342098800000000 6.4219857300000003 7.9697698099999998 O
atom 8.5685603500000003 1.3033515000000000 8.4608500000000006 O
atom 8.0560138899999991 6.1334758200000001 3.0954771900000000 O
atom 8.5321779600000003 6.4413393100000000 8.4118918100000002 O
atom 3.1910117300000000 1.2108256799999999 5.4770684999999997 O
atom 3.7889724700000000 1.3785375400000000 10.5487350600000003 O
atom 3.2689768500000000 6.3017680499999997 5.3632404999999999 O
atom 3.6409829999999999 6.4209470000000000 10.6172393700000001 O
atom 8.1584950099999993 1.3311043600000001 5.9947253500000004 O
atom 8.8944626899999992 1.3102153200000000 10.9988097299999996 O
atom 8.3551006099999992 6.3625748800000004 5.7623701799999996 O
atom 8.6823563499999992 6.3704122999999999 10.9928930699999992 O
atom 2.2699886299999998 3.9859577599999998 0.2181246600000000 O
atom 2.6853557600000002 3.8155471400000001 5.4886657300000001 O
atom 2.0794700000000002 9.4084684799999998 0.4299570600000000 O
atom 2.7611448300000001 8.9413359999999997 5.5782793799999997 O
atom 7.4382943700000004 4.0052941899999999 0.7501574900000000 O
atom 7.8719512900000002 3.9188470299999998 5.9230224700000003 O
atom 7.4463366600000001 9.0163377800000006 0.4988042600000000 O
atom 7.7787945299999999 8.9485531399999996 6.0114968500000003 O
atom 2.4614668399999999 3.8390203100000000 2.8446803400000000 O
atom 2.9791069000000001 3.7962180299999999 8.1575139599999993 O
atom 2.5408372500000000 8.8428277600000005 3.0293956500000001 O
atom 2.9541324699999998 8.9250660199999992 8.2206339800000006 O
atom 7.9302018700000003 2.3342409900000001 3.2843382600000002 O
atom 8.0701603800000008 3.8157649700000000 8.5967629999999993 O
atom 7.7357127300000004 8.6615262800000004 3.2719907799999999 O
atom 8.0087593699999999 8.9537477600000006 8.5525536899999999 O
