lattice_vector 10.1185559699999992 0.0370673600000000 0.7360784700000000 
lattice_vector 0.0438628200000000 10.2187891799999999 0.0432393300000000 
lattice_vector 0.4768147400000000 -0.1013318400000000 5.2646194900000003 
atom 1.2259099600000001 0.2022445000000000 1.6688651999999999 Si
atom 1.5830534400000000 5.3104842600000000 1.7109252800000001 Hf
atom 6.5947339100000004 0.2652988900000000 1.9078701100000000 Hf
atom 6.6171107200000003 5.2851624599999996 2.0569739700000000 Hf
atom 1.6842072800000001 2.2455555199999999 4.0493416499999997 Hf
atom 1.7799298600000000 7.3403196399999997 4.3627063799999997 Hf
atom 6.8599513999999999 2.3172739999999998 4.5900129600000001 Hf
atom 6.8650009499999998 7.3515221999999998 4.7407359099999997 Hf
atom 3.7752458400000002 2.7367859000000001 1.3408192800000001 Hf
atom 3.7277860299999999 7.8943714099999998 1.5438091700000001 Hf
atom 8.9132677600000001 2.7155031100000002 1.7763163200000001 Hf
atom 8.8421861600000007 7.8766337100000001 1.8078705799999999 Hf
atom 4.0471792300000002 4.8238714199999997 4.0680272400000002 Hf
atom 4.0920751900000001 10.0911630300000006 4.1545617699999999 La
atom 9.0883587400000003 4.8329342300000002 4.4298990800000002 Hf
atom 9.0683777100000000 9.9031383599999998 4.4148244600000002 Hf
atom 0.4708754200000000 1.3885332500000001 0.6836258800000000 O
atom 0.3967549700000000 6.7152065700000003 0.9087128200000000 O
atom 5.2886138200000001 1.3650259300000001 0.7715648500000000 O
atom 5.4660470900000000 6.6936777400000000 1.2560588399999999 O
atom 0.6100234000000000 0.7391137400000000 3.2515043299999999 O
atom 0.6729525100000000 5.9035221499999997 3.5286059999999999 O
atom 5.6573098100000001 1.3606439900000000 3.3263351200000000 O
atom 5.7238936599999999 5.9727713700000002 3.8408987799999998 O
atom 5.0036942800000004 4.0571112400000002 2.3419769000000001 O
atom 5.0908037700000000 9.1975688299999998 2.2701799500000002 O
atom 10.0953943299999995 4.0638899600000000 2.6903356899999999 O
atom 10.0278158699999995 9.3422046600000002 2.5899033400000002 O
atom 5.3209173999999999 3.5720507900000000 5.0206452400000003 O
atom 5.1984856099999996 8.4158405999999992 5.0824352499999996 O
atom 10.2440694499999996 3.3968012000000001 5.3030509500000003 O
atom 10.2094691999999991 8.4781474899999996 5.2692152700000001 O
atom 2.6273931600000000 1.1949888300000000 2.2358506399999998 O
atom 3.0683031000000001 6.2856715999999997 2.7999608800000000 O
atom 8.1406291799999995 1.2319186600000001 3.0577142199999998 O
atom 8.1235738299999998 6.3651799999999996 3.1570769599999999 O
atom 3.3626182600000001 1.7680746300000001 4.9306301299999999 O
atom 3.2845122400000002 6.3815511300000001 5.4455491399999998 O
atom 8.3116818200000004 1.1789975600000000 5.6883580800000004 O
atom 8.3452771000000006 6.2550392099999996 5.7943650900000003 O
atom 2.3687144000000000 4.0196987699999998 0.3376366400000000 O
atom 2.1805395600000002 9.3030485200000008 0.7230100200000000 O
atom 7.4306223999999998 3.8475526499999999 0.7111308700000000 O
atom 7.3955702199999998 8.9725527700000001 0.6896527400000000 O
atom 2.5983861899999998 3.7201560200000001 2.9389272499999999 O
atom 2.5816599500000001 8.6897421799999996 3.1186797300000002 O
atom 7.6863590000000004 3.7561418099999999 3.3020681700000001 O
atom 7.6203520899999999 8.8642066199999991 3.3466203200000000 O
