lattice_vector 10.0596110000000003 0.0178110000000000 -0.0753960000000000 
lattice_vector 0.0203310000000000 10.2435709999999993 0.0490320000000000 
lattice_vector -0.0426300000000000 0.0308960000000000 10.4638139999999993 
atom 1.0364670000000000 0.2810320000000000 2.2174710000000002 Si
atom 1.3799060000000001 0.2288660000000000 6.9452069999999999 Hf
atom 1.3996480000000000 5.3458240000000004 1.8198719999999999 Hf
atom 1.3681120000000000 5.3309629999999997 7.0664049999999996 Hf
atom 1.3551010000000001 2.4366740000000000 4.4111500000000001 Hf
atom 1.4608030000000001 2.2854130000000001 9.6788950000000007 Hf
atom 1.3407270000000000 7.4882869999999997 4.4028520000000002 Hf
atom 1.4154080000000000 7.5178779999999996 9.6604620000000008 Hf
atom 3.6062490000000000 2.7601619999999998 1.7448370000000000 Hf
atom 3.5946889999999998 2.8374220000000001 7.0301689999999999 Hf
atom 3.5987149999999999 7.9607070000000002 1.7170490000000000 Hf
atom 3.5949890000000000 7.8628640000000001 7.0168710000000001 Hf
atom 3.6165630000000002 4.9570749999999997 4.4027019999999997 Hf
atom 3.5975069999999998 4.9281750000000004 9.6707660000000004 Hf
atom 3.5099600000000000 10.0883740000000000 4.2804130000000002 Hf
atom 3.6473570000000000 10.0681600000000007 9.6136959999999991 Hf
atom 6.4566739999999996 0.2380270000000000 0.7517210000000000 Hf
atom 6.2711220000000001 0.1397840000000000 6.1478780000000004 La
atom 6.4484409999999999 5.3528609999999999 0.8062310000000000 Hf
atom 6.4217630000000003 5.3564100000000003 6.0508329999999999 Hf
atom 6.3939890000000004 2.3666090000000000 3.3959030000000001 Hf
atom 6.4313640000000003 2.4389419999999999 8.6777409999999993 Hf
atom 6.3806029999999998 7.4774139999999996 3.3968240000000001 Hf
atom 6.4597300000000004 7.4827240000000002 8.6833500000000008 Hf
atom 8.7449580000000005 2.7317670000000001 0.8365030000000000 Hf
atom 8.6144710000000000 2.7868420000000000 6.0355480000000004 Hf
atom 8.7340660000000003 7.9474819999999999 0.8260270000000000 Hf
atom 8.6770650000000007 7.8764539999999998 6.0534410000000003 Hf
atom 8.6297309999999996 4.9306409999999996 3.4142739999999998 Hf
atom 8.6933380000000007 4.9063619999999997 8.6810740000000006 Hf
atom 8.5517520000000005 10.0349670000000000 3.4924110000000002 Hf
atom 8.7199050000000007 10.0839680000000005 8.6889979999999998 Hf
atom 0.5573610000000000 1.4832529999999999 1.0584769999999999 O
atom 0.3158080000000000 1.7403789999999999 6.1140260000000000 O
atom 0.3710090000000000 6.8402170000000000 0.9239110000000000 O
atom 0.3251210000000000 6.7921449999999997 6.1178759999999999 O
atom 0.2494740000000000 0.8429200000000000 3.5911960000000001 O
atom 0.3905340000000000 0.8467789999999999 8.7422769999999996 O
atom 0.2983680000000000 5.9868620000000004 3.5094080000000001 O
atom 0.3232620000000000 5.9944470000000001 8.7679729999999996 O
atom 4.7129880000000002 4.2781269999999996 0.8967520000000000 O
atom 4.6276560000000000 4.3806159999999998 6.1218370000000002 O
atom 4.7771270000000001 9.3909269999999996 0.8446310000000000 O
atom 4.3536489999999999 9.3507099999999994 5.9812519999999996 O
atom 4.6706989999999999 3.4561370000000000 3.4808729999999999 O
atom 4.6715739999999997 3.4814219999999998 8.7679130000000001 O
atom 4.6049239999999996 8.5803060000000002 3.4353069999999999 O
atom 4.7605620000000002 8.6276799999999998 8.6273719999999994 O
atom 2.4751379999999998 1.2776449999999999 2.8726010000000000 O
atom 2.7792319999999999 1.2660680000000000 8.1987369999999995 O
atom 2.7366910000000000 6.4941649999999997 3.0839370000000002 O
atom 2.7614429999999999 6.3813050000000002 8.3327329999999993 O
atom 3.0708600000000001 1.4436240000000000 0.2501940000000000 O
atom 2.7575660000000002 1.3633050000000000 5.5796880000000000 O
atom 2.7868119999999998 6.3904540000000001 0.4866400000000000 O
atom 2.7397269999999998 6.4477849999999997 5.6966520000000003 O
atom 2.2556630000000002 3.8816030000000001 3.1182870000000000 O
atom 2.2239529999999998 3.8254280000000001 8.3618539999999992 O
atom 2.0694439999999998 9.1497700000000002 2.8915639999999998 O
atom 2.2557320000000001 8.9414879999999997 8.2479189999999996 O
atom 2.2408960000000002 3.8670570000000000 0.5077469999999999 O
atom 2.2072639999999999 3.9006810000000001 5.7096119999999999 O
atom 2.4043670000000001 8.9271799999999999 0.3270130000000000 O
atom 2.0561530000000001 9.0403400000000005 5.5796010000000003 O
atom 5.3940359999999998 1.7595490000000000 1.6342740000000000 O
atom 5.3644910000000001 1.9982860000000000 6.9510540000000001 O
atom 5.3437210000000004 6.8487989999999996 1.6855389999999999 O
atom 5.3924349999999999 6.8885199999999998 6.9428260000000002 O
atom 5.1828029999999998 0.9139990000000000 4.1223060000000000 O
atom 5.4390320000000001 0.8473120000000000 9.4495339999999999 O
atom 5.3399020000000004 6.0217429999999998 4.3233180000000004 O
atom 5.3483429999999998 6.0076250000000000 9.5759659999999993 O
atom 9.7566720000000000 4.2357120000000004 1.7289950000000001 O
atom 9.7205969999999997 4.2433339999999999 6.9807139999999999 O
atom 9.8101079999999996 9.4873290000000008 1.7905150000000001 O
atom 9.7349949999999996 9.4297850000000007 6.9194849999999999 O
atom 9.6889780000000005 3.4788850000000000 4.3351550000000003 O
atom 9.7638800000000003 3.3888760000000002 9.6411289999999994 O
atom 9.6806959999999993 8.5509550000000001 4.3159210000000003 O
atom 9.7539079999999991 8.6009560000000000 9.6071790000000004 O
atom 7.8500120000000004 1.3017179999999999 10.0025530000000007 O
atom 7.7924889999999998 1.3230050000000000 4.6724690000000004 O
atom 7.8267870000000004 6.4318229999999996 10.0070139999999999 O
atom 7.7902009999999997 6.3757010000000003 4.7486569999999997 O
atom 7.8112259999999996 1.2962980000000000 2.1119080000000001 O
atom 7.8910270000000002 1.4156550000000001 7.4575050000000003 O
atom 7.7914360000000000 6.4422309999999996 2.1295009999999999 O
atom 7.8109409999999997 6.3756199999999996 7.3734950000000001 O
atom 7.3204940000000001 3.8612000000000002 10.0180009999999999 O
atom 7.2336669999999996 3.8489409999999999 4.7504840000000002 O
atom 7.3079650000000003 8.9887910000000009 10.0252949999999998 O
atom 7.2847600000000003 8.8524820000000002 4.7146929999999996 O
atom 7.3096370000000004 3.8524609999999999 2.1200980000000000 O
atom 7.2723069999999996 3.9128590000000001 7.3776690000000000 O
atom 7.3204989999999999 8.9959330000000008 2.1375760000000001 O
atom 7.4807499999999996 8.8530200000000008 7.5033339999999997 O
