lattice_vector 9.9678528499999999 -0.0492067000000000 0.0252908200000000 
lattice_vector -0.0096726500000000 10.4495639600000008 -0.0821230900000000 
lattice_vector 0.0994462600000000 -0.1251355500000000 10.0665224700000007 
atom 1.2015623499999999 0.3342736600000000 1.0138895299999999 Si
atom 1.5958816400000000 0.0319165200000000 6.5953967100000002 Hf
atom 1.3260159899999999 5.3658023500000001 1.1557400900000001 Hf
atom 1.4362646600000000 5.2989383200000004 6.2508318899999997 Hf
atom 6.2944508299999997 0.1326796700000000 1.2841491400000000 Hf
atom 6.2624652699999999 0.0119654700000000 6.2207494099999998 Hf
atom 6.3587565799999997 5.4143660599999999 1.2408132599999999 Hf
atom 6.3881772100000003 5.3201269499999997 6.2506897800000001 Hf
atom 1.4645804700000000 2.4098140300000002 3.5072342800000000 Hf
atom 1.4459832800000001 2.3842787699999999 8.8462798899999999 Hf
atom 1.3704743100000001 7.4561188899999999 3.7672282199999998 Hf
atom 1.3632810300000000 7.5447880500000002 8.7693365100000005 Hf
atom 6.2929820300000001 2.3764906200000002 3.7745560399999998 Hf
atom 6.4279845699999996 2.3105208600000000 8.7347688399999992 Hf
atom 6.4029070099999998 7.6423367700000000 3.7594281899999999 Hf
atom 6.4182478900000000 7.5801704100000000 8.7731632899999994 Hf
atom 3.8576179200000000 2.8321868299999999 1.0302291800000001 Hf
atom 3.7040334800000001 2.6784424499999999 6.2357745600000003 Hf
atom 3.6840720999999998 7.9236423900000004 1.2478392700000001 Hf
atom 3.7366499000000002 7.9374608200000001 6.2909826300000002 Hf
atom 8.5976596000000001 2.7488591599999999 1.2173649099999999 Hf
atom 8.7601929700000003 2.6029793699999999 6.3000480300000001 La
atom 8.7518996500000004 8.0092395399999994 1.1540418200000000 Hf
atom 8.7180903799999996 7.9008724199999998 6.2310462500000003 Hf
atom 3.7269989600000000 4.9871538500000003 3.7417834000000001 Hf
atom 3.7657820000000002 5.0300720500000002 8.6910525900000000 Hf
atom 3.5431089000000000 10.1296110499999994 3.7052621200000000 Hf
atom 3.7041473800000002 10.1721887399999993 8.9594321299999997 Hf
atom 8.6177604700000003 4.9655397700000004 3.6835638799999999 Hf
atom 8.6678377300000005 4.9600038700000004 8.7844223699999997 Hf
atom 8.9197354200000003 10.3586350899999999 3.6408162100000001 La
atom 8.6844219900000006 10.1534605899999999 8.7162637499999995 Hf
atom 0.3417364200000000 1.7845625500000000 1.6993449100000000 O
atom 0.6481872900000000 1.7487161300000000 7.1031689199999999 O
atom 0.3583630700000000 7.0815508700000001 1.9398531900000000 O
atom 0.4764303700000000 7.1245247799999998 6.9174524300000000 O
atom 5.1664247599999999 1.8129508400000001 2.0940781300000002 O
atom 5.3852585099999999 1.8671988399999999 6.9884776000000004 O
atom 5.3540730099999996 7.1096914299999998 1.9881882900000001 O
atom 5.3715985200000000 7.0169451599999997 7.0243475300000000 O
atom 0.5258523100000000 0.5221009400000000 9.4823758599999994 O
atom 0.3728150100000000 5.6904082599999999 4.4546115400000001 O
atom 0.3918720800000000 5.8582207300000002 9.5150030799999996 O
atom 5.1082675699999998 0.6967837900000000 4.6007867800000000 O
atom 5.2997844100000000 0.7606803800000000 9.7098627000000004 O
atom 5.3831300799999999 5.8896322400000001 4.4355132099999999 O
atom 5.4081129900000002 5.8522676999999996 9.5248030299999993 O
atom 4.7141075099999998 4.4934474800000004 1.9174313700000001 O
atom 4.6392463099999999 4.4659612900000001 6.8605720000000003 O
atom 4.6699437899999996 9.6941034100000003 1.9809187300000000 O
atom 4.6794094399999997 9.6346597700000007 7.1038576500000001 O
atom 9.6666676599999999 4.4116471900000001 1.9253730000000000 O
atom 9.7593071400000007 4.5447650499999996 7.0921277600000003 O
atom 9.9121205200000002 9.7002741799999992 1.5610692200000000 O
atom 9.6879350199999994 9.7357807899999997 6.8131756499999998 O
atom 4.6196634100000002 3.2499551300000000 4.4562821399999999 O
atom 4.7589555199999998 3.2830439899999999 9.3663044200000005 O
atom 4.7265892799999998 8.5117138699999995 4.5706248100000000 O
atom 4.7245078700000001 8.4787931200000006 9.5407274700000002 O
atom 9.6196413399999994 2.8169422599999998 4.0925927700000004 O
atom 9.6857568100000009 3.1686757700000001 9.4430177700000009 O
atom 9.7411357400000007 8.3559223899999999 4.4593003700000002 O
atom 9.6221273299999996 8.3639790699999992 9.3172374100000006 O
atom 2.1287507400000001 0.6321244800000000 2.5769987400000001 O
atom 2.9454792300000001 1.1476179399999999 7.7105303899999997 O
atom 2.6796429700000002 6.1839786500000002 2.4331558200000001 O
atom 2.7468108600000001 6.3832078000000001 7.5018082200000000 O
atom 7.5701446600000004 1.2670909400000001 2.4010438600000001 O
atom 7.5684925700000001 0.9486207400000000 7.5784537399999996 O
atom 7.7310603300000000 6.3870288700000000 2.4837964100000001 O
atom 7.7542952400000003 6.3595503100000004 7.5085617400000002 O
atom 2.4189410699999998 1.2658541000000001 5.0275424400000004 O
atom 2.6339364199999999 1.2984923399999999 10.2863397400000007 O
atom 2.7795344200000001 6.5132291200000001 4.9902286599999996 O
atom 2.7529362599999998 6.5661709999999998 9.9977974799999991 O
atom 7.4545219899999999 1.2533542300000000 4.9761215500000002 O
atom 7.7865996400000004 1.2457586899999999 9.9986097399999991 O
atom 7.7346836200000002 6.5265299499999996 4.9869659200000003 O
atom 7.7588235699999997 6.5196614700000000 10.0345278400000009 O
atom 2.2947676700000001 3.9076364200000002 4.9148158600000000 O
atom 2.4533771099999999 3.9661675299999999 9.9464520800000003 O
atom 2.3042096700000001 9.1426807700000001 5.1190122799999997 O
atom 2.3014566400000001 9.2989018100000003 10.2857916500000002 O
atom 7.2921006400000001 3.9748198600000002 4.9291888899999998 O
atom 7.3768114599999999 3.8617815300000000 10.0622944499999996 O
atom 7.3093097900000004 9.0810532399999992 4.9951470100000002 O
atom 7.3412794000000003 9.1364340500000001 9.9744561399999991 O
atom 2.4339500100000002 3.6362693400000001 2.3352199100000002 O
atom 2.3824134199999998 3.7359546600000000 7.4798487099999997 O
atom 2.5579919499999999 8.6216859800000005 2.7028459300000001 O
atom 2.3939222400000002 8.9810141100000003 7.6830133700000003 O
atom 7.2574692599999997 3.7979249600000000 2.4680590499999999 O
atom 7.2125050999999996 3.8567488399999998 7.5918509900000002 O
atom 7.4031651199999997 8.9981796700000007 2.3909744200000000 O
atom 7.3855556900000003 8.8960489200000001 7.4872208499999999 O
