lattice_vector 9.9829522799999992 -0.0096479600000000 0.0516250800000000 
lattice_vector -0.0007406400000000 10.4164251700000001 -0.0653507100000000 
lattice_vector -0.0897328300000000 -0.1078500400000000 10.0117971400000005 
atom 1.1049146800000000 0.2785584700000000 1.1306321399999999 Si
atom 1.2382409100000000 0.0385614400000000 6.2714696400000003 La
atom 1.3116171100000000 5.3435268499999999 1.2204215000000000 Hf
atom 1.2717087000000000 5.2829476700000004 6.2038554899999996 Hf
atom 6.3238216100000004 0.1624098300000000 1.2954082800000000 Hf
atom 6.2045244600000000 0.0616711600000000 6.2710993400000001 Hf
atom 6.3238507799999999 5.3682087999999997 1.2746204299999999 Hf
atom 6.2743400700000000 5.3333895900000003 6.2424627399999997 Hf
atom 1.2914413000000000 2.3680904200000001 3.6192314799999998 Hf
atom 1.1951914800000001 2.4402760300000002 8.7941557699999997 Hf
atom 1.3527735999999999 7.5733558800000003 3.7625816900000002 Hf
atom 1.2072433899999999 7.5480539999999996 8.7472490700000005 Hf
atom 6.3337069300000000 2.3629547199999998 3.7833092599999998 Hf
atom 6.2469584700000000 2.3391167600000000 8.7620972800000008 Hf
atom 6.3384362599999999 7.6182732700000004 3.7495647700000001 Hf
atom 6.2326826600000000 7.5612734499999998 8.7916246800000000 Hf
atom 3.6908847100000002 2.7317395000000002 1.1384799200000000 Hf
atom 3.6670480599999999 2.7795725400000002 6.1311590300000001 Hf
atom 3.6572722600000001 7.9252144099999997 1.2528009700000000 Hf
atom 3.6262386200000001 7.9059031400000004 6.2555294799999999 Hf
atom 8.6231048599999998 2.7775601600000002 1.2778540700000001 Hf
atom 8.5742974600000004 2.7127799000000001 6.2911592799999996 Hf
atom 8.7257616500000008 7.9602544699999997 1.2313889899999999 Hf
atom 8.5576124599999996 7.9235811399999996 6.2971553100000000 Hf
atom 3.6560437700000001 4.9871728700000002 3.7057657399999999 Hf
atom 3.5885918600000002 4.9707953399999996 8.7240909700000007 Hf
atom 3.6108853900000000 10.1624671600000003 3.6329701700000001 Hf
atom 3.5619214299999999 10.1240558099999998 8.8539206499999992 Hf
atom 8.6213271099999993 4.9858696299999998 3.7964197400000002 Hf
atom 8.5330233700000004 4.9692522900000000 8.7827540000000006 Hf
atom 8.6448185100000003 10.2021575799999997 3.7229549199999998 Hf
atom 8.5167074599999992 10.1668997300000008 8.7874397099999992 Hf
atom 0.3626480800000000 1.8391109000000001 1.7367214500000001 O
atom 0.1738360700000000 1.9221425500000000 7.1289186600000001 O
atom 0.3511140000000000 7.0859872599999996 1.9466456000000001 O
atom 0.2968632500000000 7.0726332699999999 6.9235410999999996 O
atom 5.2616417999999996 1.8536026900000000 2.0272152800000001 O
atom 5.2067718100000002 1.8284497799999999 6.9909148800000001 O
atom 5.3343711100000002 7.0849476999999998 1.9899647100000000 O
atom 5.2652298699999998 7.0314662999999999 6.9984627399999999 O
atom 0.2808259100000000 0.7483226600000000 4.2647808700000001 O
atom 0.3010364400000000 0.5806416700000000 9.5757836199999993 O
atom 0.3077571000000000 5.8650978199999999 4.4506048600000003 O
atom 0.2202011000000000 5.8244041900000001 9.4747585700000005 O
atom 5.3224670900000000 0.6555719700000000 4.4575754600000002 O
atom 5.2578335100000002 0.6325642600000000 9.5471803299999998 O
atom 5.3293802100000001 5.8788525299999996 4.4414864600000001 O
atom 5.2317960699999997 5.8424895000000001 9.4943532000000008 O
atom 4.6509701999999997 4.4690740000000000 1.9092032699999999 O
atom 4.5877416400000000 4.4755083600000001 6.9274417300000000 O
atom 4.7212787499999997 9.6498368800000005 1.9474699900000001 O
atom 4.4778952099999998 9.7388400300000004 6.9684025099999998 O
atom 9.6787007599999999 4.4266854699999998 2.0621909299999999 O
atom 9.5652337700000007 4.4716822000000001 7.0097677400000000 O
atom 9.8573562700000004 9.7524046400000000 1.8514569599999999 O
atom 9.3627013800000007 9.6078761400000001 7.0719705199999998 O
atom 4.6814329800000003 3.3075835499999999 4.4363811399999999 O
atom 4.5956582399999997 3.2603202800000002 9.4446214000000008 O
atom 4.7439453000000000 8.5195586900000002 4.5455461100000001 O
atom 4.5204007600000002 8.4380102200000007 9.4889008799999992 O
atom 9.6265732699999997 3.2471435400000002 4.5119603599999998 O
atom 9.5196781099999992 3.2661045999999998 9.5511262499999994 O
atom 9.6933925700000003 8.5366697400000007 4.5481778000000004 O
atom 9.4960696799999997 8.4001315900000009 9.4408251799999992 O
atom 2.4171130299999999 0.8776211700000000 2.2292315100000000 O
atom 2.6628136300000000 6.2671990700000002 2.4470961000000000 O
atom 2.5815212399999998 6.2784094699999997 7.4736834500000002 O
atom 7.6877318099999998 1.1874997199999999 2.5158042200000001 O
atom 7.5415310900000003 1.1204075700000000 7.5325246699999999 O
atom 7.7082296699999997 6.3701905200000004 2.4980910100000000 O
atom 7.6046683100000001 6.3674306899999999 7.5209162500000000 O
atom 2.7396042999999999 1.3994410300000000 4.8204522799999996 O
atom 2.6954288900000001 1.4136466000000001 9.7192390900000003 O
atom 2.7001213200000000 6.5046066500000004 4.9780411300000003 O
atom 2.5691821199999998 6.5508457399999998 9.9676043799999992 O
atom 7.6662172899999996 1.3107098699999999 5.0327770300000001 O
atom 7.5871143400000003 1.3090073400000000 10.0360903399999994 O
atom 7.6494896499999996 6.5426852300000000 5.0038336000000001 O
atom 7.5878918600000000 6.5060012699999996 10.0245605300000005 O
atom 2.2659150100000001 3.9577711500000001 4.9129321600000004 O
atom 2.2232088800000001 3.9592746399999998 9.9462481199999999 O
atom 2.4040781099999999 9.0327742200000003 4.9384362399999997 O
atom 2.0744463700000000 9.3393776200000005 10.2213212599999999 O
atom 7.2641308899999997 3.9360162200000000 5.0197870499999997 O
atom 7.1949251500000004 3.8977724100000000 10.0218171199999997 O
atom 7.3100129400000000 9.1487146900000003 4.9864394599999997 O
atom 7.1851485300000002 9.1023217200000008 10.0048328699999995 O
atom 2.3576359400000002 3.6724969500000002 2.4051770600000002 O
atom 2.2754546599999999 3.6265817600000001 7.4460252699999998 O
atom 2.4911229800000001 8.7476380400000000 2.5974858900000002 O
atom 2.3394755200000001 8.8404987599999991 7.6510085400000003 O
atom 7.2675440199999999 3.7837002700000002 2.5174543100000002 O
atom 7.2056494500000001 3.7492959199999998 7.5143136400000001 O
atom 7.4080986199999996 8.9834988300000003 2.4676067399999999 O
atom 7.0794655999999998 8.9441124300000006 7.5005322600000000 O
