lattice_vector 10.0212291600000007 -0.0076914100000000 0.0482511000000000 
lattice_vector 0.0060701800000000 10.4308370000000004 -0.0452592600000000 
lattice_vector -0.0049242500000000 -0.0601366000000000 4.9988145299999998 
atom 1.1488987500000001 0.2686549300000000 1.2244746799999999 Si
atom 1.3747267700000001 5.3170425999999997 1.2177396300000001 Hf
atom 6.3311178600000000 0.1745369300000000 1.2944532500000001 Hf
atom 6.3444780300000003 5.3717239799999996 1.2546144100000001 Hf
atom 1.3407214000000001 2.3723675900000001 3.6500467699999999 Hf
atom 1.2467054900000001 7.7046704200000002 3.8145662200000001 La
atom 6.3495293400000001 2.4020430199999998 3.7777484200000000 Hf
atom 6.3552073800000004 7.6509067200000000 3.7754242599999999 Hf
atom 3.6905254300000001 2.7489786899999999 1.1607580600000000 Hf
atom 3.7311931800000000 7.9678823599999999 1.2932430699999999 Hf
atom 8.6844715899999994 2.7573695300000001 1.2620526900000000 Hf
atom 8.6557642999999995 7.9702301300000000 1.2641247600000001 Hf
atom 3.6827510800000001 5.0206737300000004 3.7464345500000000 Hf
atom 3.6583369299999999 10.2794502199999993 3.7431915400000002 Hf
atom 8.6501630100000000 4.9588607800000002 3.7518808300000002 Hf
atom 8.7129706400000000 10.3148754199999999 3.7322557000000001 Hf
atom 0.2852376700000000 1.7453264500000001 1.9189288900000001 O
atom 0.3375351300000000 7.0675873400000002 1.6143157800000001 O
atom 5.2574062699999997 1.8683388800000000 2.0680405799999999 O
atom 5.4059297800000001 7.1197326800000003 1.9838928000000000 O
atom 0.4147709300000000 0.5919675599999999 4.6761832400000003 O
atom 0.3285877900000000 5.6331397499999998 4.4159153900000003 O
atom 5.3599659500000003 0.7161480700000000 4.5481063900000001 O
atom 5.3954591100000000 5.9065552400000003 4.4396228700000000 O
atom 4.6755063600000000 4.4933568800000003 1.9319141399999999 O
atom 4.8143532699999998 9.6876729899999994 2.0622342400000000 O
atom 9.7110548600000008 4.4037591100000002 1.9983927600000000 O
atom 10.0066148500000001 9.7195213299999992 2.0220180000000001 O
atom 4.7387765300000000 3.3430783700000002 4.4959413399999999 O
atom 4.6334228800000004 8.5388433399999997 4.5205468800000004 O
atom 9.6385403099999998 3.1295272600000001 4.4359893100000001 O
atom 9.3354881499999998 8.5349462799999998 4.4566683899999999 O
atom 2.4326815200000000 0.9517898100000000 2.2595545900000000 O
atom 2.7194973999999998 6.2962731500000002 2.4627929200000001 O
atom 7.6971679100000001 1.2117595800000001 2.4892854199999999 O
atom 7.7291112799999997 6.3985902799999996 2.5220138400000001 O
atom 2.8189043699999998 1.5026538599999999 4.7217911800000003 O
atom 2.8355898300000000 6.4718048499999998 5.0595663899999996 O
atom 7.7321387200000000 1.3268866900000000 4.9921805800000003 O
atom 7.6955908700000002 6.5534313700000002 5.0229245400000000 O
atom 2.3008505700000002 3.9346619500000002 4.9263476199999996 O
atom 2.2670553099999999 9.5069100899999999 5.3433871599999998 O
atom 7.3393554400000003 3.9303344600000001 5.0118585900000001 O
atom 7.2098183000000002 9.1872223300000009 4.9944084799999997 O
atom 2.3556223300000001 3.6893128599999998 2.4395548900000001 O
atom 2.6393379900000000 8.9011245700000003 2.6703099500000000 O
atom 7.2973648600000001 3.7830143399999998 2.4871112100000001 O
atom 7.4435796300000003 9.0697796200000003 2.5134196599999998 O
