lattice_vector 10.0919360000000005 -0.0297050000000000 -0.0586780000000000 
lattice_vector -0.0056830000000000 10.3299020000000006 0.0192050000000000 
lattice_vector -0.0195770000000000 -0.0274230000000000 10.4602719999999998 
atom 1.3648769999999999 0.0839340000000000 1.6086560000000001 La
atom 1.3843650000000001 0.1917700000000000 6.9919840000000004 Hf
atom 1.3851320000000000 5.3724249999999998 1.7876350000000001 Hf
atom 1.3890359999999999 5.3508670000000000 7.0375909999999999 Hf
atom 1.4331250000000000 2.3981599999999998 4.4311780000000001 Hf
atom 1.3606490000000000 2.3793299999999999 9.5977119999999996 Hf
atom 1.4084600000000000 7.4698830000000003 4.4306850000000004 Hf
atom 1.3952430000000000 7.4807930000000002 9.6166079999999994 Hf
atom 3.6086980000000000 2.7863590000000000 1.7398690000000001 Hf
atom 3.6372230000000001 2.7637659999999999 7.0203449999999998 Hf
atom 3.7009479999999999 7.8986820000000000 1.7711150000000000 Hf
atom 3.6072430000000000 7.9290770000000004 7.0073860000000003 Hf
atom 3.6250810000000002 4.9354829999999996 4.3901649999999997 Hf
atom 3.6269330000000002 4.9138690000000000 9.6312990000000003 Hf
atom 3.5899779999999999 10.0863569999999996 4.3913630000000001 Hf
atom 3.6737929999999999 10.0926890000000000 9.5820139999999991 Hf
atom 6.4867390000000000 0.2001020000000000 0.7991710000000000 Hf
atom 6.3831249999999997 0.1663860000000000 6.0691400000000000 Hf
atom 6.4515260000000003 5.3509070000000003 0.8003620000000000 Hf
atom 6.4299510000000000 5.3451199999999996 6.0197710000000004 Hf
atom 6.3757270000000004 2.3878050000000002 3.4195820000000001 Hf
atom 6.4494999999999996 2.3299590000000001 8.6435379999999995 Hf
atom 6.4678500000000003 7.5000010000000001 3.4507889999999999 Hf
atom 6.4194610000000001 7.4952839999999998 8.6305209999999999 Hf
atom 8.6682640000000006 2.8168129999999998 0.7599900000000001 Hf
atom 8.6616000000000000 2.7782330000000002 6.0343429999999998 Hf
atom 8.6434999999999995 7.8883530000000004 0.7592830000000000 Hf
atom 8.6962340000000005 7.8795950000000001 6.0532700000000004 Hf
atom 8.6915099999999992 4.9142000000000001 3.4030499999999999 Hf
atom 8.6678549999999994 4.9081279999999996 8.6133330000000008 Hf
atom 8.7111570000000000 10.2023960000000002 3.5817519999999998 La
atom 8.6724209999999999 10.0672650000000008 8.6590330000000009 Hf
atom 0.3525060000000000 1.9789980000000000 0.8953070000000000 O
atom 0.3292990000000000 1.7859190000000000 6.2034159999999998 O
atom 0.3922610000000000 7.0252280000000003 0.9802220000000000 O
atom 0.3830460000000000 6.9136889999999998 6.2508140000000001 O
atom 0.7176040000000000 0.6540300000000000 3.8122919999999998 O
atom 0.3699830000000000 0.7603540000000000 8.8010070000000002 O
atom 0.3977350000000000 5.8886770000000004 3.5874720000000000 O
atom 0.3499460000000000 5.9132910000000001 8.8084330000000008 O
atom 4.7227290000000002 4.2589610000000002 0.8422770000000001 O
atom 4.7200439999999997 4.2333330000000000 6.0669810000000002 O
atom 4.7444959999999998 9.4589309999999998 0.8660080000000000 O
atom 4.6504409999999998 9.4266950000000005 6.0983229999999997 O
atom 4.6823949999999996 3.4769290000000002 3.4485720000000000 O
atom 4.7114500000000001 3.4301119999999998 8.6989330000000002 O
atom 4.7619490000000004 8.6192240000000009 3.4702299999999999 O
atom 4.7141120000000001 8.6031289999999991 8.6682310000000005 O
atom 2.8914789999999999 1.3258930000000000 3.1037379999999999 O
atom 2.7595179999999999 1.2554780000000001 8.2615900000000000 O
atom 2.8112750000000002 6.3783050000000001 3.0649449999999998 O
atom 2.7711150000000000 6.4219189999999999 8.3155680000000007 O
atom 2.8779439999999998 1.3768530000000001 0.3201350000000000 O
atom 2.7814120000000000 1.2818780000000001 5.7036990000000003 O
atom 2.7713589999999999 6.3917190000000002 0.4742820000000000 O
atom 2.7830279999999998 6.4185530000000002 5.7070340000000002 O
atom 2.2316330000000000 3.8404370000000001 3.0596619999999999 O
atom 2.2574239999999999 3.8375659999999998 8.3020790000000009 O
atom 2.3548399999999998 8.8553060000000006 3.1133750000000000 O
atom 2.2359890000000000 8.9973039999999997 8.2674889999999994 O
atom 2.2433950000000000 3.9022199999999998 0.4442970000000000 O
atom 2.2624780000000002 3.8776860000000002 5.7075350000000000 O
atom 2.4822430000000000 8.8759750000000004 0.3116640000000000 O
atom 2.2258520000000002 9.0191210000000002 5.6968009999999998 O
atom 5.3145730000000002 1.6671929999999999 1.7203510000000000 O
atom 5.3426210000000003 1.6558790000000001 6.9826420000000002 O
atom 5.3941970000000001 6.8094690000000000 1.7421469999999999 O
atom 5.3452859999999998 6.8288050000000000 6.9520059999999999 O
atom 5.3320140000000000 0.8275370000000000 4.3245950000000004 O
atom 5.4064660000000000 0.8323840000000000 9.5526800000000005 O
atom 5.3537900000000000 6.0274130000000001 4.3483710000000002 O
atom 5.3368760000000002 6.0257310000000004 9.5840399999999999 O
atom 9.6789500000000004 4.3981940000000002 1.6029750000000000 O
atom 9.7069430000000008 4.3454860000000002 6.8428760000000004 O
atom 9.3581540000000007 9.6332489999999993 1.3775109999999999 O
atom 9.6868499999999997 9.4983889999999995 6.8504709999999998 O
atom 9.6846169999999994 3.2617620000000001 4.2105280000000000 O
atom 9.6736389999999997 3.3450820000000001 9.4003270000000008 O
atom 9.7242700000000006 8.3078540000000007 4.2955110000000003 O
atom 9.7272490000000005 8.4728449999999995 9.4476420000000001 O
atom 7.8309699999999998 1.2400270000000000 9.9543689999999998 O
atom 7.5944510000000003 1.4105129999999999 4.8789990000000003 O
atom 7.7942619999999998 6.3813990000000000 9.9434500000000003 O
atom 7.8332220000000001 6.3842119999999998 4.7461859999999998 O
atom 7.7216389999999997 1.4313359999999999 2.0772249999999999 O
atom 7.8208349999999998 1.2617799999999999 7.3834960000000001 O
atom 7.8448890000000002 6.4460920000000002 2.1309399999999998 O
atom 7.7993980000000001 6.4214630000000001 7.3489069999999996 O
atom 7.2738069999999997 3.8405100000000001 9.9438829999999996 O
atom 7.3051199999999996 3.8948090000000000 4.7161840000000002 O
atom 7.2753249999999996 8.9771389999999993 9.9472500000000004 O
atom 7.1985659999999996 8.9095479999999991 4.8704830000000001 O
atom 7.2653900000000000 3.9082949999999999 2.1258580000000000 O
atom 7.2856629999999996 3.8370560000000000 7.3354229999999996 O
atom 7.1850079999999998 8.9604719999999993 2.0868799999999998 O
atom 7.2972549999999998 9.0035279999999993 7.3892090000000001 O
