lattice_vector 10.0864095299999992 0.0129561800000000 0.0419338100000000 
lattice_vector 0.0452725700000000 10.3122848000000005 -0.0189631900000000 
lattice_vector 0.0223886500000000 -0.0298533200000000 10.4747244500000001 
atom 1.4253365600000001 -0.0303690900000000 1.9223591900000001 Hf
atom 1.4143478400000000 0.1959933200000000 7.0324951999999996 Hf
atom 1.4704792300000000 5.3914289899999996 1.7988129600000000 Hf
atom 1.4346455400000000 5.3724216800000004 7.0008838500000001 Hf
atom 1.4216752300000000 2.3675073800000002 4.3989653400000002 Hf
atom 1.4846967499999999 2.4869778299999998 9.3903231500000004 Hf
atom 1.4716804299999999 7.4797903999999997 4.4350050400000001 Hf
atom 1.4363806100000001 7.4740126900000003 9.6425475200000008 Hf
atom 3.6505371400000000 2.6426256100000001 1.6542750399999999 La
atom 3.7330524000000000 2.7833692999999999 6.9809920999999999 Hf
atom 3.7385289300000002 7.8885169199999998 1.7896553100000001 Hf
atom 3.7016496700000001 7.9403742099999999 7.0454379600000001 Hf
atom 3.6952669899999999 4.9068445599999997 4.4055328300000003 Hf
atom 3.7397494099999999 4.9843573000000001 9.6226580300000002 Hf
atom 3.7498540700000000 10.0620416699999993 4.4594201000000000 Hf
atom 3.6540353300000001 10.0421953800000008 9.6454074300000006 Hf
atom 6.4105328200000002 0.1708714800000000 0.8841499900000001 Hf
atom 6.4794449199999997 0.2112204300000000 6.1076021000000003 Hf
atom 6.5120541999999997 5.3361886199999997 0.8347036900000000 Hf
atom 6.4848860100000003 5.3747838799999998 6.0878412199999996 Hf
atom 6.4686362400000004 2.3841540999999999 3.5232974000000001 Hf
atom 6.4618565099999996 2.3388990199999999 8.7506723900000001 Hf
atom 6.5006528599999998 7.4986841599999998 3.4623578300000002 Hf
atom 6.5156554199999999 7.5020304700000002 8.6936748099999992 Hf
atom 8.8523086000000006 2.6185380299999998 1.0106020700000000 La
atom 8.7114748500000001 2.7926801900000000 6.1038786199999997 Hf
atom 8.7061622700000001 7.9158109100000003 0.8363662900000000 Hf
atom 8.7488706900000004 7.9575435499999996 6.0771734700000000 Hf
atom 8.7493028299999995 4.9788378599999996 3.5012079900000002 Hf
atom 8.7223143299999997 4.9041312799999996 8.7018245499999995 Hf
atom 8.7089150800000006 10.0901246300000000 3.4804016899999999 Hf
atom 8.7552949800000004 10.0661421499999992 8.6868542600000005 Hf
atom 0.3438355500000000 1.6303855000000000 6.0296270400000003 O
atom 0.3923388800000000 6.9014007199999998 0.8805574200000000 O
atom 0.3778107500000000 6.8619474900000004 6.1081857800000003 O
atom 0.2071886800000000 1.1014322200000000 3.1661290900000001 O
atom 0.3246570400000000 0.8931689300000000 8.7191873700000002 O
atom 0.3960324300000000 6.0750099799999999 3.5139494400000002 O
atom 0.3886518900000000 5.9821492100000002 8.7122717099999996 O
atom 4.7180937199999997 4.5038608900000003 0.8732686300000000 O
atom 4.7375006300000004 4.3452609600000001 6.1914174800000001 O
atom 4.6105792000000001 9.6140116899999999 1.0021467600000000 O
atom 4.7769681600000000 9.4628091300000001 6.1851346500000002 O
atom 4.7485477300000003 3.3856147600000002 3.6751812899999998 O
atom 4.7108539299999999 3.3853160199999999 8.7902570099999995 O
atom 4.7617981499999997 8.5528571800000002 3.5361576800000001 O
atom 4.7392490199999999 8.5926014800000008 8.7975362300000004 O
atom 2.6950259299999999 1.0940293699999999 3.2049487000000001 O
atom 2.8338370500000001 1.2580918000000001 8.3047986900000001 O
atom 2.8788209000000000 6.4159864300000002 3.0885848100000000 O
atom 2.8276619400000000 6.4419382299999999 8.3134799699999995 O
atom 2.0263367099999998 1.2396999799999999 0.4374975600000000 O
atom 2.8137036100000001 1.2987563700000000 5.7365551699999999 O
atom 2.8429609400000002 6.4761350699999998 0.4587563800000000 O
atom 2.8385062099999998 6.4478149199999999 5.7175085000000001 O
atom 2.2210029100000002 3.8910545800000000 3.1254111800000000 O
atom 2.3715061999999998 3.8776314799999998 8.1973374900000007 O
atom 2.3290484500000002 8.9067292499999997 3.0967919500000001 O
atom 2.2935182900000002 9.0035963999999993 8.3227127000000003 O
atom 2.1597858200000002 3.9742507800000002 0.2773114900000000 O
atom 2.3026741899999998 3.8582356400000002 5.6737739999999999 O
atom 2.3330905600000000 8.9517840000000000 0.4655489700000000 O
atom 2.3407252399999998 9.0227801599999999 5.7182057000000004 O
atom 5.6723919599999997 1.8420117000000000 1.7039114200000001 O
atom 5.4444151099999996 1.7154322500000001 7.0037025300000000 O
atom 5.4992871200000000 6.9535144000000004 1.6842580800000000 O
atom 5.4452257900000003 6.9143494399999996 6.9691316099999998 O
atom 5.4121013199999997 0.8261673800000000 4.3880288800000002 O
atom 5.2540484999999997 0.9119882300000000 9.7099883699999996 O
atom 5.4500290400000004 5.9861348200000002 4.3522807500000003 O
atom 5.4831994399999999 6.0071828700000003 9.5356041499999993 O
atom 9.8368964600000002 4.4238645200000004 1.8287145400000000 O
atom 9.8036451299999996 4.2794216799999996 6.9820848099999999 O
atom 9.7567674899999997 9.4957770200000002 1.7101060500000000 O
atom 9.8258191499999992 9.4324285200000002 7.0012766500000003 O
atom 9.7746290100000000 3.4602403800000001 4.4033241700000003 O
atom 9.8370638800000005 3.4034928700000000 9.5024293300000000 O
atom 9.8727474300000004 8.6731106600000007 4.4028869300000002 O
atom 9.8034178500000007 8.5839578599999999 9.6177938199999993 O
atom 7.7426540800000003 1.1276591899999999 9.9976906200000002 O
atom 7.8588953300000002 1.2737157200000000 4.8415617700000002 O
atom 7.9108006399999997 6.4045025200000003 10.0203545700000003 O
atom 7.8822711099999996 6.4595843500000001 4.8023057900000001 O
atom 7.7330649600000001 1.1019815799999999 2.3036484599999998 O
atom 7.8551621799999998 1.2914217200000000 7.4326824599999997 O
atom 7.8917690000000000 6.4527766000000000 2.1771737500000001 O
atom 7.8848012199999999 6.4480141499999997 7.4072938800000001 O
atom 7.3311717600000001 3.8408628199999999 10.0043293400000000 O
atom 7.3625600000000002 3.8680654799999998 4.8520071700000003 O
atom 7.3330325199999997 8.9407672999999992 10.0303344400000007 O
atom 7.3674320399999997 9.0051632099999992 4.7895022799999998 O
atom 7.3161694199999996 3.9380735499999999 2.2872593100000000 O
atom 7.3342860800000000 3.8645455900000001 7.4315185399999999 O
atom 7.3696586399999999 8.9751426100000007 2.1776502600000001 O
atom 7.3750202099999997 9.0293917300000004 7.4019424899999997 O
