lattice_vector 10.0523763400000004 0.0712039300000000 0.0503497000000000 
lattice_vector 0.0541020300000000 10.2476074599999993 -0.0181385000000000 
lattice_vector -0.0018695400000000 0.0116287700000000 10.4766973399999994 
atom 1.1857973300000000 0.0772351900000000 1.9820404500000000 Si
atom 1.3459656300000000 0.2455003300000000 6.9526136200000002 Hf
atom 1.4203047000000000 5.3645994899999998 1.8040069100000000 Hf
atom 1.3736081300000000 5.2997795999999999 7.0052282400000001 Hf
atom 1.3729024599999999 2.3439363000000002 4.3226799700000003 Hf
atom 1.4225299300000001 2.3895094000000001 9.6332594599999997 Hf
atom 1.3424932100000000 7.4836228599999997 4.3482482600000001 Hf
atom 1.4188611300000000 7.4469992999999999 9.5750131700000001 Hf
atom 3.6149569600000002 2.7891930500000002 1.7826783500000001 Hf
atom 3.6376596100000000 2.8375782300000001 7.0039698699999997 Hf
atom 3.6318310399999998 8.0196604800000006 1.7987557900000000 Hf
atom 3.4912137799999998 7.8103307400000004 6.8062158100000003 Hf
atom 3.6609191499999998 4.9145243799999996 4.3860670400000004 Hf
atom 3.6571868699999999 4.9106052499999997 9.6745186299999997 Hf
atom 3.6115158699999999 10.1074894799999999 4.3533885600000000 Hf
atom 3.7060771600000000 10.2048486300000008 9.5729043300000001 La
atom 6.5265496399999998 0.2488161100000000 0.8802643100000000 Hf
atom 6.3620406100000002 0.2631175200000000 6.1345004000000003 Hf
atom 6.4416653000000004 5.3401496300000000 0.9031867500000000 Hf
atom 6.4071587200000000 5.4405409400000000 6.1311884000000001 Hf
atom 6.4135639800000002 2.3640925699999999 3.4867510899999998 Hf
atom 6.4863448500000001 2.4361785899999999 8.7342336199999995 Hf
atom 6.4325314699999998 7.5044434700000000 3.4721427299999998 Hf
atom 6.2999598900000002 7.7173193900000001 8.9035258299999995 La
atom 8.7899951099999996 2.7739383599999998 0.9399585100000000 Hf
atom 8.6322742100000003 2.8509659500000000 6.1097764300000001 Hf
atom 8.7899855799999997 7.9569755300000002 0.9163302400000000 Hf
atom 8.6499346799999994 7.9592733400000002 6.1510150899999996 Hf
atom 8.6435362700000002 4.9626324500000001 3.5032539100000002 Hf
atom 8.6439700100000003 4.9958121100000001 8.7707805299999997 Hf
atom 8.6672838100000007 10.0810913299999996 3.5304587900000000 Hf
atom 8.7737640199999998 10.1536886499999994 8.7377147199999996 Hf
atom 0.5702020600000000 1.4869001200000000 0.9789545800000000 O
atom 0.2925403000000000 1.6505204800000000 6.0026332099999999 O
atom 0.4415182900000000 6.8200592799999997 0.8504160400000000 O
atom 0.3477864100000000 6.8228565699999999 6.1162481900000003 O
atom 0.3754815800000000 0.7745611400000000 3.4222959799999999 O
atom 0.3646077400000000 0.8937121900000000 8.7063465000000004 O
atom 0.3123569200000000 5.9906906299999996 3.4937922700000001 O
atom 0.3651329400000000 5.9897683800000001 8.7258176200000008 O
atom 4.6831535999999998 4.2832363899999999 0.9568066100000000 O
atom 4.6642440000000001 4.3696217099999997 6.1397679800000002 O
atom 4.9870459900000004 9.1531870600000005 0.7375040500000000 O
atom 4.6455005600000003 9.4569748100000002 6.3144947199999999 O
atom 4.6925701300000000 3.3963536300000001 3.5565184900000002 O
atom 4.6873075200000001 3.3867394800000001 8.7695504300000007 O
atom 4.6695290199999997 8.5955609400000004 3.5149385099999999 O
atom 2.6692280799999999 1.1630453999999999 2.8761285000000001 O
atom 2.6092818400000000 1.4158722399999999 8.0977291600000001 O
atom 2.7867825900000001 6.4345216199999999 3.0378856800000000 O
atom 2.8365651600000001 6.3799244000000002 8.2430743000000000 O
atom 3.0574597300000002 1.7564343899999999 0.1763915300000000 O
atom 2.7672118200000000 1.3541958900000000 5.5750985699999998 O
atom 2.8963034300000001 6.6371645800000003 0.3796715600000000 O
atom 2.7121634800000001 6.4036058000000002 5.5999272099999997 O
atom 2.2689580999999999 3.8323993999999999 3.0887319000000000 O
atom 2.2804255800000002 3.8913492500000002 8.3301685699999997 O
atom 2.1486862499999999 9.0195507599999996 3.0868683899999998 O
atom 2.3452082800000000 8.8334073300000000 8.2103573200000000 O
atom 2.2000060399999999 4.0343455500000003 0.4637865200000000 O
atom 2.2357379200000000 3.8629697699999999 5.6719891699999998 O
atom 2.2080188800000000 9.4085068399999994 0.7703400300000000 O
atom 2.2491882599999999 9.0101252499999998 5.6002505100000004 O
atom 5.3718521800000003 1.6843590600000000 1.7551264400000000 O
atom 5.3766116300000002 1.8001597800000000 6.9819119399999998 O
atom 5.3794787900000003 6.8300013999999996 1.7973866599999999 O
atom 5.2624425800000001 6.9187269999999996 6.9498821399999997 O
atom 5.3364025599999998 0.8498041400000000 4.3799534700000002 O
atom 5.7541491200000001 0.7001187900000000 9.4691630300000007 O
atom 5.3638718200000000 6.0283650800000004 4.3767500200000002 O
atom 5.4077725799999996 5.8487795299999998 9.6548467999999996 O
atom 9.7759760999999994 4.3024362900000002 1.8491837099999999 O
atom 9.7346571999999991 4.2717761799999998 7.0801748000000000 O
atom 9.8579059900000008 9.4468335099999994 1.8592218400000000 O
atom 9.7988343199999992 9.4147642499999993 7.0461156000000003 O
atom 9.7053424300000000 3.4805359500000002 4.4060698399999998 O
atom 9.7650214000000002 3.5287053600000000 9.7472380399999992 O
atom 9.6879366499999993 8.6069456199999994 4.4360992399999999 O
atom 9.8566758100000005 8.6558294599999996 9.6639376200000005 O
atom 7.9539981900000001 1.3965324800000001 10.1078466500000008 O
atom 7.7701231699999997 1.3159791800000000 4.8308031700000003 O
atom 7.9041037000000003 6.4277365000000000 10.1609250499999995 O
atom 7.7948444400000003 6.4498309599999999 4.8322184899999998 O
atom 7.8448983800000001 1.3242495999999999 2.2275221500000000 O
atom 7.8333187700000000 1.4049284700000000 7.4400254600000002 O
atom 7.8323958899999999 6.4586961100000000 2.2283311000000001 O
atom 7.8224399000000000 6.4716687799999999 7.4324248400000004 O
atom 7.3292465699999996 3.8668628400000000 10.0867744199999994 O
atom 7.2543988900000000 3.8838596800000000 4.8330002099999998 O
atom 7.6045171099999997 9.1342134599999998 10.1819073000000007 O
atom 7.2508346499999998 8.9909473200000001 4.8338765400000003 O
atom 7.3214569699999998 3.8548531599999998 2.2119122800000000 O
atom 7.2765930499999998 3.9535798400000002 7.4509450900000003 O
atom 7.3863298999999998 9.0169123199999994 2.2423980999999999 O
atom 7.3779961199999997 9.1530840300000005 7.4110490699999998 O
