lattice_vector 5.0660921800000001 0.0039171300000000 0.3705086600000000 
lattice_vector -0.0084346800000000 10.3318208400000007 -0.0189691100000000 
lattice_vector 0.8285290100000000 0.0028510700000000 10.4422789100000006 
atom 1.4439876300000001 0.1360017500000000 1.5386134700000000 La
atom 1.9643310100000000 0.2195641500000000 6.8509675899999998 Hf
atom 1.4938783700000000 5.3862991700000000 1.6093699600000000 Hf
atom 1.9507423600000000 5.3962487899999996 6.8272136699999999 Hf
atom 1.7130027699999999 2.3651933100000000 4.2528162099999998 Hf
atom 2.1927935199999999 2.4340905600000000 9.3363903799999992 Hf
atom 1.6967974600000000 7.4965318900000000 4.2331934699999998 Hf
atom 2.1960280999999999 7.5313703399999996 9.4080571800000001 Hf
atom 3.6110614299999999 2.8412662599999998 1.3644859000000000 Hf
atom 4.1843605500000001 2.8076933300000002 6.5573082200000004 Hf
atom 3.7433406100000002 7.9055660500000000 1.3383407300000001 Hf
atom 4.1610772400000000 7.9837003500000003 6.5537994900000003 Hf
atom 3.9309401600000000 4.9392449899999997 3.9551362100000000 Hf
atom 4.4240860499999997 4.9450631300000003 9.1831229200000006 Hf
atom 3.8813468400000000 10.1197764699999997 3.9803118500000001 Hf
atom 4.4194686000000001 10.1100550100000000 9.1648821500000004 Hf
atom 0.8653185900000000 1.7797038500000000 6.1434622499999998 O
atom 0.4764638500000000 6.9677431800000003 0.8677425800000000 O
atom 0.8326027600000000 6.9105296400000000 6.0924196200000003 O
atom 0.5497514200000000 0.8710570200000000 3.5942871300000001 O
atom 1.1192735000000000 0.8272130500000000 8.7780040899999996 O
atom 0.5969037100000000 6.0042505999999998 3.4328449200000000 O
atom 1.0899932699999999 5.9712470599999996 8.6965687000000003 O
atom 4.8417232500000003 4.2569628799999997 2.1269078800000001 O
atom 5.2897754199999998 4.3214458000000002 7.3643179800000000 O
atom 4.4740323200000001 9.6258490000000005 2.0464330300000002 O
atom 5.2702286899999997 9.5132374300000002 7.3405151999999996 O
atom 5.0500917899999997 3.4551742299999999 4.7590669099999996 O
atom 5.4922234999999997 3.4001365500000000 10.0132523100000004 O
atom 5.0215018300000001 8.5882341100000001 4.7142796899999997 O
atom 5.5780630000000002 8.6200083999999997 9.9496392900000004 O
atom 3.0422144599999998 1.4574288000000000 2.7949121899999998 O
atom 3.4418025999999999 1.3431622599999999 7.9028102799999997 O
atom 2.9854428300000002 6.4431455099999999 2.6860436800000000 O
atom 3.4365770699999998 6.5018273100000004 7.9102986000000000 O
atom 3.1720132099999998 1.2527592800000000 5.3525228499999997 O
atom 3.6377868800000002 1.3648255800000000 10.4507078999999994 O
atom 3.1937939900000001 6.4170484300000004 5.3109209699999997 O
atom 3.6378333399999998 6.3732642899999998 10.5257917800000005 O
atom 2.2487106500000000 3.9407763500000001 0.2325173500000000 O
atom 2.6881359200000001 3.9329917700000001 5.4751299900000001 O
atom 2.4269277900000001 8.9537796800000002 0.1076692100000000 O
atom 2.6660272699999998 9.0908868300000005 5.4907190600000000 O
atom 2.4257755099999998 3.8733098400000001 2.8616803800000001 O
atom 2.9407166700000000 3.8561389600000000 8.0613298899999997 O
atom 2.4318582200000001 8.8651388400000002 2.9333075200000001 O
atom 2.9246045899999999 9.0045800699999994 8.0492115099999992 O
