lattice_vector 10.1428989999999999 -0.0409790000000000 0.8238690000000000 
lattice_vector -0.0233200000000000 10.3730159999999998 0.0010960000000000 
lattice_vector 0.8294820000000001 -0.0058370000000000 10.4447589999999995 
atom 1.4332540000000000 0.1133160000000000 1.5712330000000001 La
atom 1.9225449999999999 0.2184680000000000 6.8870279999999999 Hf
atom 1.5390839999999999 5.4056230000000003 1.6362420000000000 Hf
atom 1.9192320000000000 5.4059699999999999 6.8602200000000000 Hf
atom 6.6920430000000000 0.1767730000000000 1.9768370000000000 Hf
atom 7.0031569999999999 0.2022070000000000 7.2758010000000004 Hf
atom 6.5732189999999999 5.3462360000000002 2.0530870000000001 Hf
atom 7.0047720000000000 5.3670179999999998 7.2849209999999998 Hf
atom 1.6681830000000000 2.4120270000000001 4.2727680000000001 Hf
atom 2.1434899999999999 2.4008539999999998 9.4498270000000009 Hf
atom 1.7312160000000001 7.5484140000000002 4.2540079999999998 Hf
atom 2.1580930000000000 7.5458170000000004 9.4599919999999997 Hf
atom 6.8263970000000000 2.4314190000000000 4.6877279999999999 Hf
atom 7.2130960000000002 2.3367939999999998 9.8936510000000002 Hf
atom 6.7840309999999997 7.4767789999999996 4.6813320000000003 Hf
atom 7.2318009999999999 7.5160950000000000 9.8549840000000000 Hf
atom 3.7306919999999999 2.8008030000000002 1.3803000000000001 Hf
atom 4.1330439999999999 2.7976690000000000 6.6190519999999999 Hf
atom 3.7936749999999999 7.9372600000000002 1.3615640000000000 Hf
atom 4.1477100000000000 7.9424169999999998 6.6292249999999999 Hf
atom 8.8206240000000005 2.8315079999999999 1.7766189999999999 Hf
atom 9.2023609999999998 2.7863069999999999 7.0478139999999998 Hf
atom 8.7781769999999995 7.8769460000000002 1.7705290000000000 Hf
atom 9.2209249999999994 7.9655630000000004 7.0090070000000004 Hf
atom 3.9226510000000001 4.9436830000000000 3.9980280000000001 Hf
atom 4.3717259999999998 4.9374149999999997 9.2189569999999996 Hf
atom 4.0287620000000004 10.2359130000000000 4.0632239999999999 La
atom 4.3685980000000004 10.1250099999999996 9.1919269999999997 Hf
atom 9.0314969999999999 4.9620050000000004 4.4049149999999999 Hf
atom 9.4292540000000002 4.9353949999999998 9.6178349999999995 Hf
atom 8.9128200000000000 10.1315039999999996 4.4811189999999996 Hf
atom 9.4309980000000007 10.1001770000000004 9.6267759999999996 Hf
atom 0.4400790000000000 2.0021010000000001 0.8297570000000000 O
atom 0.7582100000000001 1.7711079999999999 6.1601109999999997 O
atom 0.4600270000000000 7.0163310000000001 0.8973790000000000 O
atom 0.8108190000000000 6.9369680000000002 6.1006640000000001 O
atom 5.5066420000000003 1.7264910000000000 1.2900920000000000 O
atom 5.8670679999999997 1.7150209999999999 6.4826470000000000 O
atom 5.5293520000000003 6.8851849999999999 1.2603340000000001 O
atom 5.9305380000000003 6.9081130000000002 6.5773060000000001 O
atom 0.5230470000000000 0.8509460000000000 3.6604369999999999 O
atom 1.0698060000000000 0.8105700000000000 8.7485979999999994 O
atom 0.6299570000000000 6.0400640000000001 3.4721039999999999 O
atom 1.0394699999999999 6.0122939999999998 8.7066710000000000 O
atom 6.0663879999999999 0.7741990000000000 3.8702660000000000 O
atom 6.1400519999999998 0.8012590000000001 9.1017969999999995 O
atom 5.7262389999999996 5.9082420000000004 3.9179439999999999 O
atom 6.1293220000000002 5.9638010000000001 9.1296540000000004 O
atom 4.8319390000000002 4.3090419999999998 2.1623770000000002 O
atom 5.2517440000000004 4.3309150000000001 7.3725889999999996 O
atom 4.9387280000000002 9.4982690000000005 1.9741700000000000 O
atom 5.2215330000000000 9.5324430000000007 7.3305689999999997 O
atom 9.8783030000000007 4.4000560000000002 2.5400689999999999 O
atom 10.3043990000000001 4.3389949999999997 7.7729549999999996 O
atom 9.5381660000000004 9.5343199999999992 2.5875780000000002 O
atom 10.2939600000000002 9.5013690000000004 7.8006710000000004 O
atom 5.0016379999999998 3.3331789999999999 4.7372750000000003 O
atom 5.4805270000000004 3.4067840000000000 9.9785210000000006 O
atom 5.0217320000000001 8.3471820000000001 4.8044580000000003 O
atom 5.5331580000000002 8.5727449999999994 9.9192309999999999 O
atom 10.0750370000000000 3.4227660000000002 5.1977490000000000 O
atom 10.5035100000000003 3.3941129999999999 10.3251910000000002 O
atom 10.0980170000000005 8.5815529999999995 5.1677330000000001 O
atom 10.5668959999999998 8.5870730000000002 10.4199870000000008 O
atom 2.9194450000000001 1.5186150000000000 2.7795450000000002 O
atom 3.4159890000000002 1.3247270000000000 7.9704759999999997 O
atom 3.0348560000000000 6.4451980000000004 2.7335029999999998 O
atom 3.4026600000000000 6.4964550000000001 7.9710239999999999 O
atom 8.1768160000000005 1.3519650000000001 3.1367189999999998 O
atom 8.4722790000000003 1.3066249999999999 8.3904259999999997 O
atom 8.0458700000000007 6.4756520000000002 3.1469190000000000 O
atom 8.4777319999999996 6.4954400000000003 8.3659330000000001 O
atom 3.0339760000000000 1.3706039999999999 5.4865779999999997 O
atom 3.6883130000000000 1.2907150000000001 10.4742859999999993 O
atom 3.1702430000000001 6.4132400000000001 5.3626459999999998 O
atom 3.6176599999999999 6.3871019999999996 10.5674229999999998 O
atom 8.2289259999999995 1.2525010000000001 5.8035500000000004 O
atom 8.7071799999999993 1.2140740000000001 10.9681300000000004 O
atom 8.2750020000000006 6.4000139999999996 5.7689170000000001 O
atom 8.6928800000000006 6.3785429999999996 10.9719219999999993 O
atom 2.2916010000000000 3.9359050000000000 0.2717540000000000 O
atom 2.6733840000000000 3.9563370000000000 5.5117719999999997 O
atom 2.4277530000000000 8.9785799999999991 0.1476300000000000 O
atom 2.6030169999999999 9.0527139999999999 5.6046500000000004 O
atom 7.3297429999999997 3.9081830000000002 0.6891250000000000 O
atom 7.7409929999999996 3.9239620000000000 5.9308019999999999 O
atom 7.3756459999999997 9.0558530000000008 0.6543960000000000 O
atom 7.7268829999999999 9.0883090000000006 5.9346370000000004 O
atom 2.4268260000000001 3.9041250000000001 2.9006789999999998 O
atom 2.8885350000000001 3.8469840000000000 8.1079670000000004 O
atom 2.5424519999999999 8.8306290000000001 2.8547530000000001 O
atom 2.8751270000000000 9.0187299999999997 8.1084779999999999 O
atom 7.5587109999999997 3.8326270000000000 3.3112279999999998 O
atom 7.9562280000000003 3.8067449999999998 8.5370010000000001 O
atom 7.4277550000000003 8.9562299999999997 3.3212560000000000 O
atom 7.9619010000000001 8.9954499999999999 8.5122769999999992 O
