lattice_vector 5.0565758599999997 0.1464684500000000 -0.0663078800000000 
lattice_vector 0.0312512900000000 10.2399896699999999 0.0017015400000000 
lattice_vector -0.0477218400000000 -0.0945324200000000 10.0861426400000003 
atom 1.4345273900000000 -0.1653214700000000 1.3124062100000000 La
atom 1.2629898700000000 0.0962018700000000 6.1200466899999997 Hf
atom 1.2343349100000001 5.1244671100000003 1.2369710199999999 Hf
atom 1.5331049299999999 5.1838486699999997 6.1937307099999996 Hf
atom 1.3301116200000001 2.7112298899999998 3.7472011099999998 Hf
atom 1.3631733300000000 2.5071980100000002 8.9971095699999992 Hf
atom 0.9925624300000000 7.7778302100000003 3.8016564800000001 Hf
atom 1.2394705800000001 7.4310629800000001 8.7376377699999992 Hf
atom 4.0095916200000001 2.4896658299999999 1.0929837499999999 Hf
atom 3.6676944800000002 2.4488569700000000 6.4815027900000004 Hf
atom 3.8637246200000002 7.6717017700000003 1.0484662400000000 Hf
atom 3.6086088500000000 7.8757352799999998 6.0475400800000001 Hf
atom 3.9424104199999999 0.3790788900000000 3.7770172600000000 Hf
atom 3.7799549600000000 -0.2638178400000000 8.6959104600000003 Hf
atom 3.9700067400000001 5.1376841999999998 3.8788697600000002 Hf
atom 3.9245783900000002 5.0616211599999996 8.6949108600000002 Hf
atom 0.1794991900000000 1.3161435100000001 -0.1136769800000000 O
atom -0.0141649700000000 1.5630483600000000 5.0408300600000002 O
atom 0.0961405300000000 6.4144039700000004 -0.0313808000000000 O
atom -0.0384674100000000 6.5116267900000002 5.1690879000000001 O
atom 0.1712801000000000 1.2948704799999999 2.5887465299999999 O
atom -0.3430777800000000 0.6274742300000000 7.3149872299999998 O
atom -0.1746399600000000 6.2776269999999998 2.5508650500000001 O
atom 0.3426627700000000 5.7588863300000002 7.7106371899999999 O
atom -0.1311384100000000 3.7082768700000002 2.5621621399999999 O
atom -0.1386459800000000 3.2494562999999999 7.7778913999999997 O
atom -0.5713121600000000 8.9179407600000005 2.5593149799999999 O
atom -0.1670318100000000 8.2939006800000001 7.6134887000000004 O
atom 0.0010622600000000 3.9138343000000000 0.0883033800000000 O
atom 0.3530655800000000 4.0472874399999998 5.0309308699999997 O
atom 0.0338561700000000 8.8729750299999992 -0.0489790400000000 O
atom -0.1086160700000000 9.1110807600000001 5.1481773899999999 O
atom 2.7450752299999999 1.6792184800000001 2.5364186499999999 O
atom 2.2080954199999998 1.4275062500000000 7.4821993400000002 O
atom 2.1006251400000000 7.6492182599999996 2.1540006300000001 O
atom 2.7611117400000000 6.5313091200000004 7.4516106899999999 O
atom 2.8084023600000001 1.1527451500000001 -0.1392689800000000 O
atom 2.4990051300000000 1.2957273100000000 5.0080371699999997 O
atom 2.6511975400000001 6.1079138400000001 0.0257095400000000 O
atom 2.4758874400000002 6.4431988200000001 4.8162582799999996 O
atom 2.4503530800000002 3.6135678699999998 0.3301640300000000 O
atom 2.8659742900000000 3.8288049700000002 5.1590060400000004 O
atom 2.6552402499999999 8.6835646900000008 -0.2938058100000000 O
atom 2.4378743300000001 9.0119419799999996 4.7698119700000001 O
atom 2.2948589799999999 4.5122727500000002 2.8305762200000002 O
atom 2.4633704999999999 3.9562887899999999 7.6891041099999997 O
atom 2.3998486899999998 9.1064394199999992 7.3483219499999999 O
