lattice_vector 10.0534887400000006 0.0304283500000000 -0.1313663200000000 
lattice_vector 0.0501689100000000 10.2458890000000000 0.0668100300000000 
lattice_vector -0.0466587800000000 0.0217589400000000 10.4504116499999995 
atom 1.0381947000000000 0.2451711500000000 2.2346444499999998 Si
atom 1.3654167800000001 0.2143937200000000 6.9500975399999998 Hf
atom 1.4153347500000000 5.3562992999999999 1.7988838400000000 Hf
atom 1.3757691200000000 5.3545804199999996 7.0159416999999999 Hf
atom 1.3729994500000000 2.4243695199999999 4.4059056200000004 Hf
atom 1.4344783699999999 2.2361981900000001 9.6413704700000000 Hf
atom 1.3828733700000000 7.5022793300000004 4.4004416199999996 Hf
atom 1.4213827200000000 7.5285826299999998 9.6356139100000000 Hf
atom 3.5698088600000002 2.7291266599999999 1.7301848200000001 Hf
atom 3.6228467800000002 2.8177470200000001 6.9773703100000004 Hf
atom 3.5924347200000000 8.0072076200000009 1.7434457800000001 Hf
atom 3.6511182799999999 7.8995388200000001 7.0018538799999996 Hf
atom 3.6437083800000001 4.9561656400000000 4.3666402399999997 Hf
atom 3.3929374700000001 4.8366666000000000 9.6028228500000008 Hf
atom 3.6071002800000000 10.0947609800000002 4.3798972899999997 Hf
atom 3.6735371899999998 10.0537590300000002 9.6225102400000004 Hf
atom 6.4317584200000004 0.2592099300000000 0.7263662800000000 Hf
atom 6.3425755600000002 0.2700431200000000 5.9734115599999997 Hf
atom 6.4007663800000003 5.2692687800000000 0.8374245200000000 La
atom 6.4370113900000003 5.3634649599999999 6.0093232499999996 Hf
atom 6.4144388000000001 2.3873593500000001 3.3678286900000001 Hf
atom 6.4274286299999996 2.3922078899999999 8.5987925300000008 Hf
atom 6.3880460899999996 7.5372497400000000 3.3904330599999999 Hf
atom 6.5235421300000000 7.5808683500000003 8.5720875400000001 Hf
atom 8.8119582500000000 2.7082633500000002 0.7898321600000000 Hf
atom 8.6382452700000005 2.8156373499999998 5.9779516499999996 Hf
atom 8.7407097900000004 7.9580458800000002 0.7890826800000000 Hf
atom 8.6699753200000007 7.9234161399999996 5.9880934000000003 Hf
atom 8.6875215899999993 4.9719887500000004 3.3854148099999999 Hf
atom 8.7057205700000004 4.9099378600000003 8.6218724400000006 Hf
atom 8.5742049999999992 10.0454578199999993 3.4473870500000001 Hf
atom 8.7041175299999995 10.0912536999999993 8.6268957400000001 Hf
atom 0.5783422800000000 1.4661706299999999 1.0778960200000001 O
atom 0.3295017400000000 1.7400571300000001 6.1210576799999998 O
atom 0.4012240900000000 6.8769755600000000 0.9380420800000000 O
atom 0.3576897700000000 6.8506034199999997 6.1331747900000000 O
atom 0.2478625700000000 0.8364799400000000 3.5958367400000002 O
atom 0.3481439000000000 0.8138676700000000 8.7135616999999996 O
atom 0.3901630000000000 5.9521104100000004 3.5631183200000001 O
atom 0.3815783600000000 5.9451985000000001 8.7815852299999992 O
atom 4.4557644999999999 4.2337401699999999 0.7764170900000000 O
atom 4.6843608100000003 4.2981053400000002 6.0362269599999996 O
atom 4.7506986700000002 9.4857909500000002 0.8988633900000000 O
atom 4.6770551300000003 9.4300205500000001 6.1222859600000001 O
atom 4.7105136200000004 3.4780396400000000 3.4095677200000001 O
atom 4.7039838800000000 3.5518681700000001 8.6491685399999998 O
atom 4.5955424599999999 8.6014787300000002 3.5120710300000000 O
atom 4.7215999100000001 8.4738544400000002 8.7572604799999993 O
atom 2.5095795299999999 1.2320416100000000 2.9139366199999999 O
atom 2.7621168800000002 1.2448614400000000 8.1784470000000002 O
atom 2.7688109900000000 6.5010537299999998 3.0639257600000001 O
atom 2.7862347299999999 6.3752202899999997 8.2747211299999996 O
atom 3.0599515700000000 1.4472304600000001 0.2329145800000000 O
atom 2.7622639100000002 1.3540768000000001 5.5957324000000002 O
atom 2.8023264999999999 6.3937575999999998 0.4401642000000000 O
atom 2.7811133799999999 6.4496636499999997 5.6751617699999999 O
atom 2.2703800500000000 3.8611810200000001 3.0922646199999999 O
atom 2.1828471000000000 3.7558402499999999 8.2847263800000004 O
atom 2.0750620899999999 9.1389639900000006 2.9660416100000000 O
atom 2.2823416100000000 8.9356732000000001 8.2448307900000000 O
atom 2.0924191400000001 3.8485329899999998 0.4573776300000000 O
atom 2.2365152699999999 3.8986569300000000 5.6823898899999996 O
atom 2.3839841399999999 8.9581817899999994 0.3459038200000000 O
atom 2.2538756800000002 9.0165830899999992 5.6385796399999997 O
atom 5.3919073700000002 1.7699955400000000 1.6605172100000001 O
atom 5.3428720700000003 1.7696674400000001 6.8814743800000002 O
atom 5.3359493100000002 7.0455763800000000 1.7123882900000000 O
atom 5.3838964400000000 6.8221954800000004 6.9817320900000004 O
atom 5.2969845600000003 0.8945538000000000 4.2704009799999998 O
atom 5.4082879000000004 0.8605632800000000 9.4286547899999995 O
atom 5.3656714200000000 6.0293320399999999 4.2951358300000004 O
atom 9.7582976899999991 4.3079940299999997 1.6379778100000000 O
atom 9.7086506099999994 4.2993219500000004 6.8806404700000003 O
atom 9.8237306400000008 9.4898709500000002 1.7539428699999999 O
atom 9.7216314700000002 9.4359015599999996 6.8700738599999998 O
atom 9.7023190400000008 3.4599840899999998 4.2751799799999999 O
atom 9.7741128499999999 3.3654624599999998 9.5385352799999996 O
atom 9.6783057600000006 8.5482239399999997 4.2633343300000002 O
atom 9.7297984100000008 8.5853846399999991 9.5019060100000008 O
atom 7.8545227300000002 1.2763846599999999 9.9156345699999999 O
atom 7.7555215200000003 1.2964150200000000 4.6888000099999996 O
atom 7.8214182499999998 6.4921306999999997 9.8409898499999997 O
atom 7.7898713800000001 6.4268197400000000 4.7221498100000003 O
atom 7.8146643500000001 1.2700271700000001 2.0605761500000002 O
atom 7.7728102300000002 1.3336394400000000 7.2839961200000003 O
atom 7.9246730000000003 6.5600101100000003 2.1879995900000000 O
atom 7.8522444800000004 6.4453324900000002 7.2948278100000001 O
atom 7.4045040200000001 3.7447859200000000 9.8866645799999997 O
atom 7.2689606600000003 3.8735307099999998 4.7193090900000003 O
atom 7.3094006299999998 9.0168377300000007 9.9575089299999995 O
atom 7.2333607799999999 8.9897051599999998 4.7430532999999997 O
atom 7.4936612599999997 3.7209967800000001 2.1830165600000000 O
atom 7.2877840699999998 3.8943943299999999 7.3130632200000001 O
atom 7.3222306200000000 9.0280792400000003 2.1161606300000000 O
atom 7.3010750399999997 9.0190556300000004 7.3354597699999999 O
