lattice_vector 10.1528259300000006 -0.0458646300000000 0.8041656500000000 
lattice_vector -0.0480879300000000 10.5404890299999998 -0.0147701300000000 
lattice_vector 0.3579835900000000 0.0060713000000000 5.2278470199999996 
atom 1.4091645200000000 0.1585562400000000 1.5794581999999999 La
atom 1.4911887100000001 5.4882181699999997 1.6246596200000001 Hf
atom 6.6329686600000004 0.2020754300000000 1.9559382199999999 Hf
atom 6.5568416799999998 5.4353026699999996 2.0395474400000002 Hf
atom 1.6323332100000001 2.5101406000000002 4.2373441900000000 Hf
atom 1.6859356000000001 7.6433380599999996 4.2295071300000000 Hf
atom 6.7744861500000004 2.4750365900000002 4.6793068399999997 Hf
atom 6.7629388600000002 7.6047018399999997 4.6310868100000002 Hf
atom 3.7006106000000001 2.8802506499999998 1.3856722900000000 Hf
atom 3.7538638099999999 8.0134703500000004 1.3781902500000001 Hf
atom 8.7761741400000002 2.8728648799999998 1.7879492299999999 Hf
atom 8.7647266300000002 8.0029838600000005 1.7397343500000000 Hf
atom 3.8952020699999998 5.0352561900000001 3.9911305700000002 Hf
atom 3.9773916699999998 10.3650181600000000 4.0359577599999996 La
atom 8.9823521900000003 5.0425176499999997 4.3796662399999997 Hf
atom 8.9060089500000004 10.2759211199999996 4.4630191300000002 Hf
atom 0.4195124500000000 2.1301072799999998 0.9365726500000000 O
atom 0.3946007000000000 7.0703919500000003 0.8878235799999999 O
atom 5.4634308499999999 1.7753738500000000 1.2385523300000001 O
atom 5.5509180499999999 7.0197118600000001 1.3194087900000000 O
atom 0.5541691600000000 0.8184981200000000 3.7689280900000002 O
atom 0.5822366800000000 6.0971540900000001 3.4823855199999998 O
atom 5.9761159800000003 0.8736969000000000 3.7907705900000002 O
atom 5.7162263299999996 5.9811824299999996 3.9214747999999999 O
atom 4.8045043500000002 4.4256532300000000 2.1336769599999998 O
atom 4.8324433999999998 9.7044814800000001 1.8467454100000000 O
atom 9.8227722100000001 4.4969493099999998 2.4973649299999998 O
atom 9.5619862300000005 9.6055980800000000 2.6272114100000001 O
atom 4.9921745199999998 3.4539614500000000 4.7280932199999999 O
atom 4.9669820400000004 8.3936371800000007 4.6788155299999996 O
atom 9.9879823200000004 3.4576986700000001 5.0994892199999997 O
atom 10.0752570899999991 8.7015480800000002 5.1796518000000003 O
atom 2.9032768799999999 1.5700748300000000 2.7676303000000000 O
atom 2.9811341900000001 6.5418577200000003 2.7295666900000000 O
atom 8.1802123099999999 1.3357155700000001 3.1180676900000002 O
atom 8.0161214899999997 6.6002528399999996 3.1259344200000001 O
atom 3.0906316500000002 1.5061936100000000 5.3528436099999999 O
atom 3.1186106400000000 6.4748659999999996 5.3535139400000000 O
atom 8.1906674000000006 1.2690825200000000 5.7650741500000002 O
atom 8.2184006899999993 6.4796421400000002 5.7359733500000001 O
atom 2.2677453200000000 4.0482546199999998 0.2622427100000000 O
atom 2.2956182599999999 9.0170013000000004 0.2625347100000000 O
atom 7.3208540500000003 3.9985047900000001 0.6833399100000001 O
atom 7.3482889399999998 9.2090459700000000 0.6540068999999999 O
atom 2.4054143799999999 3.9820196800000001 2.8859533599999998 O
atom 2.4830563899999998 8.9537931099999994 2.8479042899999998 O
atom 7.5232425400000000 3.8773141299999998 3.2929677700000002 O
atom 7.3585435800000001 9.1417816700000003 3.3011340300000001 O
