lattice_vector 9.9535709299999997 -0.0422320800000000 0.0633538600000000 
lattice_vector 0.0087561400000000 10.3810947500000008 -0.0449316800000000 
lattice_vector 0.0309044100000000 -0.0589238500000000 9.9898359200000009 
atom 1.1543485099999999 0.3580464500000000 1.0837919100000000 Si
atom 1.3703054600000000 0.1511502000000000 6.2893562599999999 Hf
atom 1.3753658099999999 5.2792071299999996 1.2551804799999999 Hf
atom 1.3815990800000000 5.3134526800000002 6.2390907899999997 Hf
atom 6.3971801299999997 0.0628175800000000 1.2782371100000001 Hf
atom 6.2843510399999998 0.0621007100000000 6.2258348500000000 Hf
atom 6.3462034799999998 5.3789904999999996 1.2852240200000000 Hf
atom 6.3271513600000002 5.3324560600000002 6.2464356900000002 Hf
atom 1.3290766800000000 2.3315302700000000 3.6801982299999998 Hf
atom 1.3370460399999999 2.4234053599999998 8.7545135500000004 Hf
atom 1.3905817000000000 7.5350638800000000 3.7605067100000000 Hf
atom 1.3459851800000000 7.5686485399999999 8.7740473199999993 Hf
atom 6.4143434299999997 2.3696176499999999 3.8757084100000001 Hf
atom 6.3482062299999997 2.3551747600000001 8.7043344099999995 Hf
atom 6.3653225200000003 7.5898655399999999 3.7670541300000000 Hf
atom 6.3260286800000003 7.5551841299999998 8.7540414400000000 Hf
atom 3.8524905999999999 2.5291438799999999 1.2848267400000000 La
atom 3.6624897999999999 2.7193844000000000 6.2376101600000000 Hf
atom 3.6669886799999998 7.9072191199999997 1.2505331500000001 Hf
atom 3.6657335500000001 7.9441249400000000 6.2969554099999998 Hf
atom 8.5908944799999993 2.7262074300000001 1.2542424700000001 Hf
atom 8.6655771399999999 2.6857011700000002 6.2865583100000002 Hf
atom 8.7637541300000006 7.9079140299999997 1.2438957399999999 Hf
atom 8.6782045100000005 7.8865649600000003 6.2526587100000004 Hf
atom 3.6680004899999998 4.9596478199999998 3.7615760100000002 Hf
atom 3.6720316300000002 4.9865501800000001 8.7178911699999997 Hf
atom 3.6167301400000000 10.1252854200000009 3.7281006799999998 Hf
atom 3.5788844800000001 10.1733937599999997 8.8427064800000004 Hf
atom 8.6531344299999997 4.9534194200000004 3.7715232099999998 Hf
atom 8.6383676400000002 4.9666762100000001 8.7647774999999992 Hf
atom 8.7306749099999994 10.1588637899999998 3.7251594300000002 Hf
atom 8.6406817700000005 10.1365506599999993 8.7093955600000008 Hf
atom 0.3440229800000000 1.8421721900000001 1.7946776099999999 O
atom 0.3513803200000000 1.8578038100000001 6.9975724699999997 O
atom 0.4119158500000000 7.0608985300000002 1.9345275700000000 O
atom 0.3914997800000000 7.0654664499999997 6.9259338399999999 O
atom 5.3904852600000002 1.8618005399999999 6.8710921100000002 O
atom 5.3957991300000003 7.1716179300000000 1.9618244800000000 O
atom 5.3419442799999999 7.0429554200000002 6.9771113400000004 O
atom 0.3570735100000000 0.6655528500000000 4.5352188699999996 O
atom 0.2922482600000000 0.6072973500000000 9.5571612699999999 O
atom 0.3873271200000000 5.7991424199999999 4.4339376300000000 O
atom 0.3681518500000000 5.8292214800000002 9.4322473999999996 O
atom 5.3736710900000002 0.6385858000000000 4.4019915500000000 O
atom 5.2022317800000000 0.7824059900000000 9.6820435299999996 O
atom 5.3844655000000001 5.8543163500000004 4.4313553299999997 O
atom 5.3432336400000002 5.8618701099999999 9.4820840099999995 O
atom 4.7135536299999998 4.5497674999999997 2.0006444399999999 O
atom 4.5990044000000001 4.4933766100000003 6.8235603700000000 O
atom 4.6722078700000003 9.8117308500000000 1.9416760500000001 O
atom 4.6344576999999996 9.6767679399999995 7.0233642500000002 O
atom 9.5908611399999995 4.4219575400000002 1.9651925500000000 O
atom 9.6238947300000000 4.4266292700000003 6.9613403900000002 O
atom 9.8817668100000002 9.7122206999999996 1.8785787500000000 O
atom 9.6456023299999991 9.6153210799999993 6.9555263600000004 O
atom 4.6298301999999998 3.1771565800000001 4.3457564299999998 O
atom 4.6731710299999998 3.2793167900000002 9.1973790199999996 O
atom 4.7261097000000003 8.4842560599999999 4.5612430000000002 O
atom 4.6120208600000003 8.4790309900000000 9.4409776000000001 O
atom 9.5953017400000000 3.1640290100000001 4.4365142600000000 O
atom 9.5750652800000005 3.1963954200000000 9.4424190200000009 O
atom 9.6463900400000000 8.4046453200000002 4.4319504700000003 O
atom 9.5870234300000003 8.3781680800000000 9.4034513200000003 O
atom 2.3107620799999999 0.7934896800000000 2.4546416500000001 O
atom 2.7342330200000000 1.2093250900000001 7.5194426600000002 O
atom 2.7221987900000002 6.2594705900000003 2.4723051699999998 O
atom 2.7061082999999999 6.3918246900000000 7.4953323500000000 O
atom 7.6340590099999996 1.1685606600000000 2.5268749800000001 O
atom 7.6550661099999999 1.1139892000000000 7.4959168399999996 O
atom 7.7229076200000000 6.3578153799999999 2.5157870800000000 O
atom 7.6833622100000003 6.3486139899999996 7.5093371199999996 O
atom 2.7279308200000001 1.3320531200000001 4.9457242199999998 O
atom 2.4442723900000001 1.2233090200000001 10.0210614000000007 O
atom 2.7503890100000001 6.5194442900000000 5.0038050399999996 O
atom 2.7078639700000000 6.5336971600000000 9.9880214299999999 O
atom 7.7360985900000001 1.2843101800000001 5.0332214400000002 O
atom 7.6486769700000004 1.2829201800000001 9.9938470499999994 O
atom 7.7040855900000000 6.5138733899999997 5.0091017799999999 O
atom 7.7124267599999996 6.5243060100000001 10.0040222599999993 O
atom 2.3029351999999998 3.8951464599999999 4.9951284999999999 O
atom 2.3201409800000001 3.9323585400000001 9.9295635200000003 O
atom 2.3000023399999998 9.1073358700000000 5.0688191399999996 O
atom 2.1798284200000002 9.2305010099999993 10.2157340699999999 O
atom 7.2998819099999999 3.9152734300000001 5.0296392900000004 O
atom 7.2678156500000002 3.9051609100000002 10.0027440399999996 O
atom 7.3518164199999996 9.1185009099999998 4.9465805200000004 O
atom 7.2853565199999997 9.0911803399999993 9.9359984499999996 O
atom 2.2407677300000000 3.7584373400000000 2.5221036099999998 O
atom 2.2932205899999998 3.7782906800000000 7.4717518600000004 O
atom 2.5891844000000002 8.6928043400000004 2.6868174800000002 O
atom 2.2962361699999998 8.9923561999999997 7.5861237900000003 O
atom 7.2543643199999996 3.7397082400000001 2.5217081000000001 O
atom 7.2883291300000002 3.7546705899999999 7.4947110600000002 O
atom 7.4317207600000001 8.9490569299999994 2.4503762099999999 O
atom 7.2801846599999998 8.9168205000000000 7.4464639899999998 O
