lattice_vector 9.9724249999999994 -0.0190350000000000 0.0838070000000000 
lattice_vector 0.0049550000000000 10.4004700000000003 -0.0501520000000000 
lattice_vector 0.0407120000000000 -0.0633330000000000 10.0294170000000005 
atom 1.2094279999999999 0.3518830000000000 1.1098420000000000 Si
atom 1.3624160000000001 0.1567620000000000 6.3272149999999998 Hf
atom 1.3818079999999999 5.3369629999999999 1.2866329999999999 Hf
atom 1.3977560000000000 5.3302740000000002 6.2127160000000003 Hf
atom 6.3391979999999997 0.1713980000000000 1.3008210000000000 Hf
atom 6.2911310000000000 0.1033240000000000 6.2913449999999997 Hf
atom 6.3688339999999997 5.3743990000000004 1.2813470000000000 Hf
atom 6.3061119999999997 5.3224689999999999 6.2458679999999998 Hf
atom 1.3474809999999999 2.2974869999999998 3.6694629999999999 Hf
atom 1.3913670000000000 2.4104139999999998 8.7978480000000001 Hf
atom 1.3717370000000000 7.5695329999999998 3.7833749999999999 Hf
atom 1.3955360000000001 7.6323970000000001 8.8403829999999992 Hf
atom 6.3435030000000001 2.3787360000000000 3.8105920000000002 Hf
atom 6.3817649999999997 2.3822179999999999 8.7787720000000000 Hf
atom 6.3826669999999996 7.6114949999999997 3.7760210000000001 Hf
atom 6.3046300000000004 7.6407100000000003 8.7895819999999993 Hf
atom 3.7623289999999998 2.7844060000000002 1.1476329999999999 Hf
atom 3.6566950000000000 2.7300499999999999 6.2720330000000004 Hf
atom 3.7146159999999999 7.9294539999999998 1.2981799999999999 Hf
atom 3.6519469999999998 7.9759159999999998 6.3118449999999999 Hf
atom 8.6151490000000006 2.7488039999999998 1.3023739999999999 Hf
atom 8.6672999999999991 2.6595700000000000 6.2432960000000000 Hf
atom 8.7423769999999994 7.9668869999999998 1.2679110000000000 Hf
atom 8.6551729999999996 7.9325450000000002 6.2979979999999998 Hf
atom 3.6927889999999999 4.9522570000000004 3.7641670000000000 Hf
atom 3.6922549999999998 5.0574640000000004 8.7502030000000008 Hf
atom 3.6309860000000000 10.1488150000000008 3.7237119999999999 Hf
atom 3.6201180000000002 10.2250589999999999 8.8762310000000006 Hf
atom 8.6674919999999993 4.9679520000000004 3.8131070000000000 Hf
atom 8.7602469999999997 5.0882930000000002 8.7303460000000008 La
atom 8.7175290000000007 10.2015390000000004 3.7617810000000000 Hf
atom 8.6748069999999995 10.1962399999999995 8.7778419999999997 Hf
atom 0.3699400000000000 1.8027010000000001 1.8150569999999999 O
atom 0.3255690000000000 1.8306579999999999 7.0745350000000000 O
atom 0.3879170000000000 7.1121790000000003 1.9911850000000000 O
atom 0.2790500000000000 6.9752060000000000 7.0752439999999996 O
atom 5.2938939999999999 1.8742740000000000 2.0523989999999999 O
atom 5.3313160000000002 1.8511230000000001 6.9815600000000000 O
atom 5.3701179999999997 7.0888830000000000 2.0281729999999998 O
atom 5.2482350000000002 7.0274190000000001 7.0331409999999996 O
atom 0.3332270000000000 0.6748320000000000 4.5768060000000004 O
atom 0.4129440000000000 0.5768529999999999 9.5922730000000005 O
atom 0.3996660000000000 5.8289099999999996 4.4231959999999999 O
atom 0.5470640000000000 5.9706539999999997 9.6488969999999998 O
atom 5.3371250000000003 0.6500860000000001 4.4972729999999999 O
atom 5.2862980000000004 0.7344900000000000 9.6136009999999992 O
atom 5.3732439999999997 5.8621220000000003 4.4489250000000000 O
atom 5.3813420000000001 5.8550769999999996 9.5001719999999992 O
atom 4.6767300000000001 4.4909129999999999 1.9421020000000000 O
atom 4.6018169999999996 4.4862330000000004 6.9300210000000000 O
atom 4.7396070000000003 9.6663730000000001 1.9982080000000000 O
atom 4.6543200000000002 9.6730610000000006 7.0690770000000001 O
atom 9.6651220000000002 4.4441740000000003 2.0141260000000001 O
atom 9.6765980000000003 4.3549879999999996 6.6861689999999996 O
atom 9.9365260000000006 9.7593259999999997 1.9246710000000000 O
atom 9.6756139999999995 9.6198460000000008 7.0156190000000000 O
atom 4.6793040000000001 3.2576489999999998 4.5070880000000004 O
atom 4.6403109999999996 3.2646850000000001 9.3923570000000005 O
atom 4.7239699999999996 8.4865779999999997 4.5760449999999997 O
atom 4.6033150000000003 8.5097419999999993 9.5010659999999998 O
atom 9.5920559999999995 3.1312039999999999 4.3434460000000001 O
atom 9.7226260000000000 3.1368019999999999 9.6282569999999996 O
atom 9.6571940000000005 8.4585010000000000 4.4987649999999997 O
atom 9.6138449999999995 8.4310089999999995 9.4785029999999999 O
atom 2.3631890000000002 0.7817590000000000 2.4499249999999999 O
atom 2.7354010000000000 1.1993309999999999 7.5602720000000003 O
atom 2.7154530000000001 6.2524590000000000 2.5122200000000001 O
atom 2.6677439999999999 6.4275869999999999 7.5332030000000003 O
atom 7.7052769999999997 1.1760800000000000 2.5253150000000000 O
atom 7.6713589999999998 1.1365780000000001 7.5339169999999998 O
atom 7.7473250000000000 6.3666049999999998 2.5249760000000001 O
atom 7.5372849999999998 6.4981249999999999 7.4352999999999998 O
atom 2.7204709999999999 1.3402130000000001 4.9739100000000001 O
atom 2.6023809999999998 1.3520770000000000 10.1352329999999995 O
atom 2.7517890000000000 6.5357649999999996 5.0234620000000003 O
atom 2.8165909999999998 6.5930780000000002 10.0314499999999995 O
atom 7.6822330000000001 1.2979620000000001 5.0161829999999998 O
atom 7.7207549999999996 1.3164750000000001 10.0365970000000004 O
atom 7.7101350000000002 6.5382009999999999 5.0064180000000000 O
atom 7.5971830000000002 6.6880459999999999 10.1217659999999992 O
atom 2.2963079999999998 3.9086010000000000 4.9608639999999999 O
atom 2.3806389999999999 3.9868839999999999 9.9977420000000006 O
atom 2.2988070000000000 9.1484769999999997 5.0743250000000000 O
atom 2.2191269999999998 9.3165859999999991 10.2678840000000005 O
atom 7.2986360000000001 3.9234369999999998 5.0127360000000003 O
atom 7.2191099999999997 3.8215810000000001 10.1022110000000005 O
atom 7.3408230000000003 9.1518270000000008 4.9943330000000001 O
atom 7.3014539999999997 9.1928879999999999 9.9950989999999997 O
atom 2.3959429999999999 3.6216110000000001 2.4586860000000001 O
atom 2.2773750000000001 3.8004989999999998 7.5014440000000002 O
atom 2.5705860000000000 8.7043890000000008 2.6896819999999999 O
atom 2.3055400000000001 9.0312970000000004 7.6057170000000003 O
atom 7.2843260000000001 3.7944220000000000 2.5452480000000000 O
atom 7.2432920000000003 3.7049140000000000 7.4354959999999997 O
atom 7.4341100000000004 8.9891020000000008 2.4841000000000002 O
atom 7.2944610000000001 8.9972530000000006 7.5080960000000001 O
