lattice_vector 10.0899904599999992 0.0432606800000000 -0.0513918600000000 
lattice_vector 0.0116949300000000 10.3435433700000008 0.1579954400000000 
lattice_vector 0.0008881400000000 0.0461613700000000 10.3834506799999993 
atom 1.1094125900000000 0.3420808700000000 2.3015301500000001 Si
atom 1.3840568200000001 0.2176411200000000 6.9113440099999996 Hf
atom 1.4517948899999999 5.3864400799999999 1.8023832700000000 Hf
atom 1.4446604999999999 5.4145982100000003 6.9985274999999998 Hf
atom 1.3905617900000000 2.4846113700000001 4.4464572200000001 Hf
atom 1.5228362400000000 2.3011131800000002 9.5939852900000009 Hf
atom 1.3525629699999999 7.5771931900000000 4.4296240200000003 Hf
atom 1.4372082600000000 7.6118917799999997 9.6039525300000008 Hf
atom 3.5584221000000000 2.7588574700000001 1.7721437499999999 Hf
atom 3.6783036299999998 2.8359536699999999 6.9768489100000002 Hf
atom 3.5940190799999998 8.0743629000000006 1.8028052699999999 Hf
atom 3.6227562999999998 8.0117202400000007 6.9626688799999998 Hf
atom 3.6701761300000002 5.0138473000000001 4.3714012699999998 Hf
atom 3.5454285300000001 4.9690052099999997 9.5836112500000006 Hf
atom 3.6300685900000000 10.2080154600000004 4.4445134199999998 Hf
atom 3.6689112800000001 10.2170536700000003 9.6777307900000000 Hf
atom 6.4622866700000001 0.3088904600000000 0.8218808399999999 Hf
atom 6.3880362499999999 0.2538264700000000 6.0368278100000001 Hf
atom 6.2794858199999997 5.2150085500000003 1.0692547500000000 La
atom 6.4453212899999999 5.4591022999999996 6.0637179899999998 Hf
atom 6.4325193499999997 2.4360748600000002 3.4459912799999999 Hf
atom 6.4746536199999998 2.4500973199999998 8.6330029100000001 Hf
atom 6.3958142699999998 7.6512915100000001 3.4771310299999998 Hf
atom 6.3906613300000004 7.6544322400000002 8.8935146599999992 La
atom 8.8605272399999997 2.7605677200000001 0.8878123900000000 Hf
atom 8.6520492499999992 2.8302632600000002 5.9939710399999999 Hf
atom 8.9282115799999993 8.2349789500000004 1.1168216700000000 Hf
atom 8.6719436000000005 8.0060736099999996 6.1507645999999996 Hf
atom 8.7344639900000001 5.0573308499999996 3.4476319200000001 Hf
atom 8.8679008600000007 4.8200919600000001 8.5216211699999995 Hf
atom 8.5828582699999991 10.2015635899999992 3.6762700100000001 Hf
atom 8.7380345199999994 10.2402701300000007 8.7471672100000006 Hf
atom 0.5973877300000000 1.5361287900000000 1.1460542300000001 O
atom 0.3363087600000000 1.7833802999999999 6.1235765000000004 O
atom 0.4088204600000000 6.9729979300000000 1.0354823399999999 O
atom 0.3522276000000000 6.9203162200000001 6.1686956200000003 O
atom 0.2860045600000000 0.8518550900000000 3.6673328999999999 O
atom 0.4016628500000000 0.8055930900000000 8.7145106699999992 O
atom 0.3926229600000000 6.0084681499999997 3.5828369100000002 O
atom 0.3569597400000000 5.9837607200000003 8.7824396300000007 O
atom 4.2561399700000004 4.4793993600000004 1.1031697000000000 O
atom 4.6872479599999997 4.4158183700000002 6.1141458599999998 O
atom 4.7190623100000000 9.6558980999999999 1.0511742300000000 O
atom 4.6312431199999997 9.6267625500000005 6.1982401300000003 O
atom 4.6681537799999999 3.3968956100000001 3.5498877000000002 O
atom 4.6685242799999997 3.3654585199999998 8.7618630199999998 O
atom 4.5718194900000002 8.6156640899999992 3.6368733999999998 O
atom 4.4992363600000003 8.6691372300000005 8.6905729500000000 O
atom 2.5257197499999999 1.2966036500000000 2.9562177200000002 O
atom 2.7932592000000001 1.2680092500000000 8.1533576100000005 O
atom 2.7702385399999998 6.5791611200000002 3.0859697800000001 O
atom 2.7629937700000000 6.4688025600000003 8.2460766900000007 O
atom 3.0604184100000000 1.4550947999999999 0.2961780000000000 O
atom 2.7957965699999998 1.3691783500000001 5.5887396300000001 O
atom 2.7646598199999999 6.4713899899999996 0.4647692500000000 O
atom 2.7595198299999999 6.4957142799999996 5.6541748600000004 O
atom 2.2657259000000001 3.9274346800000002 3.1251847900000000 O
atom 2.2644299200000000 3.8461226499999999 8.2571294300000009 O
atom 2.1030040600000000 9.2949614900000004 3.0099760199999999 O
atom 2.1469276100000001 9.0225983000000003 8.2312946900000004 O
atom 2.0808316300000000 3.8450687700000001 0.4746720500000000 O
atom 2.2742711199999999 3.9355215499999998 5.6880203800000002 O
atom 2.3874029499999998 8.9968311900000000 0.3965683900000000 O
atom 2.2448242000000000 9.1009385300000005 5.6481245099999997 O
atom 5.4703103999999998 1.9701550200000000 1.6119360800000000 O
atom 5.4353643800000002 1.8485578700000000 6.8484297500000002 O
atom 5.4145959699999997 7.2476012599999997 1.6894325900000000 O
atom 5.3717456400000003 7.0145051499999997 6.7534117599999997 O
atom 5.3957199400000002 0.8264882000000000 4.1973202000000001 O
atom 5.5348894499999997 0.7912127100000000 9.3784482800000006 O
atom 5.4509764699999996 5.9635539800000004 4.1687336600000000 O
atom 5.3169690599999999 5.7851464400000001 9.4298362299999994 O
atom 9.7899281200000008 4.4121828900000004 1.6833587900000000 O
atom 9.8282108099999999 4.2826517400000004 6.8860786300000001 O
atom 9.8999204200000008 9.6977822299999996 1.9680942400000001 O
atom 9.7424460199999992 9.5610244499999997 6.9686294200000001 O
atom 9.7326449099999994 3.5097467400000002 4.3112034499999998 O
atom 9.8567342199999999 3.3418427799999999 9.5371632399999999 O
atom 9.6747573100000004 8.6259930199999992 4.3770637499999996 O
atom 9.7114903399999992 8.5932574299999995 9.5861674699999995 O
atom 7.8912339899999999 1.4168452800000000 9.9474993800000000 O
atom 7.7807878500000003 1.3360129599999999 4.7707160599999998 O
atom 7.8131423499999997 6.5314369200000000 4.8000052799999997 O
atom 7.8604235200000003 1.2968028300000001 2.1584339600000000 O
atom 7.8446347400000001 1.3816345900000000 7.3432292800000001 O
atom 7.9496852200000001 6.6547295699999998 2.1778596800000001 O
atom 7.9225037100000000 6.4428567499999998 7.4477065500000004 O
atom 7.5115824299999998 3.9491913699999999 9.9009309099999996 O
atom 7.2935105299999998 3.9371010200000001 4.7617300000000000 O
atom 7.5345920000000000 9.2409426400000001 10.2550281900000009 O
atom 7.2450801199999999 9.0841816699999995 4.9031707400000002 O
atom 7.5689832499999996 3.7424241199999999 2.2827315700000002 O
atom 7.3326856100000004 3.9166822500000000 7.3102959800000002 O
atom 7.3581224499999998 9.1754649100000005 2.3536236300000000 O
atom 7.3655241499999997 9.2042093900000008 7.4405117799999996 O
