lattice_vector 10.0762530100000003 0.0763105200000000 -0.2184327400000000 
lattice_vector 0.0006850500000000 10.2675977300000003 0.0891783900000000 
lattice_vector -0.0849785700000000 0.0267786900000000 10.4709202900000005 
atom 0.9029090600000000 0.2449978700000000 2.1155204900000002 Si
atom 1.3585658199999999 0.2255663200000000 6.9453870499999999 Hf
atom 1.5158368600000001 5.2491786600000001 1.6292960800000000 Hf
atom 1.3306418200000001 5.3623063899999996 7.0003693100000000 Hf
atom 1.3670906800000000 2.4154519300000001 4.4250430700000001 Hf
atom 1.4242672000000001 2.2573989399999999 9.6413972500000007 Hf
atom 1.3077696599999999 7.6920561500000000 4.1805311800000000 La
atom 1.4422466400000000 7.6262223400000000 9.4271654799999993 Hf
atom 3.6399553000000000 2.7431225200000000 1.6968087300000001 Hf
atom 3.5985347499999998 2.8362053600000001 6.9755825800000002 Hf
atom 3.5733889799999998 8.0292425299999994 1.6204012200000000 Hf
atom 3.6544562200000001 7.9628906099999996 6.8905124700000000 Hf
atom 3.5717092600000000 4.9855633199999998 4.3500306000000002 Hf
atom 3.5991250199999998 4.9352471199999997 9.5485208700000008 Hf
atom 3.6092029100000000 10.2735538999999996 4.3259123400000004 Hf
atom 3.6530537800000000 10.1150640099999993 9.5864527099999997 Hf
atom 6.4788337100000000 0.2971846000000000 0.6724353500000000 Hf
atom 6.3635730600000002 0.3027979200000000 5.9615649900000003 Hf
atom 6.4045053100000002 5.4077569199999997 0.7606428200000001 Hf
atom 6.3519085600000000 5.3867769399999998 6.0050557600000003 Hf
atom 6.4285196400000002 2.5299220600000001 3.3231216600000000 Hf
atom 6.4456232800000004 2.4170817400000000 8.5729003200000005 Hf
atom 6.2186914000000000 7.5974376000000001 3.3912426800000000 Hf
atom 6.4128511899999996 7.5430872000000004 8.6395945500000000 Hf
atom 8.7346565799999993 2.8393446000000000 0.7232662200000000 Hf
atom 8.6290662499999993 2.8376395699999999 5.9508247000000001 Hf
atom 8.6893823700000006 7.9454816900000003 0.8679780900000000 Hf
atom 8.5429978700000007 7.9451140999999996 5.9923742799999999 Hf
atom 8.8429778599999995 5.2475908100000002 3.4102026400000001 La
atom 8.6826338599999993 4.9518794799999997 8.5939317899999992 Hf
atom 8.4553485599999991 10.1638522400000006 3.4438741300000002 Hf
atom 8.6831425299999996 10.0671917299999993 8.6406224399999996 Hf
atom 0.5951795600000001 1.4693419000000001 1.0392509299999999 O
atom 0.2784510900000000 1.6633922500000000 6.1325225899999998 O
atom 0.1697476600000000 6.7602364499999998 1.9468060800000000 O
atom 0.0648774000000000 6.5479992899999999 5.9188006900000003 O
atom 0.2988381300000000 0.7772566400000001 3.5755009800000002 O
atom 0.3419587400000000 0.7660192700000000 8.7647731499999999 O
atom 0.3163329800000000 6.0075334500000004 8.7887921000000002 O
atom 4.6755057000000004 4.3399202800000003 0.8081673600000000 O
atom 4.6193212499999996 4.3290715300000002 6.0479789300000002 O
atom 4.7793618499999999 9.4589553399999993 0.8215308300000000 O
atom 4.6580296199999998 9.5073912299999996 6.0433524600000004 O
atom 4.6721706799999998 3.5266006100000000 3.3953936400000000 O
atom 4.6916498999999998 3.4851290700000002 8.6555789799999996 O
atom 4.4236070800000000 8.6202152299999995 3.4348665500000002 O
atom 4.6977083500000001 8.6163072199999995 8.6379594399999995 O
atom 2.7096680200000001 1.5043021299999999 3.0768277300000002 O
atom 2.7203980200000002 1.2732834399999999 8.1901901200000005 O
atom 2.7695656500000001 6.3758939899999998 2.8780905099999998 O
atom 2.7583978999999998 6.4233524500000003 8.1988730099999998 O
atom 3.0670170400000001 1.4153486000000000 0.2320457100000000 O
atom 2.7593137900000002 1.3896141000000000 5.6467425799999997 O
atom 2.5988967900000000 6.4376474799999999 0.3014292000000000 O
atom 2.7312772900000000 6.4581556800000000 5.6757234099999998 O
atom 2.1363404400000001 3.9671606100000001 3.0961891000000001 O
atom 2.2153453399999998 3.8274774200000001 8.2912115699999998 O
atom 2.1477465900000001 9.4541311799999992 2.6567112200000000 O
atom 2.2824360200000000 8.9692008199999993 8.1642954400000001 O
atom 2.2989780600000000 3.8308086200000000 0.3786353800000000 O
atom 2.1694329899999998 3.9095041400000001 5.6809991200000001 O
atom 2.4104833100000000 8.9328477900000003 0.1928439900000000 O
atom 2.2565311299999999 9.1850899600000009 5.6086976599999998 O
atom 5.4033190800000002 1.7705639799999999 1.6229821400000000 O
atom 5.3455731799999997 1.7961497900000001 6.8825502700000003 O
atom 5.2299567700000003 6.9059774300000001 1.6309305800000000 O
atom 5.3624255600000001 6.9092092200000002 6.9132887700000003 O
atom 5.3416042199999998 0.9966167000000000 4.2309679899999999 O
atom 5.4127055999999998 0.9026167200000000 9.4287931999999994 O
atom 5.2371881800000004 6.0773757899999996 4.2886193400000003 O
atom 5.3214913299999997 6.0510990500000004 9.5050492099999992 O
atom 9.9013157300000003 4.2321073299999998 1.5153698099999999 O
atom 9.7122753300000007 4.2720586300000001 6.8897029400000003 O
atom 9.7059562699999997 9.5540512900000003 1.7051235000000000 O
atom 9.7631277999999995 9.3238172400000003 6.9299711000000004 O
atom 9.6726243699999994 3.3741526999999998 4.2323596700000001 O
atom 9.7329777699999998 3.4067472200000002 9.4872738099999996 O
atom 9.3526944299999997 8.5795214600000005 4.2230815799999997 O
atom 9.7246452100000003 8.5215876000000002 9.6442663399999997 O
atom 7.8563427600000004 1.3174302700000000 9.8839794699999999 O
atom 7.7543665900000001 1.3536778199999999 4.6593146499999998 O
atom 7.8245610699999997 6.4509069900000000 9.9956561399999995 O
atom 7.5080119900000000 6.6208744299999998 4.7788066899999997 O
atom 7.8338762900000001 1.3996557500000000 2.0213785899999999 O
atom 7.8100615199999996 1.3267259400000000 7.2797590000000003 O
atom 7.5699063500000001 6.6186107600000001 2.0636922800000002 O
atom 7.7754282200000002 6.4569796300000002 7.3600421300000001 O
atom 7.2817359300000000 3.8949745700000000 9.9225862300000003 O
atom 7.2053485899999998 3.9008664700000000 4.7434663099999996 O
atom 7.2827140400000001 9.0307198599999996 9.9724086399999994 O
atom 7.0613703799999996 9.1058140499999993 4.7192362200000000 O
atom 7.3213742300000000 3.9274858699999999 1.9921214800000000 O
atom 7.2741875900000004 3.9208268799999999 7.3170285200000000 O
atom 7.2546636700000002 9.0997988299999992 2.1141905099999998 O
atom 7.2733170100000004 9.0537199800000003 7.3496060400000003 O
