lattice_vector 10.0870580000000007 -0.0026620000000000 0.0033660000000000 
lattice_vector -0.0021610000000000 10.2378660000000004 0.0051400000000000 
lattice_vector -0.0060160000000000 0.0075680000000000 10.1275410000000008 
atom 1.2595630000000000 0.0362040000000000 1.2841710000000000 La
atom 1.2477549999999999 0.0449000000000000 6.3333649999999997 Hf
atom 1.2332270000000001 5.1365550000000004 1.2685519999999999 Hf
atom 1.2667980000000001 5.1343199999999998 6.3529749999999998 Hf
atom 6.3194800000000004 -0.0688270000000000 1.2287520000000001 Hf
atom 6.2964440000000002 -0.0244440000000000 6.3581200000000004 Hf
atom 6.3099379999999998 5.1170030000000004 1.2443109999999999 Hf
atom 6.3312020000000002 5.1332750000000003 6.3647700000000000 Hf
atom 1.2450200000000000 2.6357819999999998 3.8536570000000001 Hf
atom 1.2616019999999999 2.5987860000000000 8.8513339999999996 Hf
atom 1.2522940000000000 7.6880629999999996 3.8428309999999999 Hf
atom 1.2254039999999999 7.6797750000000002 8.8492960000000007 Hf
atom 6.3048570000000002 2.5309860000000000 3.7979959999999999 La
atom 6.3104269999999998 2.5298250000000002 8.8764149999999997 Hf
atom 6.3291329999999997 7.6682470000000000 3.8178640000000001 Hf
atom 6.2899570000000002 7.6779419999999998 8.8618970000000008 Hf
atom 3.8025359999999999 2.5703160000000000 1.1791270000000000 Hf
atom 3.7836460000000001 2.5877910000000002 6.3769549999999997 Hf
atom 3.7733650000000001 7.6460340000000002 1.2430580000000000 Hf
atom 3.7635630000000000 7.6733269999999996 6.3386319999999996 Hf
atom 8.8507599999999993 2.6084600000000000 1.3019149999999999 Hf
atom 8.8189469999999996 2.5583809999999998 6.3767899999999997 Hf
atom 8.8253310000000003 7.6377119999999996 1.2671530000000000 Hf
atom 8.8141309999999997 7.7028809999999996 6.3601929999999998 Hf
atom 3.7620049999999998 -0.0033520000000000 3.9026190000000001 Hf
atom 3.7751519999999998 -0.0135850000000000 8.8331870000000006 Hf
atom 3.7888150000000000 5.1587249999999996 3.8441299999999998 Hf
atom 3.7929360000000001 5.1392559999999996 8.8761139999999994 Hf
atom 8.8003199999999993 -0.0441570000000000 3.7832870000000001 Hf
atom 8.8259399999999992 0.0133130000000000 8.8365829999999992 Hf
atom 8.8244749999999996 5.1640170000000003 3.8227799999999998 Hf
atom 8.8294499999999996 5.1069899999999997 8.8571639999999991 Hf
atom -0.0787110000000000 1.5562199999999999 -0.0076640000000000 O
atom 0.0840070000000000 1.5998980000000000 5.2622960000000001 O
atom 0.0530710000000000 6.5863560000000003 0.0801920000000000 O
atom -0.0232570000000000 6.6632080000000000 5.1336870000000001 O
atom 5.1312829999999998 1.5032120000000000 0.1291560000000000 O
atom 4.9371260000000001 1.3439319999999999 5.2750029999999999 O
atom 5.0877090000000003 6.5984090000000002 0.0473950000000000 O
atom 5.0159490000000000 6.6299359999999998 5.1011280000000001 O
atom -0.0513740000000000 1.2302280000000001 2.7965170000000001 O
atom 0.0245100000000000 1.0663609999999999 7.6948879999999997 O
atom 0.0179780000000000 6.2010560000000003 2.6019820000000000 O
atom 0.0072230000000000 6.1934560000000003 7.6671139999999998 O
atom 4.9793180000000001 0.8745889999999999 2.5395699999999999 O
atom 5.0958839999999999 1.0392560000000000 7.7378710000000002 O
atom 5.0558240000000003 6.1619099999999998 2.5775120000000000 O
atom 5.0492670000000004 6.1786709999999996 7.6513479999999996 O
atom 0.0252970000000000 3.6733859999999998 2.4510570000000000 O
atom -0.0090480000000000 3.6541160000000001 7.5352079999999999 O
atom -0.0666260000000000 8.6974769999999992 2.5679479999999999 O
atom 0.0602430000000000 8.7450399999999995 7.4856629999999997 O
atom 4.9118500000000003 3.7486989999999998 2.4133119999999999 O
atom 5.0246380000000004 3.6065019999999999 7.5915509999999999 O
atom 5.1571639999999999 8.6082029999999996 2.3817710000000001 O
atom 5.0900160000000003 8.7215509999999998 7.4926139999999997 O
atom 0.0098270000000000 4.0714839999999999 -0.0651190000000000 O
atom 0.1064430000000000 4.1485050000000001 4.9534390000000004 O
atom -0.1326050000000000 9.0311100000000000 -0.1411350000000000 O
atom 0.0293330000000000 9.2396519999999995 5.0074389999999998 O
atom 5.0584379999999998 4.0515530000000002 -0.0716980000000000 O
atom 5.0122609999999996 4.1108580000000003 5.1195769999999996 O
atom 5.0304539999999998 9.1603250000000003 -0.1086090000000000 O
atom 5.0960850000000004 9.1381499999999996 4.9633779999999996 O
atom 2.5851310000000001 1.6929879999999999 2.5424899999999999 O
atom 2.4617040000000001 1.5357909999999999 7.4714570000000000 O
atom 2.5063450000000000 6.6432919999999998 2.5101369999999998 O
atom 2.5078520000000002 6.6338410000000003 7.5638769999999997 O
atom 7.6161300000000001 1.3364000000000000 2.2861340000000001 O
atom 7.5332610000000004 1.5081519999999999 7.5151040000000000 O
atom 7.5441859999999998 6.6037580000000000 2.4844800000000000 O
atom 7.5494389999999996 6.6190449999999998 7.5470319999999997 O
atom 2.6272340000000001 1.2231250000000000 -0.1931750000000000 O
atom 2.4329499999999999 1.0633760000000001 4.9523929999999998 O
atom 2.5470660000000001 6.1749320000000001 -0.0132170000000000 O
atom 2.4750500000000000 6.2064490000000001 5.0401330000000000 O
atom 7.4805429999999999 0.9676010000000000 -0.1796050000000000 O
atom 7.6431690000000003 1.0106329999999999 5.0899250000000000 O
atom 7.5858509999999999 6.1419079999999999 -0.0471610000000000 O
atom 7.5098419999999999 6.2184210000000002 5.0063769999999996 O
atom 2.4656490000000000 3.6666780000000001 0.1243940000000000 O
atom 2.5320170000000002 3.6442709999999998 5.1962820000000001 O
atom 2.5501950000000000 8.6940240000000006 -0.0324620000000000 O
atom 2.5034310000000000 8.7531079999999992 5.1590129999999998 O
atom 7.5322950000000004 3.5655899999999998 0.0803260000000000 O
atom 7.6950680000000000 3.7737460000000000 5.2284720000000000 O
atom 7.4562419999999996 8.6568100000000001 0.1337540000000000 O
atom 7.5517729999999998 8.7331970000000005 5.1524080000000003 O
atom 2.4045749999999999 4.1970169999999998 2.7059609999999998 O
atom 2.4661949999999999 4.0911400000000002 7.7226249999999999 O
atom 2.6501589999999999 9.0565069999999999 2.6737020000000000 O
atom 2.5313210000000002 9.2064660000000007 7.6235889999999999 O
atom 7.6284409999999996 4.1073599999999999 2.5194049999999999 O
atom 7.4961060000000002 4.0674080000000004 7.7290809999999999 O
atom 7.5362239999999998 9.1314419999999998 2.6363610000000000 O
atom 7.5651640000000002 9.1582729999999994 7.6793690000000003 O
