lattice_vector 10.1477011600000004 -0.0258902500000000 0.0558026400000000 
lattice_vector -0.0061622600000000 10.4876873899999996 -0.0252853100000000 
lattice_vector -0.0261261800000000 -0.0371727400000000 5.0724494399999998 
atom 1.1840102699999999 -0.0012946700000000 1.2250565800000000 La
atom 1.3506182099999999 5.3978764999999997 1.2665344500000000 Hf
atom 6.4741674199999997 0.1011013600000000 1.3487544000000000 Hf
atom 6.4506276600000003 5.4089858900000003 1.2998106800000000 Hf
atom 1.2588221100000001 2.4927839000000001 3.7320429800000001 Hf
atom 1.3740441999999999 7.6285450700000004 3.8240555899999999 Hf
atom 6.4902773600000003 2.3798812599999999 3.8691343200000001 Hf
atom 6.4090049000000002 7.6135779100000001 3.8687544800000002 Hf
atom 3.8181802600000001 2.6595263999999998 1.2154131100000001 La
atom 3.7418617699999999 7.9723652400000002 1.2600009400000001 Hf
atom 8.7440251999999994 2.8095439999999998 1.3273994600000001 Hf
atom 8.7556677199999999 7.9286469100000003 1.3305069000000000 Hf
atom 3.6736507999999999 5.0572077799999997 3.7862838100000000 Hf
atom 3.7409169699999998 10.2124210600000005 3.7920311899999999 Hf
atom 8.7667643099999992 5.0271385600000000 3.8565816800000001 Hf
atom 8.6876680299999993 10.2268571500000007 3.8872197700000002 Hf
atom 0.3275329700000000 2.1263041199999999 1.9111696800000000 O
atom 0.3511032100000000 7.1778304700000000 2.0013345000000000 O
atom 5.6709583700000001 1.8112704100000001 2.1134271299999998 O
atom 5.4462552999999998 7.1586911600000001 2.0331587600000001 O
atom 0.2102889100000000 0.7606505200000000 4.2162971000000002 O
atom 0.2939784900000000 5.9497866300000002 4.5256432999999996 O
atom 5.3595583600000003 0.7178364100000000 4.6782270800000001 O
atom 5.3776003599999997 5.9260372099999996 4.5844521199999999 O
atom 4.7348539499999998 4.7026147900000002 1.9874135100000001 O
atom 4.7046007699999999 9.7829267299999998 1.9800842299999999 O
atom 9.7306653500000007 4.5924503500000000 2.0192137200000002 O
atom 9.4770668899999997 9.6323213800000005 2.1296651400000002 O
atom 4.7460736199999998 3.3425219300000002 4.2217234000000001 O
atom 4.8044373199999999 8.5478784999999995 4.5822982999999997 O
atom 9.7119004600000007 3.3115089100000001 4.5667381699999998 O
atom 9.8896172999999994 8.5903827600000007 4.7171852699999999 O
atom 2.7157781000000001 1.1678711100000001 2.6737948700000000 O
atom 2.7234137399999998 6.4323913299999997 2.5110006899999999 O
atom 7.8866847299999998 1.1870136499999999 2.6359290099999999 O
atom 7.7995734399999996 6.4375050700000003 2.5686577000000002 O
atom 2.6074671999999999 1.2602893799999999 4.8645081599999997 O
atom 2.7073795800000000 6.5598406999999996 5.0684441099999997 O
atom 7.7833104600000000 1.3031838000000000 5.1822400799999997 O
atom 7.7816563299999997 6.5542521100000002 5.0847832000000004 O
atom 2.2512208500000002 4.0192327900000002 5.0029469300000002 O
atom 2.4650813299999998 9.0709181599999997 4.9893992799999998 O
atom 7.3644958400000000 3.9674006999999998 5.1222159400000002 O
atom 7.4056624400000004 9.1304650400000007 5.1371037199999998 O
atom 2.2121851000000001 3.9479982300000001 2.5532587000000002 O
atom 2.4556754399999998 8.9170682499999998 2.5639057200000002 O
atom 7.4010802099999999 3.8344946200000001 2.5920669500000000 O
atom 7.2667466999999997 9.0285029899999998 2.5949602899999999 O
