lattice_vector 10.0944602099999994 0.0320569300000000 -0.0478120600000000 
lattice_vector 0.0454987700000000 10.2590395500000007 0.0501150800000000 
lattice_vector -0.0174604700000000 -0.0106891100000000 10.4449848599999999 
atom 1.1373772600000001 -0.0969405200000000 1.8044491400000000 Si
atom 1.3517020000000000 0.2131465500000000 6.9559444499999996 Hf
atom 1.4145333200000001 5.3773221800000002 1.8202916400000000 Hf
atom 1.4059649500000000 5.3256900199999997 7.0890238700000001 Hf
atom 1.4387052000000000 2.3348746899999999 4.3021550599999996 Hf
atom 1.5344118300000000 2.2850339399999999 9.6165869300000004 Hf
atom 1.4250346500000000 7.4743681999999998 4.4909675599999996 Hf
atom 1.3912008499999999 7.5123650800000004 9.6554779300000000 Hf
atom 3.6352599900000002 2.7866428600000002 1.7699830800000000 Hf
atom 3.6625550800000002 2.8118397499999999 6.9781631600000003 Hf
atom 3.5834403500000001 7.9429674900000000 1.8078679499999999 Hf
atom 3.6833378899999998 7.9275213700000000 7.0546716099999998 Hf
atom 3.5929153800000000 4.9925080399999997 4.4627286000000002 Hf
atom 3.6739381600000001 4.9141641299999996 9.6475457400000000 Hf
atom 3.6475446599999999 10.1197975600000003 4.3883091299999997 Hf
atom 3.6438157699999998 10.0981886599999999 9.5575156099999994 Hf
atom 6.3198281600000001 0.1558851500000000 0.8479076400000000 La
atom 6.3960327399999999 0.2063081900000000 5.9846638800000003 Hf
atom 6.4833945999999996 5.3030192300000003 0.8448780500000000 Hf
atom 6.4502217399999999 5.3630068499999997 6.1035494200000002 Hf
atom 6.2699525100000004 2.5699171800000000 3.6189022999999998 Hf
atom 6.4601113300000002 2.3482956599999998 8.5817640399999995 Hf
atom 6.4142986400000002 7.4768274500000000 3.4510513000000000 Hf
atom 6.4614703999999996 7.4610479200000004 8.6922190599999993 Hf
atom 8.8888563699999992 2.5710334900000000 0.9846219800000000 La
atom 8.7417040999999998 2.7886443100000000 5.9909603200000001 Hf
atom 8.7159815900000002 7.8617980400000000 0.8159601100000000 Hf
atom 8.6731767699999995 7.8781687500000004 6.1308572500000000 Hf
atom 8.7196685699999996 4.9915749900000002 3.4620158299999999 Hf
atom 8.7335782900000005 4.8346472199999999 8.7262501500000003 Hf
atom 8.8244773700000003 9.9466235800000007 3.5711703500000000 Hf
atom 8.7315273700000002 10.0489641299999999 8.6298441399999994 Hf
atom 0.8572466600000000 1.2868811899999999 0.8658087200000000 O
atom 0.2908113000000000 1.5720816399999999 5.9007629799999997 O
atom 0.3966546000000000 6.9100426800000001 0.9436039100000000 O
atom 0.3368942800000000 6.7867263600000003 6.1540890499999996 O
atom 0.3813959600000000 0.8216213600000000 3.2365138500000001 O
atom 0.3179208900000000 0.9027309300000000 8.6212165600000006 O
atom 0.3558514700000000 6.0366208900000000 3.5624105199999998 O
atom 0.3493373200000000 5.9852524400000000 8.7778870700000002 O
atom 4.6867648300000004 4.3702379100000002 0.9638378600000000 O
atom 4.6678246000000003 4.3947295500000001 6.1809760300000001 O
atom 4.5048306199999999 9.3363987900000005 0.7742856200000000 O
atom 4.7052224799999998 9.4703066600000003 6.1577236900000001 O
atom 4.5424749899999997 3.4062482799999998 3.7065777400000002 O
atom 4.7286507200000001 3.4232801199999998 8.7083769300000000 O
atom 4.6688209499999997 8.5923590599999997 3.4848799700000002 O
atom 4.7164760899999996 8.5165420199999993 8.7329847500000000 O
atom 2.8547200899999998 1.3143587500000000 3.0384783600000000 O
atom 2.7375407900000002 1.2744336000000001 8.1641353700000003 O
atom 2.7770624000000002 6.4753362499999998 3.1446126099999998 O
atom 2.7975639200000000 6.4063646900000002 8.3385984999999998 O
atom 3.2575060699999998 1.5734768699999999 0.1975303500000000 O
atom 2.7649426500000001 1.3197163900000000 5.6305951500000004 O
atom 2.8087106799999999 6.5125996600000002 0.4847794500000000 O
atom 2.7755440500000002 6.4390954899999997 5.7616318900000003 O
atom 2.2418193899999999 3.8897014400000001 3.0799673500000000 O
atom 2.3159444499999999 3.8398489200000001 8.3198427000000006 O
atom 2.1138729299999999 9.1011319999999998 3.0142630499999998 O
atom 2.2710655300000000 8.9677251200000008 8.3326620499999997 O
atom 2.2486571299999998 3.9202553299999998 0.4910479200000000 O
atom 2.2345372499999998 3.8545260699999999 5.6901701100000004 O
atom 2.0543795600000001 9.2145306900000001 0.5984833100000000 O
atom 2.3020777099999998 8.9977896299999998 5.6902405199999997 O
atom 5.5802420200000000 2.0257109099999999 1.8282103400000000 O
atom 5.4337804600000004 1.8521771000000000 6.7601969300000002 O
atom 5.4020999700000001 6.9127568300000002 1.7318760200000001 O
atom 5.4241029999999997 6.8981671499999999 6.9378968499999996 O
atom 5.3860347800000001 0.8192367200000000 4.2660115000000003 O
atom 5.3494760200000000 0.7792909200000000 9.2268650799999996 O
atom 5.3855144299999997 5.9783768500000001 4.3548874299999998 O
atom 5.4148548800000000 5.9643918600000001 9.5785491100000009 O
atom 9.7646575500000008 4.4708925300000004 1.7316044799999999 O
atom 9.8050780399999997 4.1996444100000003 6.9770055600000003 O
atom 9.7615138100000003 9.4632455199999992 1.7293095400000000 O
atom 9.7923234299999997 9.3712901899999999 6.9467186900000000 O
atom 9.7609105300000003 3.4212758600000002 4.2440660399999999 O
atom 9.9031448900000001 3.4204801900000001 9.6051405100000000 O
atom 9.8033496000000007 8.5678039199999994 4.4448119799999999 O
atom 9.7742166000000008 8.5885671200000004 9.5703544600000008 O
atom 7.8368360700000004 1.2311456599999999 9.7853335799999996 O
atom 7.8491064599999998 1.3177492099999999 4.4497713900000004 O
atom 7.8846979900000003 6.3358269099999998 10.0202065600000001 O
atom 7.8216137000000003 6.4437257399999996 4.7842406000000004 O
atom 7.8386605899999999 1.2786198000000000 7.1804920200000000 O
atom 7.8125010599999998 6.4286027099999998 2.1610827600000002 O
atom 7.8536527100000004 6.3987378899999996 7.4181080799999997 O
atom 7.2899681200000002 3.8250111300000000 9.9738245499999998 O
atom 7.3480108499999996 3.9016230900000002 4.8475912299999999 O
atom 7.3852091099999999 8.8353869899999999 9.9600391500000001 O
atom 7.3386779700000000 8.9713510500000009 4.8345843200000003 O
atom 7.2885084200000003 3.8993715500000001 2.3151338500000000 O
atom 7.3597333100000002 3.8647702399999999 7.3794569499999998 O
atom 7.5281678300000001 8.9393167400000006 2.3169141400000002 O
atom 7.3229938199999998 8.9879266500000004 7.3967943199999997 O
