lattice_vector 10.1313725600000009 -0.0198215800000000 0.9329631900000001 
lattice_vector 0.0006833100000000 10.2618959299999997 -0.0333972200000000 
lattice_vector 0.9008335400000000 -0.0635586900000000 10.4277119099999993 
atom 1.2097311100000001 0.2528074300000000 1.2181723600000001 Si
atom 1.9736258000000000 0.1549128800000000 6.8637233899999996 Hf
atom 1.5280642400000000 5.3368341399999997 1.6242046299999999 Hf
atom 2.0237104299999999 5.2705054799999997 6.8616045799999998 Hf
atom 6.6321122700000004 0.2074044200000000 2.1656920099999999 Hf
atom 6.9593862900000003 0.2358624600000000 7.4269051199999998 Hf
atom 6.5976826600000003 5.3591285299999996 2.0968412900000000 Hf
atom 7.0471163900000002 5.2980272700000004 7.3233092099999997 Hf
atom 1.8990370500000000 2.2816496000000002 4.1565301300000002 Hf
atom 2.1871596100000001 2.3254034799999999 9.4487398299999992 Hf
atom 1.8077042000000001 7.3934318299999999 4.2675064200000001 Hf
atom 2.1653596099999999 7.4037167300000002 9.4574165200000007 Hf
atom 6.7911390100000002 2.3236537700000000 4.7351536200000002 Hf
atom 7.2782570599999996 2.2998821700000001 9.9551683999999998 Hf
atom 6.8326161699999997 7.4121095400000003 4.6618293099999999 Hf
atom 7.2334760100000004 7.4388103499999998 9.9438332500000008 Hf
atom 3.7688950100000000 2.7442985100000001 1.4570047900000000 Hf
atom 4.1777659199999997 2.7525403900000001 6.6471841300000003 Hf
atom 3.7136477700000001 7.9496079899999996 1.4734944600000000 Hf
atom 4.2260081200000004 7.8713067199999998 6.6446685499999996 Hf
atom 8.7667508000000005 2.7831606799999999 1.8486206100000000 Hf
atom 9.2822058799999994 2.6829765900000000 7.0450580699999996 Hf
atom 8.8104741099999995 7.9204597699999999 1.8591847200000000 Hf
atom 9.3384791200000006 7.7642101200000004 7.1296635500000001 Hf
atom 3.9733867900000002 4.8628543400000002 3.9919047700000001 Hf
atom 4.4319356699999997 4.8648455700000000 9.2574476400000005 Hf
atom 4.0035703299999996 10.0245353300000009 4.0187398999999999 Hf
atom 4.3669759499999996 10.0049201700000001 9.2865612199999994 Hf
atom 9.0628326000000001 4.8370914000000003 4.4675171499999999 Hf
atom 9.4785792600000001 4.8378028200000003 9.6766875900000002 Hf
atom 9.3991777299999999 10.2203285699999995 4.5438033600000001 La
atom 9.4671844400000005 9.9761268899999997 9.6500899400000009 Hf
atom 0.2686499900000000 1.5335493300000000 0.6275748799999999 O
atom 0.7281309700000000 1.3762272499999999 5.7003733700000003 O
atom 0.3904796100000000 6.8407011899999999 0.8393852400000000 O
atom 0.9226971700000000 6.7662011099999999 6.1290613799999996 O
atom 5.5285432400000003 1.7162743100000000 1.3286476800000000 O
atom 5.8442732900000003 1.6904094400000000 6.5833429199999998 O
atom 5.4670623300000001 6.8807991399999997 1.3329347800000000 O
atom 5.9770438500000003 6.8306240200000001 6.5322535000000004 O
atom 1.2442496400000000 0.8560439000000000 2.7866600600000000 O
atom 1.0115893800000000 0.9028400100000000 8.5232172599999991 O
atom 0.6798919000000000 5.8717763500000002 3.4760661399999999 O
atom 1.0951265600000000 5.9044437399999996 8.6593383500000005 O
atom 5.8197456900000004 0.7384255800000000 4.0218503400000003 O
atom 6.1031903700000001 0.8138724000000001 9.1973313900000004 O
atom 5.7002829200000003 5.9695823900000002 3.9058963200000001 O
atom 6.1577234900000004 5.9280026499999998 9.1508564400000001 O
atom 4.8762355399999997 4.2799423200000000 2.2014317600000002 O
atom 5.2999914600000002 4.2688714200000000 7.4319810799999999 O
atom 4.8989299500000003 9.4161238699999998 2.2148011300000001 O
atom 5.2899776000000003 9.3665083800000009 7.4798212099999999 O
atom 9.9390037699999993 4.2121785799999998 2.6523603200000001 O
atom 10.4276909500000006 4.1352108699999999 7.8688697799999998 O
atom 10.0322038500000001 9.4609287200000001 2.3872976900000000 O
atom 10.3703915900000005 9.3213511499999999 7.8573031699999998 O
atom 5.0923587200000000 3.4116883200000001 4.8575837799999997 O
atom 5.5287942000000001 3.3404207700000002 10.0264942300000008 O
atom 5.1656628600000003 8.5441184600000000 4.8755759999999997 O
atom 5.4528136299999996 8.4958458399999994 10.0563610400000005 O
atom 10.1208425299999991 3.1971134000000001 5.1621315900000004 O
atom 10.6039726299999995 3.3676708799999999 10.4900050900000004 O
atom 10.1450355400000003 8.2750426400000006 5.3129572100000004 O
atom 10.5670124899999998 8.4451483700000001 10.4095681399999993 O
atom 3.5252665300000001 1.5457343600000000 3.0500922500000001 O
atom 3.4440149400000002 1.2818806100000000 8.0517133399999992 O
atom 3.0176156600000001 6.3780014899999999 2.7370229799999999 O
atom 3.4604900100000000 6.4071562599999998 7.9793647300000003 O
atom 8.0404987499999994 1.4104433300000001 3.1996475599999998 O
atom 8.5009352200000006 1.2646497800000001 8.4666962800000007 O
atom 8.1027363599999997 6.3967946800000002 3.1962757900000001 O
atom 8.5230282899999992 6.3608696100000000 8.4470766400000006 O
atom 3.2080349400000001 1.1900086700000001 5.4757997899999999 O
atom 3.5057000800000000 1.1653316199999999 10.7478449099999995 O
atom 3.2803001900000002 6.2979466700000000 5.3753716999999996 O
atom 3.6649156299999999 6.3657754500000001 10.5791158999999997 O
atom 8.1079149499999996 1.2310895900000001 5.9670110200000002 O
atom 8.7417872600000006 1.1698419499999999 11.0295865400000004 O
atom 8.2918026699999992 6.3466771099999999 5.8168780299999998 O
atom 8.7271878600000008 6.3180100100000001 11.0230589899999991 O
atom 2.2586423999999998 3.8924454599999998 0.2788999600000000 O
atom 2.6954388599999999 3.8082307100000001 5.4723457599999996 O
atom 2.1406648900000000 9.1945474899999997 0.4144411900000000 O
atom 2.7466962100000001 8.9375862900000005 5.5639358200000002 O
atom 7.3355655300000002 3.8922658999999999 0.7544684600000000 O
atom 7.8430321899999997 3.8535235900000000 5.9948199799999999 O
atom 7.3258119400000004 9.0188028199999994 0.7356936900000000 O
atom 2.4721612400000001 3.8118197999999999 2.8591455899999998 O
atom 2.9495514500000000 3.7753793700000000 8.1135605900000005 O
atom 2.6303305799999999 8.8085658099999993 3.0350427099999999 O
atom 2.9308859400000000 8.9059524200000002 8.1753814699999996 O
atom 7.5328939200000002 3.8254518800000001 3.3736176699999998 O
atom 8.0203593299999998 3.7459953200000000 8.5766857000000005 O
atom 7.6234219200000002 8.8821517599999993 3.3722916199999999 O
atom 7.9747702100000000 8.8719797299999996 8.5165668799999992 O
