lattice_vector 10.0081138400000000 -0.0368400900000000 -0.0380443500000000 
lattice_vector 0.0028973300000000 10.3959918499999997 0.0151842200000000 
lattice_vector -0.0228701700000000 0.0113159100000000 10.0271454200000001 
atom 1.2422812900000000 0.0928865300000000 1.1907783000000001 La
atom 1.3430999299999999 0.1714541500000000 6.2884250599999998 Hf
atom 1.3153113599999999 5.3605507799999996 1.2617173800000001 Hf
atom 1.3255769399999999 5.3755083900000002 6.2782078900000000 Hf
atom 6.3429556700000003 0.1351433300000000 1.2481841600000001 Hf
atom 6.3616237699999996 0.1678732900000000 6.2352333399999997 Hf
atom 6.3470915000000003 5.3506053700000002 1.2520518899999999 Hf
atom 6.3299586600000000 5.3443987699999997 6.2619177600000002 Hf
atom 1.3206429099999999 2.4324902300000000 3.7900449799999998 Hf
atom 1.2059942800000001 2.5568936000000000 8.6508455699999995 Hf
atom 1.3250587800000000 7.6265632900000000 3.7698062999999999 Hf
atom 1.3488273600000000 7.6223401500000003 8.7831359300000003 Hf
atom 6.3135925000000004 2.4075864000000000 3.7440727900000002 Hf
atom 6.3223536700000000 2.4147285500000000 8.7714666700000006 Hf
atom 6.3174254300000001 7.5983308699999998 3.7781739900000000 Hf
atom 6.3671320600000003 7.5838699399999996 8.7529839500000008 Hf
atom 3.6852307500000001 2.8257562200000002 1.3045355800000000 Hf
atom 3.6625144700000001 2.7542205800000001 6.2730102299999997 Hf
atom 3.6957341100000001 7.9217861200000002 1.2462294500000000 Hf
atom 3.6582981600000002 7.9317223200000004 6.2289089600000001 Hf
atom 8.6148156399999998 2.7566012999999998 1.2729106100000001 Hf
atom 8.6437288700000003 2.7715218899999998 6.2283320800000004 Hf
atom 8.6178031300000004 7.9358664499999998 1.2818866700000000 Hf
atom 8.6703049100000005 7.9297464399999997 6.2437912999999998 Hf
atom 3.6252732600000002 5.0236493400000004 3.7745688400000001 Hf
atom 3.6502606300000000 5.0032526700000002 8.7803860700000005 Hf
atom 3.6549843000000002 10.2189473700000004 3.7422897599999998 Hf
atom 3.7595092900000000 10.1180174399999991 8.6723768000000003 Hf
atom 8.6572227599999998 5.0129373499999996 3.7442620199999999 Hf
atom 8.6323121300000007 5.0026860299999996 8.7823252000000007 Hf
atom 8.6336014599999995 10.1932541400000005 3.7970665100000001 Hf
atom 8.6481064700000001 10.1957012599999999 8.7332766599999996 Hf
atom 0.2590248500000000 2.0412310100000002 2.0675011900000002 O
atom 0.3976806800000000 1.9814114800000000 6.7964748000000004 O
atom 0.3614407800000000 7.1359559099999998 1.9537482600000000 O
atom 0.3514634500000000 7.1145269000000004 6.9835951100000004 O
atom 5.3916610800000004 1.9141680100000000 1.9047239300000001 O
atom 5.3523838599999998 1.8777539800000000 6.9544209500000003 O
atom 5.3566449399999998 7.0580280300000000 1.9594054900000000 O
atom 5.3628642099999997 7.0890455799999996 6.9468207599999996 O
atom 0.3627948200000000 0.6675894500000000 4.4346201199999999 O
atom 0.3565842700000000 0.7927992300000000 9.1560779799999992 O
atom 0.3423207100000000 5.8901206100000003 4.4841689499999999 O
atom 0.3365534600000000 5.9123272000000000 9.4674721900000005 O
atom 5.3581809700000003 0.6641941200000000 4.4364452400000003 O
atom 5.3166045600000000 0.6882233100000000 9.4624829199999994 O
atom 5.3299907800000002 5.8602315100000002 4.4688306000000004 O
atom 5.3502977400000002 5.8520000100000003 9.4640334199999998 O
atom 4.6356271400000004 4.5012006800000002 1.9561571600000001 O
atom 4.6565335100000000 4.4805472899999996 6.9776759000000004 O
atom 4.6255115499999997 9.7103604600000004 1.9115686300000001 O
atom 4.6670909900000002 9.6661898599999994 6.9110176599999997 O
atom 9.5847368500000005 4.5470210900000003 1.9007961499999999 O
atom 9.6773200100000007 4.4579827700000001 7.0111008100000003 O
atom 9.4315129899999999 9.6271394499999996 2.0403399900000001 O
atom 9.6283313100000001 9.6821595400000007 6.9083735300000004 O
atom 4.6221008899999996 3.2662085900000002 4.4473344399999997 O
atom 4.5887568300000003 3.2337651400000000 9.4641155399999999 O
atom 4.6368178799999997 8.4728323299999992 4.4484550699999996 O
atom 4.7330358400000003 8.4437727999999996 9.4627874599999995 O
atom 9.6325110600000006 3.2942230000000001 4.4379990800000000 O
atom 9.5806876400000007 3.2788365000000002 9.4833657299999992 O
atom 9.6326095200000008 8.4334580199999998 4.4487054800000001 O
atom 9.7348509799999992 8.5523264099999992 9.5501254499999995 O
atom 2.8057574600000001 1.3327294500000000 2.5031797700000000 O
atom 2.7026480899999998 1.2395236400000000 7.6300155199999997 O
atom 2.6865052700000001 6.3769670200000004 2.4929732400000000 O
atom 2.7058541300000001 6.4085043400000004 7.5088750500000003 O
atom 7.6683154800000004 1.1962756699999999 2.5071685200000000 O
atom 7.7078491900000001 1.2181042799999999 7.4877863600000003 O
atom 7.6913447599999998 6.4113102399999997 2.4953054699999999 O
atom 7.7142858600000004 6.3835456500000003 7.4894414700000000 O
atom 2.7037137200000001 1.3526821899999999 5.0446857200000004 O
atom 2.6839549300000001 6.5671752600000000 4.9979568399999996 O
atom 2.6943350900000000 6.5332459099999998 10.0194275899999994 O
atom 7.6841095399999997 1.3707478200000001 4.9957492099999996 O
atom 7.6991325000000002 1.3467021400000001 10.0000097900000000 O
atom 7.6921715800000001 6.5455269899999999 4.9936165900000002 O
atom 7.6981441600000000 6.5411482100000002 10.0058392000000005 O
atom 2.2912216600000002 3.9771350700000001 5.0150308199999998 O
atom 2.2573070099999999 3.9286554599999999 10.0122553100000005 O
atom 2.2850829699999999 9.1847939000000007 5.0020063400000003 O
atom 2.4522285099999999 9.0946416899999996 9.8991032899999993 O
atom 7.2913713900000001 3.9612359399999999 4.9953222899999998 O
atom 7.2359144000000004 3.9568833799999998 10.0070300200000002 O
atom 7.2864457500000004 9.1404618499999994 5.0218317199999998 O
atom 7.3100101799999999 9.1435511999999992 10.0160176799999991 O
atom 2.2632669500000002 3.8490624100000002 2.5088107700000002 O
atom 2.3193102799999998 3.8522557499999999 7.4775481399999997 O
atom 2.4175388099999999 8.8940804300000007 2.5568455800000001 O
atom 2.3046743400000000 8.9906243299999993 7.4568469799999999 O
atom 7.2695687400000004 3.8192197600000002 2.5016180700000001 O
atom 7.2959952499999998 3.8028758499999999 7.5039567099999998 O
atom 7.1804957099999998 8.9839779400000008 2.5142220599999998 O
atom 7.3133638999999997 8.9956756500000008 7.5091733999999999 O
