lattice_vector 10.1367617200000009 -0.0054881600000000 0.8601290100000000 
lattice_vector 0.0057265900000000 10.2947567200000005 -0.0165760500000000 
lattice_vector 0.8133961300000000 -0.0534132300000000 10.4095344799999996 
atom 1.2857666100000000 0.2538861200000000 1.3025213400000000 Si
atom 1.8767613800000000 0.1745504300000000 6.8445933500000002 Hf
atom 1.5389952300000000 5.3312389700000002 1.6459885800000000 Hf
atom 1.9144727300000000 5.3499825400000001 6.8551165699999999 Hf
atom 6.6642457300000002 0.2076640800000000 2.0095160500000002 Hf
atom 6.9413196199999998 0.1775800200000000 7.2877838800000001 Hf
atom 6.5739755799999999 5.3705514200000000 2.0678694900000001 Hf
atom 6.9878441200000001 5.3236060099999998 7.2945251600000001 Hf
atom 1.6536815800000000 2.4706112099999999 4.3142765100000000 Hf
atom 2.1048980300000002 2.3314391600000000 9.3971643500000006 Hf
atom 1.7316213600000001 7.4587108500000001 4.2436034700000000 Hf
atom 2.1412069300000001 7.4612061699999996 9.4723278600000000 Hf
atom 6.8059592999999996 2.3471810199999998 4.6429901800000000 Hf
atom 7.2247448299999997 2.3309766299999999 9.8634501599999993 Hf
atom 6.7875644099999999 7.4442189499999998 4.7055648600000000 Hf
atom 7.1570232200000001 7.4667688400000003 9.8912441700000002 Hf
atom 3.7329873999999998 2.5639773899999998 1.5004726200000000 La
atom 4.1394545100000002 2.7569759899999999 6.6161346900000000 Hf
atom 3.7122790000000001 7.9471334400000000 1.4198488600000001 Hf
atom 4.1505276699999998 7.8784727900000000 6.6281737100000004 Hf
atom 8.8041859599999999 2.7734765200000000 1.8004454999999999 Hf
atom 9.1590715700000001 2.7304966799999999 7.0289616800000001 Hf
atom 8.8719042300000002 7.9260680800000003 1.8145984799999999 Hf
atom 9.2050943400000005 7.8861859000000001 7.0295016800000001 Hf
atom 3.9738426800000002 4.9306226000000004 3.9980481299999999 Hf
atom 4.3558085300000000 4.8627450899999998 9.2221807899999995 Hf
atom 3.9272887000000001 10.1349324599999999 3.9930041599999999 La
atom 4.3286465400000003 10.0222520300000006 9.2135907600000007 Hf
atom 8.9875072199999995 4.9278776400000002 4.3933018300000004 Hf
atom 9.4243917100000001 4.8988533800000003 9.6342046099999994 Hf
atom 8.9165157300000004 10.0188713699999994 4.4334684600000003 Hf
atom 9.4219430899999992 10.0086984399999999 9.6026859099999999 Hf
atom 0.3439920900000000 1.5507818400000000 0.7360185000000000 O
atom 0.5943773100000000 1.4507320300000000 5.8076365499999998 O
atom 0.4164616600000000 6.8541453499999996 0.8636859700000000 O
atom 0.7598370600000000 6.7864487400000000 6.0470868099999997 O
atom 5.8515824600000004 1.9042641400000000 1.3946620100000000 O
atom 5.8886660800000001 1.7352942600000001 6.5083172899999999 O
atom 5.5338155000000002 6.9989952899999999 1.3742568500000001 O
atom 5.9541302399999996 6.8990248799999998 6.5952446100000000 O
atom 1.9002305200000000 1.0414702400000000 2.7360378500000002 O
atom 0.9464178200000000 0.9021293500000001 8.5278087599999992 O
atom 0.5791909400000000 5.9853568900000003 3.4447293800000001 O
atom 1.0101661700000000 5.9960326700000000 8.6568807799999998 O
atom 6.0171985699999997 0.6941377100000000 3.8913353000000002 O
atom 6.0888690499999996 0.7524807000000000 9.1790716999999997 O
atom 5.7902157100000000 5.8383100900000002 4.0140182299999996 O
atom 6.1299117699999996 5.8784196900000003 9.1675140000000006 O
atom 4.8224093999999997 4.4740675300000001 2.1607164800000001 O
atom 5.2126001600000000 4.3414717300000003 7.3159271500000003 O
atom 4.8459646300000001 9.6449320600000004 1.8570457800000000 O
atom 5.1891946400000002 9.4816063699999997 7.3316558499999998 O
atom 9.9381349300000004 4.2325024999999998 2.6244199099999999 O
atom 10.3560100700000000 4.1723188100000002 7.8227911499999996 O
atom 10.1105110400000004 9.6037486600000008 2.7003213200000000 O
atom 10.3232158100000007 9.3261276599999992 7.8592418100000003 O
atom 4.9425591100000004 3.2108068699999999 4.6567065400000001 O
atom 5.4637700599999999 3.3054804400000002 9.8540694299999991 O
atom 5.0426765099999997 8.3410793900000009 4.7882592199999996 O
atom 5.3201202900000002 8.4079362000000000 9.8993379499999996 O
atom 10.0281196099999992 3.3380669799999998 5.1827154999999996 O
atom 10.5308554599999997 3.3924868699999999 10.4293777500000004 O
atom 10.1500316999999995 8.6435436400000007 5.2351055700000000 O
atom 10.5880103000000005 8.5951039199999997 10.4895437800000000 O
atom 3.3926858800000002 1.2889196199999999 7.9595638099999997 O
atom 3.0097024900000000 6.3601325400000004 2.7579898200000001 O
atom 3.3892383100000001 6.4312274900000004 7.9749471999999999 O
atom 8.2674695699999994 1.3293904299999999 3.1940413599999999 O
atom 8.4138967800000000 1.2804283100000000 8.3602168799999994 O
atom 8.0765629699999995 6.4595565900000000 3.1670739700000001 O
atom 8.4572225799999998 6.4416150200000004 8.3971395999999991 O
atom 3.0013093799999999 1.3742193300000001 5.4640280800000003 O
atom 3.3547530399999999 1.0603461800000000 10.5237925200000006 O
atom 3.1855326499999999 6.3534420500000000 5.3756940599999998 O
atom 3.6018682700000002 6.3814555200000003 10.5763301599999995 O
atom 8.2118760700000006 1.1866354500000000 5.7695219800000004 O
atom 8.7636940299999999 1.1708151200000001 10.9242216899999995 O
atom 8.2672957100000009 6.3444693599999997 5.7873846699999998 O
atom 8.6922145400000002 6.3884744700000002 10.9863712800000002 O
atom 2.2017619900000001 3.9445730600000002 0.2259556300000000 O
atom 2.6488262699999998 3.8992825899999999 5.5007781600000003 O
atom 2.1227775900000001 9.1799651099999995 0.4348618200000000 O
atom 2.6027169500000000 8.9389357000000000 5.6217350200000000 O
atom 7.3755427100000004 3.9538296499999999 0.6952555700000000 O
atom 7.7315437100000004 3.8641371800000002 5.9310619200000003 O
atom 7.3954634199999996 9.0267253600000004 0.7010249400000000 O
atom 7.7309604900000002 9.0110350599999993 5.9157838299999996 O
atom 2.4039192599999999 3.8344240900000002 2.9877578699999998 O
atom 2.8856267000000000 3.7827915999999999 8.0733327300000006 O
atom 2.5311597300000002 8.7144069200000001 2.8983956700000002 O
atom 2.8720082300000001 8.9316478099999994 8.1626689700000004 O
atom 7.5400952999999999 3.7935356699999998 3.2960524599999999 O
atom 7.9688266399999996 3.7861545500000000 8.5240214299999995 O
atom 7.6642586499999998 8.9188217800000000 3.3075300699999999 O
atom 7.9113209299999996 8.9226923700000000 8.5237656099999999 O
