lattice_vector 10.0382837299999998 0.0687475000000000 0.8155688400000000 
lattice_vector 0.0741030800000000 10.1640210700000004 -0.0653349800000000 
lattice_vector 0.8928346200000000 -0.0197709100000000 10.4708130199999996 
atom 1.3129023099999999 0.2416572400000000 1.7438003099999999 Si
atom 1.9565138000000000 0.1715954600000000 6.8363117000000004 Hf
atom 1.3495092399999999 5.3240041500000004 1.7104848800000001 Si
atom 1.9933683099999999 5.2534115100000003 6.8031530599999996 Hf
atom 6.5183494599999996 0.2745644400000000 2.0337827900000001 Hf
atom 6.9743290000000000 0.2420266600000000 7.2978849800000001 Hf
atom 6.5554063600000001 5.3566018199999998 2.0009177700000000 Hf
atom 7.0112993799999996 5.3240753700000001 7.2650183999999998 Hf
atom 1.7460460799999999 2.2455979300000002 4.1830248799999996 Hf
atom 2.1846459199999999 2.2919846399999999 9.4052573099999996 Hf
atom 1.7827032100000000 7.3275285200000004 4.1501762700000002 Hf
atom 2.2213977800000002 7.3734256599999997 9.3721509899999997 Hf
atom 6.7814198000000001 2.3406721199999998 4.6426562699999998 Hf
atom 7.2015690100000000 2.3945294100000001 9.9258843599999995 Hf
atom 6.8184047500000000 7.4225853600000002 4.6101293600000002 Hf
atom 7.2387558600000004 7.4763526699999998 9.8932114400000000 Hf
atom 3.6478726199999998 2.8269920000000002 1.3581261600000001 Hf
atom 4.1961455499999998 2.7894285000000001 6.6242316499999996 Hf
atom 3.6847193200000001 7.9091690300000002 1.3251689000000000 Hf
atom 4.2330367300000002 7.8716069299999996 6.5914815300000003 Hf
atom 8.8501759300000007 2.7825686799999998 1.8155641300000001 Hf
atom 9.1945956899999999 2.7687669700000002 7.0304666600000001 Hf
atom 8.8869897099999999 7.8647123199999998 1.7828584400000000 Hf
atom 9.2315871099999995 7.8509082100000001 6.9979548500000002 Hf
atom 3.9683788500000001 4.8285400699999999 3.9310368800000002 Hf
atom 4.4157346700000000 4.9918489099999999 9.2760804799999992 Hf
atom 4.0052454400000004 9.9106267599999995 3.8984387400000000 Hf
atom 4.4527793200000003 10.0736451900000006 9.2435629099999996 Hf
atom 8.9884065100000008 4.8759075000000003 4.3969847599999996 Hf
atom 9.4418817199999996 4.8946819599999998 9.6440863799999992 Hf
atom 9.0254037700000005 9.9579011899999994 4.3642979600000000 Hf
atom 9.4790058300000002 9.9767996100000005 9.6116127299999992 Hf
atom 0.5613952500000000 1.5024919900000000 0.8414200800000000 O
atom 0.8086308600000000 1.5423745000000000 5.9647885799999996 O
atom 0.5982588400000000 6.5846568599999999 0.8080716500000000 O
atom 0.8452899800000000 6.6242492300000002 5.9320099300000004 O
atom 5.3830339800000004 1.6917432900000000 1.1946981100000000 O
atom 5.8691286399999996 1.6636293799999999 6.4133080800000002 O
atom 5.4197940400000002 6.7735739700000002 1.1618551300000000 O
atom 5.9057091699999997 6.7454890399999998 6.3806329100000001 O
atom 0.6371574700000000 0.7762108100000000 3.3086966499999999 O
atom 1.0536658900000000 0.8637782100000000 8.6313289999999991 O
atom 0.6734345300000000 5.8590637000000001 3.2753291600000001 O
atom 1.0903950099999999 5.9456504099999998 8.5980101399999995 O
atom 5.6084030599999997 0.9458048100000001 3.7950528700000001 O
atom 6.0877314399999998 0.9832148000000001 9.0363769999999999 O
atom 5.6454249799999996 6.0279892799999999 3.7621009800000000 O
atom 6.1248411599999999 6.0653241600000003 9.0035325200000003 O
atom 4.9309608799999998 4.1680375900000000 2.2252920000000000 O
atom 5.3182816700000002 4.2204983900000004 7.4767181100000002 O
atom 4.9679742500000001 9.2500476900000006 2.1927706300000001 O
atom 5.3553377900000001 9.3027228100000006 7.4439368899999998 O
atom 10.0459435199999998 4.2629038899999996 2.5976552000000002 O
atom 10.3651381199999992 4.1595368700000002 7.8843585799999998 O
atom 10.0830725099999992 9.3445407899999999 2.5649722499999998 O
atom 10.4022755199999999 9.2417536800000004 7.8517270400000001 O
atom 5.1231835300000004 3.4880731699999998 4.8531057999999998 O
atom 5.5612772399999999 3.5973777600000001 10.1325262899999995 O
atom 5.1600118100000003 8.5698761599999997 4.8204076599999999 O
atom 5.5983109999999998 8.6789826399999992 10.0997244399999992 O
atom 10.1001151799999995 3.4245150199999999 5.2198462599999997 O
atom 10.5846128999999998 3.4711920500000000 10.5351579300000004 O
atom 10.1369501599999996 8.5064874100000001 5.1874210500000002 O
atom 10.6218280400000005 8.5531781700000007 10.5024810100000003 O
atom 2.7638686300000002 1.1286634900000001 2.4543235499999998 O
atom 3.3891530799999998 1.2926489699999999 7.8455498300000004 O
atom 2.8005429700000000 6.2107252199999996 2.4207440899999999 O
atom 3.4258633800000000 6.3744717900000003 7.8122378899999996 O
atom 8.0317090300000000 1.3168325999999999 3.1326911800000001 O
atom 8.4664162899999997 1.3325548599999999 8.3831100000000003 O
atom 8.0687066600000001 6.3987679499999999 3.0998219499999999 O
atom 8.5033355200000003 6.4144214799999997 8.3502794700000003 O
atom 3.2154093200000000 1.2288852200000000 5.2424902199999996 O
atom 3.8285647100000002 1.6338722800000001 10.3026002699999992 O
atom 3.2521215300000001 6.3109077700000000 5.2095102100000004 O
atom 3.8654085399999998 6.7159494000000004 10.2699143700000004 O
atom 8.2382704199999992 1.2451772900000000 5.7491484200000000 O
atom 8.7004274299999995 1.2922741900000001 11.0072520800000007 O
atom 8.2750579399999999 6.3273067599999999 5.7166486599999997 O
atom 8.7375013399999997 6.3742967799999999 10.9745986400000000 O
atom 2.2593150299999998 4.3451531399999999 0.5320454300000000 O
atom 2.7182456400000001 3.8026274199999999 5.5220910500000002 O
atom 2.2967857700000001 9.4276201299999993 0.4996648600000000 O
atom 2.7549224099999998 8.8849115699999999 5.4893251100000002 O
atom 7.3543731100000000 3.8927166700000000 0.7156406300000000 O
atom 7.7427661199999998 3.8554008500000001 5.9305271299999998 O
atom 7.3913644700000001 8.9749425499999997 0.6831614700000000 O
atom 7.7796754500000000 8.9376372699999997 5.8978989300000002 O
atom 2.5574319200000000 3.6498238600000001 2.9628206000000001 O
atom 2.9753504899999998 3.7963476500000000 8.2038581500000003 O
atom 2.5937378999999998 8.7321279000000001 2.9299555900000001 O
atom 3.0121801000000001 8.8782237899999998 8.1712154399999992 O
atom 7.6123427000000001 3.7872782300000001 3.2908840100000001 O
atom 7.9687038399999999 3.8202807900000000 8.5614551199999998 O
atom 7.6491585000000004 8.8691552399999996 3.2585821300000002 O
atom 8.0057710899999996 8.9021992300000008 8.5290925000000009 O
