lattice_vector 10.1489912300000000 -0.0378321700000000 0.7150612500000000 
lattice_vector -0.0048226600000000 10.2072504700000000 -0.0071063300000000 
lattice_vector 0.8501707300000000 -0.0391853600000000 10.5976076300000006 
atom 1.2688792300000000 0.2684216100000000 1.6809057400000000 Si
atom 2.0012169499999999 0.0770072600000000 6.9347581800000002 Hf
atom 1.4965513800000001 5.3323545399999999 1.6340037199999999 Hf
atom 1.9308307000000000 5.2481662499999997 6.9482612200000000 Hf
atom 6.5764993199999999 0.2090253300000000 1.9657182000000000 Hf
atom 6.6891701200000000 -0.1163387900000000 7.0423434299999998 La
atom 6.5564449700000003 5.3037117599999997 2.0033093599999998 Hf
atom 7.0783737799999997 5.1845342700000003 7.3042722700000002 Hf
atom 1.7744842999999999 2.2082742199999998 4.1636696999999998 Hf
atom 2.1354993100000002 2.3212015899999998 9.4753466999999993 Hf
atom 1.7576947500000000 7.3806340300000004 4.2995559600000002 Hf
atom 2.1015472000000002 7.4199775499999996 9.6092660500000004 Hf
atom 6.8035427300000002 2.3492786600000000 4.5953652600000003 Hf
atom 7.0415068999999999 2.3902434299999999 10.0866765500000000 Hf
atom 6.9466849799999997 7.3250443900000004 4.6239842700000002 Hf
atom 7.1666454499999999 7.4250455899999999 10.0016201999999996 Hf
atom 3.6253569699999999 2.7645854299999999 1.3386658199999999 Hf
atom 4.1787392600000004 2.7842775500000001 6.6130727900000004 Hf
atom 3.7092153899999998 7.9423661799999996 1.4642785500000000 Hf
atom 4.2739360499999997 7.6210933199999999 6.5975905099999999 Hf
atom 8.8762404600000000 2.7056983500000000 1.6965837699999999 Hf
atom 9.3472502500000001 2.4345108899999999 7.1156949899999997 La
atom 8.8265815300000003 7.8325495399999996 1.7715360600000001 Hf
atom 9.3305834399999998 7.7409734400000003 7.0458271899999998 Hf
atom 3.9642183599999998 4.8428960999999999 3.9618096100000000 Hf
atom 4.3667040899999998 4.9486761899999996 9.3241218900000007 Hf
atom 4.0708733900000000 9.8928150899999991 4.0738158200000001 Hf
atom 4.3198925800000003 10.0385065999999998 9.4844171599999996 Hf
atom 9.0988887900000002 4.7405660599999999 4.4071031400000003 Hf
atom 9.4524315100000003 4.8397431700000002 9.7124255700000006 Hf
atom 9.1162465400000006 9.8914648799999991 4.3361462900000003 Hf
atom 9.5338379799999995 9.8394479500000003 9.7392032499999992 Hf
atom 0.5064554100000001 1.4116880500000000 0.6512330100000000 O
atom 0.9012990000000000 1.1852299500000001 5.7139606399999998 O
atom 0.3536353600000000 6.7333717999999996 0.7980013700000000 O
atom 0.8653379600000000 6.7101999699999997 6.0955780700000002 O
atom 5.3707877300000000 1.6333040200000000 1.2029159899999999 O
atom 5.8975211600000002 1.8278342599999999 6.3941002500000002 O
atom 5.4162543799999998 6.7417740200000003 1.1531701500000000 O
atom 5.9954792699999997 6.6335737100000003 6.3846990300000002 O
atom 0.5606900800000000 0.9207412200000000 3.1441484000000002 O
atom 0.7752188100000000 1.1266704700000001 8.4502647799999995 O
atom 0.5991809700000000 5.9810622000000002 3.4393058299999999 O
atom 0.9932196300000000 6.0355629700000000 8.7586523700000001 O
atom 5.6894364499999996 0.9044215700000000 3.7553063500000001 O
atom 6.1589419200000002 0.9354366000000000 9.0980543500000000 O
atom 5.6472104700000001 6.0338980900000001 3.7689854399999998 O
atom 6.0564628599999999 6.0683399900000001 9.0540947799999998 O
atom 4.9009312700000001 4.1484706899999999 2.2189572200000001 O
atom 5.2821571100000000 4.2228222200000003 7.5473816600000001 O
atom 5.0108577199999997 9.1782492500000004 2.3527925100000000 O
atom 4.9339099800000001 9.0119408599999993 7.7919686700000002 O
atom 10.0296701899999992 4.0561185300000000 2.5980392600000002 O
atom 10.3976101199999995 4.2103046199999996 7.9559016700000003 O
atom 10.1255816700000008 9.2554267200000009 2.5440523200000000 O
atom 10.4237010399999992 9.1613924600000001 7.9680293200000003 O
atom 5.1064030100000002 3.4984698200000000 4.8302571900000002 O
atom 5.5140159200000003 3.6224594099999998 10.2850822399999995 O
atom 5.3565882499999997 8.6811076099999998 5.0778868399999997 O
atom 5.4961756499999996 8.6397660100000007 10.3250794799999994 O
atom 10.2941046000000007 3.3559343799999999 5.1967891300000000 O
atom 10.6273445100000004 3.4160259000000002 10.5687856000000000 O
atom 10.3458436900000006 8.5723190000000002 5.2697818800000000 O
atom 10.5858218100000006 8.5102168099999993 10.6381107000000004 O
atom 2.7381410800000001 1.1502437000000001 2.4143479999999999 O
atom 3.3500009300000002 1.3022990100000000 7.8970738300000001 O
atom 2.9812455999999998 6.3521466899999997 2.6921081299999998 O
atom 3.3527076400000002 6.4503308600000002 8.0343972099999998 O
atom 8.0920053000000003 1.2234754600000000 2.9052847700000002 O
atom 8.0948487100000008 6.3341109299999996 3.0916038499999998 O
atom 8.4854419500000002 6.3219506799999996 8.3934812599999997 O
atom 3.3394757500000001 1.2396313299999999 5.2093880199999996 O
atom 3.7864969600000000 1.5548355400000000 10.3713601400000002 O
atom 3.2317214299999999 6.2556283199999996 5.3524380699999998 O
atom 3.6130428299999999 6.4667818400000003 10.6712599600000004 O
atom 8.2194465399999999 1.0994317899999999 5.4822316700000000 O
atom 8.6468417199999994 1.2196694100000001 10.8148312099999995 O
atom 8.3739054999999993 6.2152855100000002 5.7375413100000001 O
atom 8.6666642399999994 6.3227649399999999 11.0449307200000000 O
atom 2.2260368300000000 3.9747020499999999 0.2455604800000000 O
atom 2.6680790600000002 3.8024423500000002 5.5541487900000002 O
atom 2.2732593500000000 9.4084116200000008 0.6516619700000000 O
atom 2.8526973400000002 8.8591294400000002 5.6910336199999998 O
atom 7.4060857599999999 3.8528824699999999 0.7081176800000000 O
atom 7.7708076300000002 3.8151759900000002 5.8892005999999997 O
atom 7.3770765999999997 8.9575882999999994 0.6907115200000000 O
atom 8.0161461200000002 8.7064090699999994 5.8153359900000003 O
atom 2.5211632399999999 3.7252995599999998 2.8885813300000001 O
atom 2.9277692499999999 3.8135175299999999 8.2271422100000002 O
atom 2.6522658400000001 8.7805288400000006 3.1121922899999999 O
atom 2.6499630700000001 9.0969759200000002 8.6205347799999998 O
atom 7.6247172399999998 3.7374891300000002 3.2590503200000001 O
atom 7.9315035299999996 3.6860003099999998 8.7114469799999998 O
atom 7.6653192399999996 8.8369959100000006 3.2724407200000001 O
atom 8.0802367299999993 8.8390654400000006 8.6630630699999998 O
