lattice_vector 10.0218000699999994 -0.0017887800000000 0.7742922000000000 
lattice_vector 0.0127210500000000 10.1547614900000003 -0.0008689000000000 
lattice_vector 0.8639467800000000 0.0116221100000000 10.4424635299999995 
atom 1.3612800700000001 0.1044164200000000 1.7956365700000001 Si
atom 1.9108761500000000 0.2315135200000000 6.8006683399999996 Hf
atom 1.5261847799999999 5.3091205700000001 1.6262797700000000 Hf
atom 1.8704544400000001 5.2110989300000004 6.8038274599999999 Hf
atom 6.5192839800000000 0.2381517700000000 1.9970089099999999 Hf
atom 7.0261426900000004 0.3019976600000000 7.2290501400000000 Hf
atom 6.5237534000000004 5.2933862700000001 2.0278511400000001 Hf
atom 7.0004419400000000 5.2607967300000000 7.2944979099999996 Hf
atom 1.7217292500000001 2.2779377200000002 4.1340753399999999 Hf
atom 2.2212919000000002 2.2869507400000000 9.4418126099999995 Hf
atom 1.7375784999999999 7.3914415000000000 4.2535474999999998 Hf
atom 2.1107617699999999 7.3837473500000002 9.3940621899999996 Hf
atom 6.7763662099999999 2.3126497399999999 4.6589612599999999 Hf
atom 7.1963060900000002 2.4255995399999999 9.8562865300000002 Hf
atom 6.7385455199999997 7.3875177299999999 4.6370421500000001 Hf
atom 7.1504286400000003 7.4353618199999998 9.8640378399999999 Hf
atom 3.6838409799999998 2.7259706300000000 1.3254758099999999 Hf
atom 4.1445555199999999 2.7797288899999999 6.5689241000000003 Hf
atom 3.6490315299999998 7.9186572999999996 1.3625824600000001 Hf
atom 4.1755863900000003 7.8435691199999997 6.6234669700000000 Hf
atom 8.8583903799999995 2.6680997700000000 1.8098948200000000 Hf
atom 9.3346977500000001 2.6693839100000001 6.8064646399999997 Si
atom 8.7290638400000002 7.8341718800000004 1.7697785399999999 Hf
atom 9.1292765100000004 7.8324018400000002 6.9951138100000003 Hf
atom 3.9351951000000001 4.8556842600000003 3.9713840700000000 Hf
atom 4.3504311600000003 4.9095459400000001 9.1929621200000007 Hf
atom 3.9174273600000000 9.9264790499999993 3.9398085799999998 Hf
atom 4.4042950200000002 10.0358384899999997 9.1917513100000008 Hf
atom 8.9618297899999995 4.8287209000000004 4.4459586499999997 Hf
atom 9.3557753800000008 4.7992112599999999 9.6433232600000007 Hf
atom 8.9387223799999997 9.9071206400000005 4.3744578900000004 Hf
atom 9.4030382699999997 9.9695666400000000 9.5893607500000009 Hf
atom 0.6169594000000000 1.4401135199999999 0.8731716800000000 O
atom 0.7301137300000000 1.6540088799999999 5.9703954799999996 O
atom 0.3783123500000000 6.7107938300000001 0.7815285199999999 O
atom 0.7879277300000000 6.6997649299999997 6.0346269799999996 O
atom 5.4290883599999997 1.6891303099999999 1.2017056500000001 O
atom 5.8328195899999997 1.6557009300000001 6.3932747299999999 O
atom 5.3890831300000004 6.7633693499999996 1.2060427899999999 O
atom 5.8531122800000004 6.7399383500000001 6.4221195499999997 O
atom 0.6574927800000000 0.7544941800000000 3.3268758200000002 O
atom 1.0585931900000001 0.8851568200000000 8.6022451100000001 O
atom 0.6457601700000000 5.8953637900000002 3.4583554200000002 O
atom 1.0159815400000001 5.9129500899999998 8.5931645000000003 O
atom 5.6024927099999999 0.9093688400000000 3.7993342600000002 O
atom 6.1925580800000004 0.8989843400000000 9.0241265800000008 O
atom 5.6300890299999997 5.9523976500000000 3.8119456999999999 O
atom 5.9750848999999997 6.0858192300000002 8.9833476399999999 O
atom 4.8348019400000002 4.1907633300000002 2.2002818099999999 O
atom 5.2592304199999997 4.2009550100000004 7.4274569799999997 O
atom 4.8462598300000002 9.2741328799999998 2.2036564200000002 O
atom 5.2944886000000002 9.3324396899999993 7.3879552500000001 O
atom 9.9115746399999995 4.1189283500000000 2.6650218200000002 O
atom 10.0999276400000007 3.9755193599999998 7.7386753900000000 O
atom 9.9467580699999996 9.2756425100000008 2.5606903600000002 O
atom 10.2699184399999996 9.2755579400000006 7.7824686600000001 O
atom 5.1024380999999996 3.4650136499999999 4.8313843700000003 O
atom 5.5199018999999998 3.5421300800000002 10.0726890800000000 O
atom 5.0199444599999996 8.4749073999999993 4.7743812999999999 O
atom 5.4237116500000004 8.5458362000000001 10.0391864200000001 O
atom 10.0180678200000006 3.2861929299999999 5.2494023099999998 O
atom 10.5523463700000004 3.3816218299999998 10.4904595300000008 O
atom 10.0295886700000008 8.4360016299999998 5.1769486599999999 O
atom 10.4631364300000005 8.4989325000000004 10.3897771999999993 O
atom 2.7999101500000001 1.1454091900000001 2.4663622100000002 O
atom 3.3895216499999998 1.2926240499999999 7.8152370600000003 O
atom 2.9761304800000001 6.4078512700000001 2.7096545399999998 O
atom 3.3332997799999999 6.3668588899999996 7.8889386899999998 O
atom 7.9973924500000004 1.2739790499999999 3.1062163400000000 O
atom 8.4997478300000004 1.6817174699999999 8.1174682600000008 O
atom 8.0201426199999997 6.3689576800000003 3.1292779700000000 O
atom 8.4212009200000004 6.4455599699999997 8.3626661400000000 O
atom 3.1405157400000001 1.2456666999999999 5.2173282499999996 O
atom 3.8800468600000002 1.5027396200000001 10.2643898000000000 O
atom 3.1691475100000002 6.2761358700000001 5.3368317000000003 O
atom 3.5970498900000001 6.4360008500000001 10.5172067600000005 O
atom 8.3164698099999992 1.2521339700000000 5.7073662000000001 O
atom 8.6700794000000005 1.2482174800000001 10.9074585200000005 O
atom 8.1815865799999994 6.2565920999999998 5.7378212199999998 O
atom 8.6199536600000002 6.3114815899999996 10.9477434599999999 O
atom 2.2415331900000002 3.9184687100000000 0.2682000500000000 O
atom 2.6574106500000001 3.8031100499999999 5.4595873900000003 O
atom 2.2170387499999999 9.3033375100000004 0.4796714900000000 O
atom 2.6838851600000000 8.9121363000000002 5.5105898800000004 O
atom 7.3749885700000002 3.7944226099999998 0.8164939900000000 O
atom 7.8993327500000001 3.6826709000000002 6.1535678100000002 O
atom 7.2676897000000000 8.9316970399999995 0.6799619900000000 O
atom 7.6855668899999996 8.9350790100000008 5.8901031000000001 O
atom 2.4911641100000002 3.7229413199999999 2.8782899500000001 O
atom 2.8905235299999998 3.7643393600000001 8.0892220600000009 O
atom 2.3583777399999999 8.8840199099999992 2.8819430100000001 O
atom 2.9191023000000000 8.8645745500000004 8.1629265199999992 O
atom 7.5190120199999999 3.7729474399999998 3.3929319400000000 O
atom 7.7188111399999997 4.0397462900000001 8.7833305599999996 O
atom 7.5176743899999998 8.8406806400000004 3.2732654800000001 O
atom 7.9220066600000001 8.9406854399999993 8.5124658699999998 O
