lattice_vector 10.0623372399999997 -0.0002753600000000 -0.2056053500000000 
lattice_vector 0.0795413500000000 10.2354563200000008 0.0643986400000000 
lattice_vector -0.1900319100000000 0.0268371700000000 10.4600808999999995 
atom 0.9804981200000000 0.2743922600000000 2.1864391799999998 Si
atom 1.2471856600000000 0.2085872700000000 6.9821671600000004 Hf
atom 1.3632751299999999 5.3219559099999998 1.5882646300000001 Hf
atom 1.3095507700000000 5.3306279900000000 6.8972349399999997 Hf
atom 1.2539171000000000 2.3688237000000001 4.3984290200000000 Hf
atom 1.3046314999999999 2.2712888300000000 9.6675967000000007 Hf
atom 1.3476699800000000 7.5651371799999998 4.1958793600000002 Hf
atom 1.3302394799999999 7.4890375300000001 9.4717777999999999 Hf
atom 3.6008159399999999 2.7218627999999998 1.7037238900000000 Hf
atom 3.5240681399999998 2.7591448700000001 6.9706588800000002 Hf
atom 3.5654844799999998 7.9354030499999997 1.6656662099999999 Hf
atom 3.5917858499999999 7.9140391100000000 6.9224195399999999 Hf
atom 3.3770218100000000 4.8614051800000002 4.2963384800000002 Hf
atom 3.5111574200000000 4.8844786300000003 9.5752389699999991 Hf
atom 3.5803663600000002 10.1299774300000003 4.3389828000000001 Hf
atom 3.5616514200000000 10.0375657000000000 9.6099078700000007 Hf
atom 6.4555431900000002 0.2335341400000000 0.7175770100000000 Hf
atom 6.2970789299999996 0.2162260200000000 5.9918390900000000 Hf
atom 6.4155521300000000 5.3262629199999996 0.7965444800000000 Hf
atom 6.2814359000000000 5.1484313700000000 6.2574255399999998 Hf
atom 6.3923716800000001 2.4200976000000001 3.3829589400000000 Hf
atom 6.3617937700000002 2.3782042500000000 8.6273064799999997 Hf
atom 6.3178648500000003 7.6714918100000000 3.2726859199999998 Hf
atom 6.3049955899999999 7.5058306799999999 8.7030372299999996 Hf
atom 8.7142623300000004 2.7719668300000002 0.7996229700000000 Hf
atom 8.5775978100000003 2.7563418099999999 6.0503292000000002 Hf
atom 8.9296356699999997 7.7728340500000002 0.8364919800000000 Hf
atom 8.6717199600000008 7.6764083799999998 6.1047758800000000 La
atom 8.7330702500000008 5.1605372000000003 3.5056689200000002 La
atom 8.8019843200000007 5.0896473899999997 8.7892565499999993 Hf
atom 8.5658892099999999 10.0340461199999993 3.4611407299999999 Hf
atom 8.6147559099999995 10.0243970600000001 8.6833768199999994 Hf
atom 0.5787446700000000 1.5067162700000001 1.0826531600000000 O
atom 0.2874037200000000 1.7572032799999999 6.2000019699999998 O
atom 0.2246887600000000 6.0694974600000000 0.0154613100000000 O
atom 0.2910629100000000 6.1758037500000000 5.2610322500000004 O
atom 0.2421643100000000 0.7829827800000000 3.6082714700000000 O
atom 0.2460854500000000 0.8293704500000000 8.8025831900000000 O
atom 0.2304222700000000 6.8422177199999998 2.4776562800000002 O
atom 0.0999973100000000 6.5463032999999999 8.0109956600000007 O
atom 4.7341182200000000 4.1493258199999996 0.7472265600000000 O
atom 4.5098359099999996 4.3244939100000002 5.9392241600000002 O
atom 4.8408450800000002 9.2837165899999992 0.8559124600000000 O
atom 4.6087737200000003 9.4143412600000005 6.0387263100000004 O
atom 4.6555388600000001 3.5917201599999999 3.3907075199999999 O
atom 4.6501874200000000 3.5455015699999999 8.5511882200000002 O
atom 4.4844286100000001 8.4943143100000000 3.4938525700000000 O
atom 4.5997996800000003 8.5838160299999995 8.6449240500000002 O
atom 2.4959630200000000 1.2806349900000000 2.9220365799999999 O
atom 2.6515414399999999 1.2654794000000000 8.1938506600000007 O
atom 2.6560911500000000 6.3687058199999997 2.9964735299999998 O
atom 2.6439650499999998 6.3357011200000004 8.2112138899999998 O
atom 3.0472740400000000 1.4038324499999999 0.2520820600000000 O
atom 2.6792081099999998 1.3196810800000001 5.5954553000000002 O
atom 2.7527105900000000 6.4162417100000004 0.3836529300000000 O
atom 2.7488636099999999 6.4766360000000001 5.5730848599999998 O
atom 2.1163284199999999 3.8505711499999999 3.0450545299999998 O
atom 2.1245764000000000 3.8126944100000002 8.2463958099999992 O
atom 2.1134003099999998 9.1702259900000005 2.8117131899999999 O
atom 2.2016018599999998 8.9229444699999991 8.1765577700000005 O
atom 2.2958962500000002 3.8538906300000000 0.4049598900000000 O
atom 2.1462129700000001 3.8489008999999998 5.6073062000000000 O
atom 2.4106784299999999 8.8833883999999994 0.2386174900000000 O
atom 2.1433771699999999 8.9987527499999995 5.5344531799999999 O
atom 5.3247824899999996 1.6501836800000000 1.7348838000000000 O
atom 5.2584025499999996 1.7321194000000000 6.9142406599999999 O
atom 5.1575207900000004 6.6263307700000000 1.9193268900000000 O
atom 5.2212708599999997 6.7683702200000004 6.9590276099999997 O
atom 5.2112559100000002 0.9543148500000000 4.2818465799999998 O
atom 5.2568815200000003 0.8868644999999999 9.5082305199999997 O
atom 6.8667169899999996 6.3604634799999999 4.7060834099999997 O
atom 5.1443091699999997 6.0933721199999997 9.6469428399999995 O
atom 9.8229427299999994 4.1625766300000002 1.6713431800000000 O
atom 9.6506561099999999 4.2712265800000004 6.9640472700000000 O
atom 9.8034345799999993 9.4904541499999997 1.6690168700000001 O
atom 9.6661990099999997 9.4621135499999998 6.9591099800000000 O
atom 9.5750558300000002 3.2577347500000000 4.2759154199999996 O
atom 9.6481616599999995 3.3881288399999998 9.5625581799999999 O
atom 9.6910924400000003 8.5591947099999999 4.2004612999999997 O
atom 9.6832939099999997 8.5341626000000002 9.6094181899999995 O
atom 7.7093089299999997 1.3017770200000001 9.9374160400000005 O
atom 7.7006749299999999 1.2663347400000000 4.7128151300000001 O
atom 7.6247287699999999 6.4506429699999996 10.0216205600000006 O
atom 7.7908136800000003 1.3218334300000001 2.0852796100000002 O
atom 7.6911892200000000 1.2795288100000000 7.3235594199999996 O
atom 7.6254527200000002 6.5593140300000004 2.0265803800000000 O
atom 7.5244537200000003 6.2223558299999997 7.5537986699999999 O
atom 7.2222642700000002 3.8939494699999999 9.9849045699999994 O
atom 7.1126194600000003 3.7724862400000001 4.8778305900000003 O
atom 7.2556011099999997 8.9681221000000004 10.0351090299999992 O
atom 7.1451963999999997 9.0370010300000008 4.6699964899999999 O
atom 7.2480893799999997 3.8240481000000002 2.0642171399999998 O
atom 7.2764043500000000 3.7826193699999999 7.4168960400000001 O
atom 7.3592785799999998 9.0070920000000001 2.1243914799999999 O
atom 7.1375041799999996 9.0174337500000004 7.4526602300000002 O
