lattice_vector 10.2641265300000004 -0.0108522600000000 0.7662934100000000 
lattice_vector 0.0065005900000000 5.1788971699999999 -0.0239528800000000 
lattice_vector 0.8684843700000000 0.0494809900000000 10.5566933699999996 
atom 1.3937607700000001 0.0037039400000000 1.5645299100000001 La
atom 2.0092908800000000 0.2501995500000000 6.9350035900000000 Hf
atom 6.7351567499999998 0.1388940300000000 2.0616354399999999 Hf
atom 7.1084597499999997 0.2618312100000000 7.3221437900000002 Hf
atom 1.7261170800000001 2.3429272600000002 4.3325796900000002 Hf
atom 2.2404715199999998 2.4280634600000002 9.5133215500000006 Hf
atom 6.8349806099999997 2.3770272399999999 4.6920287199999997 Hf
atom 7.4723196500000002 2.4250026600000001 9.8616253000000000 Hf
atom 3.9595149200000002 2.5890437799999999 1.4497279199999999 La
atom 4.2122094900000002 2.8352978599999998 6.6334191499999999 Hf
atom 8.8807844199999995 2.7239140599999998 1.7151923600000001 Hf
atom 9.3766861400000003 2.8473385699999998 7.0111267100000001 Hf
atom 3.9860640500000000 4.9895839999999998 4.0349993900000003 Hf
atom 4.5004674099999997 4.9519853700000001 9.2165258500000000 Hf
atom 9.0178700099999993 4.9871625000000002 4.4513983399999999 Hf
atom 9.6549281699999998 4.9860876599999999 9.6216155099999998 Hf
atom 0.4835895100000000 2.0592414699999999 0.8888302900000000 O
atom 0.8546760100000000 1.7857640400000001 6.1879036300000001 O
atom 6.0422098499999999 1.8506546100000001 1.2462898700000000 O
atom 5.9719852400000004 1.7718300800000000 6.5516739099999999 O
atom 0.4165568500000000 0.9297536900000000 3.6444748499999999 O
atom 1.1325981899999999 0.8556666900000000 8.7830225599999991 O
atom 5.7547090499999998 0.8742439200000000 3.9241711300000000 O
atom 6.2570742199999998 0.9061384600000000 9.1771889400000006 O
atom 4.8729726700000002 4.6502274600000000 2.1042075499999999 O
atom 5.3695451500000004 4.3751167899999999 7.3656864700000000 O
atom 9.5799743799999995 4.4395166499999998 2.5161785299999999 O
atom 10.5171578199999995 4.3600968399999998 7.7684715700000000 O
atom 5.0898726600000002 3.4202288400000000 4.7787671800000000 O
atom 5.8058830400000003 3.5398540700000001 9.9164083900000008 O
atom 10.2305963799999997 3.4721141000000002 5.1508602899999998 O
atom 10.7324996000000006 3.4884175700000002 10.4040141899999998 O
atom 2.8477287499999999 1.1935694800000001 2.9918603099999999 O
atom 3.4924680000000001 1.3775330200000000 7.9871045299999999 O
atom 8.1185350900000000 1.3668489699999999 3.1737612899999998 O
atom 8.6334923900000007 1.3753154400000001 8.3666671200000007 O
atom 3.2423829899999999 1.2784340599999999 5.4511888099999997 O
atom 3.6315519799999998 1.1742072100000001 10.4985171600000005 O
atom 8.3094661900000002 1.2891978900000001 5.8057552699999997 O
atom 9.0089975800000008 1.2864328899999999 10.9616694900000002 O
atom 2.5073927600000001 3.7687199499999999 0.0114269700000000 O
atom 2.7318632500000000 3.9570501000000000 5.5710714100000001 O
atom 7.5012292699999996 3.9458901000000002 0.5919923400000000 O
atom 7.8541066099999997 3.9545738899999998 5.9562508300000001 O
atom 2.5926443600000000 3.7295299499999999 3.0614500400000000 O
atom 2.9816269599999998 3.8809686700000001 8.1075965399999994 O
atom 7.4785423299999998 3.8414202600000000 3.3611625599999999 O
atom 8.1780267400000000 3.8917100100000002 8.5172245800000006 O
