lattice_vector 10.1262060799999993 0.0286701600000000 0.0387980400000000 
lattice_vector 0.0077393300000000 5.0817002699999998 -0.0916139600000000 
lattice_vector -0.0101279000000000 -0.0892781400000000 10.5701235899999997 
atom 0.9068632700000000 0.1294523200000000 1.3943742400000001 Si
atom 1.3758882800000001 0.1081686400000000 7.0916282800000001 Hf
atom 1.5630257500000000 2.2190155100000002 4.3959732699999998 Hf
atom 1.3509045799999999 2.2905821300000002 9.6407541099999996 Hf
atom 3.6794693000000001 2.7981786700000000 1.8611518400000000 Hf
atom 3.6508488899999998 2.7025197699999999 7.1395890499999997 Hf
atom 3.6807019599999999 4.7954695699999998 4.4382684899999996 Hf
atom 3.6301756799999998 4.9171308500000004 9.7528470100000000 Hf
atom 6.4511752600000003 0.2273006100000000 0.9163471000000000 Hf
atom 6.4204294300000004 0.1417438400000000 6.1849639300000003 Hf
atom 6.5007704300000002 2.3798200800000000 3.4812074700000002 Hf
atom 6.4130762199999998 2.2775580700000000 8.7778346900000006 Hf
atom 8.6262114800000003 2.7741806499999999 0.7967969100000000 Hf
atom 8.7208709599999992 2.6104319299999998 6.1261484399999997 Hf
atom 9.0456076299999992 5.0265562700000004 3.6571192199999998 La
atom 8.7014046700000005 4.8018165200000000 8.6955417799999992 Hf
atom 0.2285863100000000 1.3821478100000000 0.5627923300000000 O
atom 0.1878069400000000 1.1354074599999999 5.7616333600000003 O
atom 0.9817033200000000 0.8890756600000000 2.8656875400000001 O
atom 0.2221945100000000 0.9594829499999999 8.5628900500000000 O
atom 4.6665022599999997 4.2568521800000001 0.8222053700000000 O
atom 4.7313059300000004 4.0997206700000000 6.1205448699999998 O
atom 4.8788007000000002 3.5415678499999999 3.4501735999999998 O
atom 4.7179610199999997 3.4438376599999998 8.7768055900000004 O
atom 3.1918864500000002 1.2795158600000001 3.2947319400000001 O
atom 2.7216219000000001 1.1889623899999999 8.3914234499999996 O
atom 2.8628863000000000 1.7293728200000000 0.3267394000000000 O
atom 2.7430793499999999 1.1902283300000001 5.8414619900000000 O
atom 2.3604343100000000 3.6903218400000002 3.1891865600000000 O
atom 2.2575348200000001 3.7584444800000001 8.4154927799999992 O
atom 2.0487481600000002 4.3365002300000004 0.4802107700000000 O
atom 2.2637088599999999 3.6911166299999998 5.7634561800000004 O
atom 5.3887344700000002 1.6747419400000001 1.8420151700000000 O
atom 5.3195544799999999 1.5601953200000001 7.1745087800000000 O
atom 5.3386792099999996 0.9324796600000000 4.5143667799999996 O
atom 5.3482656000000004 0.8725879900000000 9.7976939400000003 O
atom 9.9066264700000009 4.1139078199999997 1.6493812900000000 O
atom 9.8532267099999995 3.9708035000000002 7.1053365599999996 O
atom 9.8257480200000007 3.0269698300000001 4.3865952500000001 O
atom 9.7736407199999995 3.4309834800000001 9.7383818600000005 O
atom 7.7936494999999999 1.1897665399999999 10.1036884699999998 O
atom 7.6176209200000002 1.3148348700000001 4.9362307500000000 O
atom 7.8585049900000001 1.3571078900000000 2.1583057200000000 O
atom 7.8156445200000002 1.1974392199999999 7.4860923899999996 O
atom 7.3079593599999999 3.7402934700000001 10.0729788899999999 O
atom 7.3826643399999998 3.7638879200000002 4.9121957700000003 O
atom 7.3239922000000002 3.8371084799999999 2.0862814799999998 O
atom 7.3349236299999996 3.7506265499999998 7.4753494700000003 O
