lattice_vector 10.0776694199999994 0.0148865000000000 0.0297275300000000 
lattice_vector 0.0435713500000000 10.2327037199999999 0.0361626800000000 
lattice_vector 0.0279244000000000 0.0188773400000000 10.0773654799999992 
atom 1.4277013500000000 0.0250015800000000 1.4270436799999999 Hf
atom 1.3166242200000000 0.0016229300000000 6.2817886200000004 Hf
atom 1.3065218700000001 5.2080794399999997 1.3023371399999999 Hf
atom 1.2580083900000001 5.1106177700000002 6.3049619799999999 Hf
atom 6.2853207700000002 -0.0023717500000000 1.3156737599999999 Hf
atom 6.2908726100000001 0.0141203700000000 6.2879953300000002 Hf
atom 6.3086979200000002 5.1092279100000004 1.2550882999999999 Hf
atom 6.2931361900000002 5.0932354999999996 6.2908180600000003 Hf
atom 1.2672256900000001 2.5939729699999998 3.7904671099999998 Hf
atom 1.2400361900000001 2.5030161299999998 8.8669420999999993 La
atom 1.2972513600000000 7.6613924100000004 3.8244306899999998 Hf
atom 1.4313335899999999 7.6121766099999997 8.7778784600000002 Hf
atom 6.3087461500000002 2.5504374500000000 3.7815892000000000 Hf
atom 6.2898272600000000 2.5604506300000001 8.8402177900000005 Hf
atom 6.3469620500000001 7.6574550400000003 3.8517309499999999 Hf
atom 6.4014395300000002 7.6955722800000004 8.8869686399999992 Hf
atom 3.7934322100000002 2.5926748499999999 1.2637853500000000 Hf
atom 3.7847766400000000 2.5498797199999998 6.3050064299999997 Hf
atom 3.8294762000000002 7.6609369300000001 1.2927710400000001 Hf
atom 3.8547197600000001 7.6603206999999998 6.3429584099999996 Hf
atom 8.8700396900000005 2.5007416099999999 1.2390562199999999 La
atom 8.8428676399999997 2.5587326899999998 6.2885872599999999 Hf
atom 8.7832186399999994 7.6086406799999997 1.4271572699999999 Hf
atom 8.8914316000000007 7.6949208100000002 6.3984076200000004 Hf
atom 3.8276975400000000 -0.0022102800000000 3.8240344500000001 Hf
atom 3.8076258900000002 -0.0096855200000000 8.8257462300000000 Hf
atom 3.7982241800000001 5.0937936700000002 3.7952728699999998 Hf
atom 3.8121472900000000 5.0777859500000000 8.8105414300000007 Hf
atom 8.8273914599999994 -0.0130892000000000 3.8063879900000002 Hf
atom 8.6983785699999991 0.0390059900000000 8.6994161400000003 Hf
atom 8.8148543700000008 5.0766255500000002 3.8104487900000001 Hf
atom 8.7536394299999998 5.1109245599999999 8.7506728799999998 Hf
atom 0.0443058500000000 1.5219986299999999 5.0380766200000000 O
atom 0.1979014800000000 7.0056364799999997 0.1926049100000000 O
atom 0.0740309800000000 6.6334022900000003 5.1454071800000003 O
atom 5.0378815200000000 1.5198172999999999 0.0376935100000000 O
atom 5.0746616900000001 1.4912742699999999 5.0704270899999999 O
atom 5.1517467300000002 6.6320035199999996 0.0724414000000000 O
atom 5.0839299699999998 6.6088186300000000 5.0816002300000003 O
atom 0.1120411100000000 1.0540567599999999 2.6504390000000000 O
atom -0.0644219800000000 1.0333988300000001 7.4270075699999998 O
atom -0.0330970500000000 6.2302517399999999 2.6164956600000000 O
atom 0.1238939500000000 6.2149298699999997 7.6675118900000001 O
atom 5.0125112700000001 1.0276565200000001 2.5355289900000000 O
atom 5.1210390900000000 1.0115136899999999 7.6163276199999999 O
atom 4.9967209700000002 6.1507837199999997 2.5275314700000000 O
atom 5.1482275199999998 6.1487338999999999 7.6232980000000001 O
atom 0.1393462200000000 3.7514188599999998 2.5700981199999999 O
atom -0.1138001500000000 3.7367665699999999 7.4736884100000003 O
atom 0.1252709100000000 8.7721781100000005 2.4391520500000001 O
atom -0.0341918500000000 8.7385822900000001 7.7968227299999997 O
atom 5.0878669399999996 3.5862361599999999 2.5271355400000002 O
atom 5.0206288399999996 3.5749531999999999 7.5665399600000001 O
atom 5.1535188200000004 8.7002792699999993 2.5485043400000000 O
atom 5.0424730200000001 8.6893964900000000 7.6447454600000002 O
atom -0.0029661800000000 4.3306751099999996 -0.0070686700000000 O
atom 0.0183692400000000 4.0627107899999997 5.0334000100000003 O
atom 0.0502812800000000 10.7710271700000000 0.0430434900000000 O
atom 0.0537005600000000 9.1659244900000001 5.1049508899999996 O
atom 5.0385150300000001 4.0609421699999997 0.0138310000000000 O
atom 5.0516483200000000 4.0498014299999996 5.0466030999999996 O
atom 5.1104980600000003 9.1641454299999996 0.0495828700000000 O
atom 5.1016073799999999 9.1571786500000005 5.0976137000000001 O
atom 2.5310574600000000 1.5042267800000000 2.5285358100000002 O
atom 2.6444507300000000 1.3389106799999999 7.4825040899999999 O
atom 2.4809817299999999 6.6418505699999999 2.4764015300000000 O
atom 2.6237094900000000 6.5442288299999998 7.5167166200000004 O
atom 7.4850702599999996 1.3361833500000000 2.6437377600000000 O
atom 7.5946298399999996 1.5057713399999999 7.5935053999999997 O
atom 7.5213099699999999 6.5424737999999998 2.6199920699999999 O
atom 7.6653096200000004 6.6210528899999996 7.6614879499999997 O
atom 2.6505455699999998 1.0523518199999999 0.1107969700000000 O
atom 2.5402657099999999 1.0281992700000000 5.0106508500000002 O
atom 2.6221580100000002 6.2295011499999999 -0.0375121500000000 O
atom 2.5294727600000000 6.1515127500000002 4.9914681300000003 O
atom 7.4275658299999998 1.0319781600000000 -0.0640186000000000 O
atom 7.6211949600000004 1.0104959800000000 5.1212656399999998 O
atom 7.6733954200000003 6.2122640000000002 0.1203867700000000 O
atom 7.6251311399999997 6.1476904299999999 5.1437618699999996 O
atom 2.5744401300000002 3.7502543199999998 0.1340925200000000 O
atom 2.5326055699999999 3.5871305300000000 5.0826140799999999 O
atom 2.4445013499999999 8.7707613999999996 0.1209020900000000 O
atom 2.5514356000000000 8.7008557000000000 5.1489476099999996 O
atom 7.4780058699999996 3.7339887200000001 -0.1175779000000000 O
atom 7.5717505100000002 3.5734677100000001 5.0168836299999997 O
atom 7.8004110000000004 8.7371691600000005 -0.0358589900000000 O
atom 7.6472952200000002 8.6887983200000001 5.0403107399999998 O
atom 2.5767630399999999 4.0815300600000004 2.5712281199999998 O
atom 2.5683142700000001 4.0471311900000000 7.5381802799999997 O
atom 2.6705954200000002 9.1174037200000004 2.6658136200000002 O
atom 2.5333619100000000 9.1088271499999998 7.6559550700000001 O
atom 7.5432342600000002 4.0457247000000001 2.5650628599999998 O
atom 7.5149460200000000 4.0470942200000000 7.5101754900000000 O
atom 7.6615197100000003 9.1055768399999995 2.5300821800000000 O
atom 7.5296638800000002 9.1299424499999997 7.5267095199999998 O
