lattice_vector 10.1415260000000007 0.0065430000000000 0.0456090000000000 
lattice_vector 0.0098850000000000 10.2988169999999997 -0.0771310000000000 
lattice_vector 0.0198600000000000 -0.0226760000000000 10.5423980000000004 
atom 1.2327290000000000 0.1457050000000000 1.6315029999999999 Hf
atom 1.4150229999999999 0.1913630000000000 7.0551089999999999 Hf
atom 1.3725290000000001 5.4574879999999997 1.7681620000000000 Hf
atom 1.4371240000000001 5.2968539999999997 7.0747119999999999 Hf
atom 1.4342390000000000 2.3874010000000001 4.2868320000000004 La
atom 1.3950290000000001 2.3587349999999998 9.6564189999999996 Hf
atom 1.2677470000000000 7.4196980000000003 4.5263989999999996 Hf
atom 1.4232780000000000 7.4609079999999999 9.6483830000000008 Hf
atom 3.6719059999999999 2.6765590000000001 1.7763570000000000 La
atom 3.7073930000000002 2.7264290000000000 7.1152590000000000 Hf
atom 3.7880259999999999 7.9171160000000000 1.6155980000000001 Hf
atom 3.6936110000000002 7.8878959999999996 7.0210309999999998 Hf
atom 3.8307099999999998 4.8499739999999996 4.6039209999999997 Hf
atom 3.6758600000000001 4.9011250000000004 9.6920760000000001 Hf
atom 3.8230480000000000 10.0688969999999998 4.4826150000000000 Hf
atom 3.6805360000000000 10.0592919999999992 9.6108110000000000 Hf
atom 6.5178360000000000 0.1893140000000000 0.8376720000000000 Hf
atom 6.5350650000000003 0.1774360000000000 6.1738559999999998 Hf
atom 6.4859830000000001 5.3246789999999997 0.7716990000000000 Hf
atom 6.5498010000000004 5.3300879999999999 6.1318219999999997 Hf
atom 6.5555089999999998 2.3226360000000001 3.5419600000000000 Hf
atom 6.4941370000000003 2.3133469999999998 8.7691890000000008 Hf
atom 6.4626460000000003 7.4942180000000000 3.4352710000000002 Hf
atom 6.4743690000000003 7.4621639999999996 8.6958970000000004 Hf
atom 8.7141880000000000 2.7876880000000002 0.8751420000000000 Hf
atom 8.7520039999999995 2.7482940000000000 6.1571619999999996 Hf
atom 8.6919280000000008 7.8711739999999999 0.7582060000000000 Hf
atom 8.7076480000000007 7.9054120000000001 6.1025080000000003 Hf
atom 8.6960709999999999 4.9230080000000003 3.4756540000000000 Hf
atom 8.7780819999999995 4.8779459999999997 8.7469029999999997 Hf
atom 8.7156769999999995 10.0266099999999998 3.4031620000000000 Hf
atom 8.7896380000000001 10.0352770000000007 8.6904620000000001 Hf
atom 0.3076330000000000 1.7175419999999999 0.8609720000000000 O
atom 0.2854710000000000 1.5958990000000000 6.1739300000000004 O
atom 0.2767300000000000 6.7972869999999999 0.7280700000000000 O
atom 0.2565370000000000 6.7081960000000000 6.1406400000000003 O
atom 0.2829560000000000 0.6835010000000000 3.3672190000000000 O
atom 0.3454230000000000 0.8350130000000000 8.7634640000000008 O
atom 0.2689730000000000 5.9790700000000001 3.4898500000000001 O
atom 0.3553300000000000 5.9775499999999999 8.7363149999999994 O
atom 4.7668379999999999 4.3571819999999999 0.7978860000000000 O
atom 4.8407330000000002 4.2541580000000003 6.2803579999999997 O
atom 4.7500960000000001 9.4749409999999994 0.7690180000000000 O
atom 4.8244379999999998 9.3449080000000002 6.1556499999999996 O
atom 4.7877090000000004 3.2856980000000000 3.7743639999999998 O
atom 4.7479699999999996 3.3681890000000001 8.8298220000000001 O
atom 4.6458789999999999 8.5387120000000003 3.4171770000000001 O
atom 4.7414839999999998 8.5341030000000000 8.7367299999999997 O
atom 2.8023799999999999 1.2401089999999999 8.3391359999999999 O
atom 2.3503110000000000 7.2086269999999999 2.8386879999999999 O
atom 2.8143090000000002 6.3868830000000001 8.3181119999999993 O
atom 2.5960649999999998 1.1652540000000000 0.3004470000000000 O
atom 2.9100830000000002 1.2156020000000001 5.7985650000000000 O
atom 2.8272480000000000 6.4410710000000000 0.4016720000000000 O
atom 2.7829199999999998 6.4133789999999999 5.6825559999999999 O
atom 2.5001540000000002 4.3729480000000001 3.1202090000000000 O
atom 2.3063910000000001 3.8072629999999998 8.3738910000000004 O
atom 2.7874240000000001 10.8007819999999999 2.8824010000000002 O
atom 2.3003190000000000 8.9595660000000006 8.2818670000000001 O
atom 2.1519159999999999 3.9606849999999998 0.3718810000000000 O
atom 2.4145289999999999 3.8708550000000002 5.8554130000000004 O
atom 2.2904249999999999 8.9508329999999994 0.4248150000000000 O
atom 2.3082840000000000 8.9786809999999999 5.5780580000000004 O
atom 5.6415720000000000 1.6575070000000001 1.8321350000000001 O
atom 5.4554150000000003 1.6547410000000000 7.0610179999999998 O
atom 5.4274829999999996 6.8203709999999997 1.7111130000000001 O
atom 5.4294719999999996 6.8213280000000003 6.9965099999999998 O
atom 5.4958960000000001 0.8016690000000000 4.4576240000000000 O
atom 5.4068170000000002 0.8555220000000000 9.6971620000000005 O
atom 5.4232449999999996 6.0311839999999997 4.4039489999999999 O
atom 5.4313680000000000 6.0036620000000003 9.6163819999999998 O
atom 9.8330739999999999 4.2375030000000002 1.8204380000000000 O
atom 9.8668619999999994 4.1785370000000004 7.1030650000000000 O
atom 9.7817539999999994 9.2496670000000005 1.7348800000000000 O
atom 9.8496140000000008 9.3342559999999999 7.0273599999999998 O
atom 9.6510750000000005 3.4829880000000002 4.4837879999999997 O
atom 9.7817159999999994 3.4080330000000001 9.7081440000000008 O
atom 9.8004110000000004 8.5863790000000009 4.4418749999999996 O
atom 9.8542090000000009 8.5883509999999994 9.6586099999999995 O
atom 7.8862170000000003 1.2292250000000000 10.1052280000000003 O
atom 7.9001419999999998 1.2238220000000000 4.8585649999999996 O
atom 7.8782040000000002 6.3639450000000002 10.0247419999999998 O
atom 7.8546950000000004 6.4157070000000003 4.7830909999999998 O
atom 7.9974429999999996 1.2568790000000001 2.2051580000000000 O
atom 7.8814919999999997 1.2428750000000000 7.4935989999999997 O
atom 7.8355870000000003 6.4372379999999998 2.1451270000000000 O
atom 7.8866449999999997 6.4061870000000001 7.4279929999999998 O
atom 7.3611139999999997 3.7979820000000002 10.0878730000000001 O
atom 7.2950090000000003 3.8352439999999999 4.8513760000000001 O
atom 7.3841679999999998 8.9356299999999997 10.0035010000000000 O
atom 7.3326450000000003 8.9448059999999998 4.7645809999999997 O
atom 7.3392429999999997 3.8517299999999999 2.1896399999999998 O
atom 7.3867200000000004 3.8387750000000000 7.4752400000000003 O
atom 7.3057210000000001 8.9961909999999996 2.1124049999999999 O
atom 7.3786370000000003 8.9822679999999995 7.4000430000000001 O
