lattice_vector 10.0709412700000005 -0.0313599600000000 -0.0403104800000000 
lattice_vector -0.0033947900000000 10.2804501399999992 -0.0132150300000000 
lattice_vector -0.0202876200000000 -0.0275865400000000 10.4646895299999994 
atom 1.3755734399999999 0.1511102700000000 1.7115724100000000 La
atom 1.3782481400000000 0.1933660800000000 7.0107713399999998 Hf
atom 1.3748234300000000 5.3402790400000004 1.7658032900000000 Hf
atom 1.3646404200000000 5.3380146399999999 7.0030168300000000 Hf
atom 1.3060387800000000 2.3787510200000002 4.4597190199999996 Hf
atom 1.3671081300000001 2.3747921600000002 9.5934311200000000 Hf
atom 1.3879764900000000 7.4560224499999999 4.4003387299999996 Hf
atom 1.3845296700000000 7.4603773699999998 9.6229175599999994 Hf
atom 3.6812489099999999 2.8416235900000002 1.6931143600000000 Hf
atom 3.6237043600000001 2.7476805299999998 6.9904128300000004 Hf
atom 3.6893440599999998 7.8645584499999996 1.7659929999999999 Hf
atom 3.6050172100000002 7.8749166199999996 7.0253072599999999 Hf
atom 3.6237212799999998 4.8798470500000004 4.3809649000000004 Hf
atom 3.6134113800000001 4.9061250300000001 9.5907036300000001 Hf
atom 3.6914547899999999 9.9370747099999992 4.4678486900000003 Hf
atom 3.6534761699999998 10.0351012300000004 9.5921862600000001 Hf
atom 6.4446014199999997 0.1822488800000000 0.8225100800000000 Hf
atom 6.4413468099999998 0.1867261800000000 6.0554591799999997 Hf
atom 6.4570012800000001 5.3338536999999997 0.7698206399999999 Hf
atom 6.4063409599999996 5.3198940500000003 6.0101134600000004 Hf
atom 6.4099329999999997 2.3225648900000002 3.4161906200000001 Hf
atom 6.4068344000000002 2.3087202300000000 8.6480912399999994 Hf
atom 6.4452347400000001 7.4501359400000000 3.4109607400000002 Hf
atom 6.4110421799999999 7.4539852199999999 8.6212652799999994 Hf
atom 8.6555921799999993 2.7793613900000000 0.7598739300000000 Hf
atom 8.6327420200000002 2.7587734199999998 6.0447019400000004 Hf
atom 8.6389238099999996 7.8772247699999998 0.7813410400000000 Hf
atom 8.6722171499999998 7.8872297600000003 6.0188103200000000 Hf
atom 8.6503875600000004 4.8935769499999999 3.3972575500000000 Hf
atom 8.6462988999999997 4.8905441100000004 8.6083971600000009 Hf
atom 8.6296512199999995 10.0316303300000005 3.4417530699999999 Hf
atom 8.6674111200000006 10.0192441500000005 8.6534404400000007 Hf
atom 0.3402853400000000 1.9321296299999999 0.8342063199999999 O
atom 0.3330117700000000 1.7794131200000001 6.2318874400000004 O
atom 0.3601157700000000 6.8984912200000004 0.9069305100000000 O
atom 0.3387400500000000 6.8687410900000003 6.1317051400000002 O
atom 0.2920694100000000 0.8532197400000000 3.6757692000000000 O
atom 0.3608668400000000 0.7884637799999999 8.7859310100000005 O
atom 0.3460233600000000 5.9496555100000004 3.5169788899999999 O
atom 0.3235353000000000 5.9575811700000001 8.7276403499999997 O
atom 4.7198463000000004 4.2599304000000000 0.8070392600000000 O
atom 4.6901192199999997 4.2226420100000004 6.0666395599999996 O
atom 4.7144762099999999 9.4125334299999999 0.8683977500000000 O
atom 4.7201500699999999 9.3448582099999999 6.1055322399999996 O
atom 4.6766447500000004 3.4064207999999998 3.4425600699999999 O
atom 4.6771775000000000 3.3955888200000000 8.6852499299999995 O
atom 4.7484343700000000 8.5130388900000007 3.4815395900000001 O
atom 4.6996210100000004 8.5455210099999999 8.6798789000000003 O
atom 2.7669684399999999 1.2430134399999999 8.2427630399999998 O
atom 2.7797980700000000 6.3297339700000004 3.0518610100000001 O
atom 2.7596308800000000 6.3912356800000003 8.2956163200000006 O
atom 2.9025249999999998 1.4041277500000000 0.3473858300000000 O
atom 2.7567849400000002 1.2650915500000000 5.5916701199999999 O
atom 2.7768384199999998 6.3779660600000003 0.4539498700000000 O
atom 2.7652957499999999 6.4001780200000002 5.6778037000000001 O
atom 2.2298599299999999 3.7060620300000000 3.0345214500000002 O
atom 2.2425502100000001 3.8308655900000002 8.2712896899999997 O
atom 2.3688936699999998 8.8743601200000004 3.1580926900000001 O
atom 2.2313335699999999 8.9587437600000008 8.2802462999999999 O
atom 2.2494026800000002 3.9056622200000000 0.4194700200000000 O
atom 2.2367823599999999 3.8639432700000000 5.6873576500000000 O
atom 2.4354253899999998 8.8566140699999991 0.3409584300000000 O
atom 2.2504953400000001 8.9663024399999998 5.7238746300000001 O
atom 5.3472267899999997 1.6704209400000001 1.7248636900000001 O
atom 5.3494627000000001 1.6574259800000000 6.9457421600000000 O
atom 5.3847311700000002 6.7829984100000003 1.7108400800000001 O
atom 5.3375839200000001 6.7888155200000000 6.9462382500000004 O
atom 5.3473434600000003 0.8295711000000000 4.3462067400000004 O
atom 5.3944391700000001 0.8054114200000000 9.5551237899999997 O
atom 5.3506718600000003 5.9584653799999998 4.3244455700000000 O
atom 5.3446899600000002 5.9810061200000000 9.5579560299999997 O
atom 9.6734272800000003 4.3179349699999996 1.6583559999999999 O
atom 9.6817903800000007 4.2977066700000002 6.8728017100000001 O
atom 9.4834249300000000 9.4089137899999997 1.6997512600000000 O
atom 9.7029182299999999 9.4032413800000008 6.9142822199999996 O
atom 9.6729933999999993 3.3956961699999999 4.3225561700000004 O
atom 9.6723216700000005 3.3773731499999999 9.4474812700000008 O
atom 9.7239089399999994 8.5052934899999997 4.2898514700000003 O
atom 9.7284630799999992 8.5185631999999991 9.5571304700000006 O
atom 7.8114056300000003 1.2229147000000000 9.9757367499999994 O
atom 7.7756687900000001 1.2523663100000000 4.7674673600000004 O
atom 7.7889073299999998 6.3552863100000003 9.9374023000000005 O
atom 7.8083842499999996 6.3739728099999997 4.7244373900000003 O
atom 7.8032409200000004 1.2884799000000000 2.1460115900000001 O
atom 7.8033498799999998 1.2593501199999999 7.3725298300000004 O
atom 7.8236170100000004 6.4087718899999997 2.1021520900000001 O
atom 7.7916203700000004 6.4096132900000002 7.3251213599999998 O
atom 7.2525521099999999 3.8051329100000002 9.9433775499999992 O
atom 7.2573219000000000 3.8133788300000000 4.7258016899999999 O
atom 7.2746570799999999 8.9297348499999991 9.9637034999999994 O
atom 7.2887580600000001 8.9505378499999999 4.7537790800000002 O
atom 7.2554059999999998 3.8472800199999999 2.1155358999999998 O
atom 7.2593165900000001 3.8240254100000000 7.3375477499999997 O
atom 7.1747387199999997 8.9653677500000004 2.1398960599999999 O
atom 7.2834625700000002 8.9702695400000003 7.3539919700000000 O
