lattice_vector 5.0724069800000002 0.0108050700000000 0.0051175700000000 
lattice_vector -0.0224781900000000 10.3285667199999995 0.0003417400000000 
lattice_vector -0.0098461900000000 0.0007337700000000 10.1834110399999993 
atom 1.2928610899999999 0.0057054400000000 1.2789821400000001 La
atom 1.2880324800000000 0.0056716500000000 6.3707470600000002 Hf
atom 1.2819825199999999 5.1697660599999997 1.2792228999999999 La
atom 1.2755419500000000 5.1704647699999997 6.3708485100000001 Hf
atom 1.2850185300000001 2.5876583000000002 3.8750794700000002 Hf
atom 1.2800130800000000 2.5884374700000001 8.8662102500000000 Hf
atom 1.2736378100000001 7.7520306600000000 3.8750222800000000 Hf
atom 1.2688828100000000 7.7526499600000003 8.8670359600000008 Hf
atom 3.8239386999999998 2.5931803699999998 1.2814461500000001 Hf
atom 3.8186503200000002 2.5933497000000001 6.3723896599999996 Hf
atom 3.8125421500000001 7.7573387599999997 1.2814049400000000 Hf
atom 3.8072987000000000 7.7578433300000000 6.3738228000000001 Hf
atom 3.8266457599999999 0.0107809400000000 3.8778295200000001 Hf
atom 3.8220154399999999 0.0119380800000000 8.8684661800000004 Hf
atom 3.8150383500000000 5.1761022199999998 3.8782087500000002 Hf
atom 3.8099812200000001 5.1752848900000004 8.8686416000000001 Hf
atom 0.0484811000000000 1.5606817900000001 0.0067790900000000 O
atom 0.0724943200000000 1.5365909300000000 5.2197999800000003 O
atom 0.0382250200000000 6.7253978400000003 0.0078445500000000 O
atom 0.0608250400000000 6.7009587100000001 5.2204644699999996 O
atom -0.1090187900000000 1.1877046099999999 2.7121086200000000 O
atom 0.0190908100000000 1.0489873000000001 7.6936692400000002 O
atom -0.1191897300000000 6.3521255200000004 2.7130219000000002 O
atom 0.0066287500000000 6.2131959800000001 7.6944223400000000 O
atom 0.0427076300000000 3.6086956300000002 2.5482615200000001 O
atom 0.0645185900000000 3.6339101899999999 7.5191328100000003 O
atom 0.0305645800000000 8.7732518000000006 2.5485628400000002 O
atom 0.0548723600000000 8.7981341200000003 7.5189390899999999 O
atom -0.1118052800000000 3.9812887199999998 -0.1571059500000000 O
atom 0.0133217800000000 4.1211381100000004 5.0451077299999998 O
atom -0.1231366700000000 9.1457392199999994 -0.1573448800000000 O
atom 0.0034601100000000 9.2857303200000008 5.0449893899999996 O
atom 2.5297009400000001 1.5666424999999999 2.5504569099999999 O
atom 2.4959276600000000 1.5426897399999999 7.5203967100000000 O
atom 2.5191233600000000 6.7306823700000002 2.5507947600000000 O
atom 2.4838036899999998 6.7069791700000003 7.5204470700000003 O
atom 2.6885298899999999 1.1940148500000001 -0.1553809200000000 O
atom 2.5518498599999999 1.0537395599999999 5.0465761599999999 O
atom 2.6779905099999999 6.3580573400000002 -0.1551146500000000 O
atom 2.5396456299999999 6.2178437000000004 5.0469223200000002 O
atom 2.5279329700000002 3.6141201700000001 0.0100530200000000 O
atom 2.4923938799999998 3.6383940899999998 5.2236078299999997 O
atom 2.5165536600000000 8.7783277799999997 0.0104223500000000 O
atom 2.4822829600000000 8.8026591300000003 5.2234276199999998 O
atom 2.6807525299999999 3.9875007000000000 2.7160303500000000 O
atom 2.5409266200000000 4.1277597600000000 7.6977291499999998 O
atom 2.6684179299999999 9.1516903900000006 2.7161614500000000 O
atom 2.5316442299999999 9.2919893200000008 7.6973960200000002 O
