lattice_vector 9.9820189999999993 -0.0265190000000000 -0.0120010000000000 
lattice_vector 0.0055290000000000 10.4067519999999991 -0.0718950000000000 
lattice_vector 0.0248540000000000 -0.0909030000000000 10.0250269999999997 
atom 1.1925880000000000 0.3452850000000000 1.1015509999999999 Si
atom 1.3568849999999999 0.1412060000000000 6.3022619999999998 Hf
atom 1.3184849999999999 5.3216830000000002 1.2031799999999999 Hf
atom 1.3657310000000000 5.2812250000000001 6.2298349999999996 Hf
atom 6.2500359999999997 0.0472530000000000 1.2189330000000000 La
atom 6.2858599999999996 0.0703900000000000 6.2161660000000003 Hf
atom 6.3606689999999997 5.3825979999999998 1.2107870000000001 Hf
atom 6.3435009999999998 5.3133540000000004 6.2056540000000000 Hf
atom 1.3308150000000001 2.3085870000000002 3.6535120000000001 Hf
atom 1.3588279999999999 2.4018240000000000 8.7801130000000001 Hf
atom 1.3265950000000000 7.5101880000000003 3.8009860000000000 Hf
atom 1.3521490000000000 7.5655999999999999 8.7221879999999992 Hf
atom 6.3446210000000001 2.3634520000000001 3.7655020000000001 Hf
atom 6.3666590000000003 2.3614929999999998 8.6675590000000007 Hf
atom 6.3900079999999999 7.5913539999999999 3.7101579999999998 Hf
atom 6.3631010000000003 7.5722730000000000 8.7156710000000004 Hf
atom 3.7403000000000000 2.8361800000000001 1.1091759999999999 Hf
atom 3.6696860000000000 2.7214220000000000 6.2226840000000001 Hf
atom 3.6211929999999999 7.9190129999999996 1.2574149999999999 Hf
atom 3.6817500000000001 7.9349309999999997 6.2556719999999997 Hf
atom 8.6178559999999997 2.7377669999999998 1.2017570000000000 Hf
atom 8.6719530000000002 2.6638769999999998 6.2048680000000003 Hf
atom 8.7929720000000007 7.9356929999999997 1.1209160000000000 Hf
atom 8.6769920000000003 7.9115620000000000 6.1907990000000002 Hf
atom 3.6779950000000001 4.9555910000000001 3.7338429999999998 Hf
atom 3.6933220000000002 5.0251710000000003 8.7060960000000005 Hf
atom 3.5555479999999999 10.1130709999999997 3.7174760000000000 Hf
atom 3.5791309999999998 10.1861350000000002 8.8048739999999999 Hf
atom 8.6373490000000004 4.9438700000000004 3.7137449999999999 Hf
atom 8.6609890000000007 4.9480969999999997 8.7082859999999993 Hf
atom 8.7166619999999995 10.2016670000000005 3.6528999999999998 Hf
atom 8.7031250000000000 10.1719050000000006 8.6467500000000008 Hf
atom 0.3924850000000000 1.8588540000000000 1.7562890000000000 O
atom 0.3275970000000000 1.8325870000000000 7.0500559999999997 O
atom 0.3753030000000000 7.0507049999999998 1.9540210000000000 O
atom 0.3779760000000000 7.0411510000000002 6.9181229999999996 O
atom 5.1890120000000000 1.9771570000000001 2.0891359999999999 O
atom 5.3889760000000004 1.8825320000000001 6.8359040000000002 O
atom 5.3880379999999999 7.1569279999999997 1.9235990000000001 O
atom 5.3533850000000003 7.0358099999999997 6.9423399999999997 O
atom 0.3398840000000000 0.6678820000000000 4.5568109999999997 O
atom 0.4127480000000000 0.5933550000000000 9.5622919999999993 O
atom 0.3497620000000000 5.7772350000000001 4.4543499999999998 O
atom 0.3457360000000000 5.8456650000000003 9.4676899999999993 O
atom 5.3361570000000000 0.6076900000000000 4.3980410000000001 O
atom 5.2173710000000000 0.8027740000000000 9.3078970000000005 O
atom 5.3821110000000001 5.8514520000000001 4.3975850000000003 O
atom 5.3537720000000002 5.8896210000000000 9.4535529999999994 O
atom 4.6579179999999996 4.5602270000000003 1.8934580000000001 O
atom 4.6515230000000001 4.4705149999999998 6.9184310000000000 O
atom 4.4290820000000002 9.6538710000000005 1.9857149999999999 O
atom 4.6272970000000004 9.6607520000000005 6.9593990000000003 O
atom 9.6706719999999997 4.4082889999999999 1.9509399999999999 O
atom 9.6578230000000005 4.4091740000000001 6.9118860000000000 O
atom 9.9177190000000000 9.7663539999999998 1.7653920000000001 O
atom 9.6835030000000000 9.6239260000000009 6.8953230000000003 O
atom 4.6811939999999996 3.2785540000000002 4.4737890000000000 O
atom 4.6976199999999997 3.3157570000000001 9.4008059999999993 O
atom 4.7081410000000004 8.4532670000000003 4.5019159999999996 O
atom 4.6892500000000004 8.5363969999999991 9.5082430000000002 O
atom 9.6344499999999993 3.1608930000000002 4.3790800000000001 O
atom 9.6728419999999993 3.2402720000000000 9.4365330000000007 O
atom 9.6681059999999999 8.4432010000000002 4.4128350000000003 O
atom 9.7043090000000003 8.4225220000000007 9.3494729999999997 O
atom 2.2797960000000002 0.7457589999999999 2.4632999999999998 O
atom 2.7188040000000000 1.1820770000000000 7.5289159999999997 O
atom 2.6872490000000000 6.2238270000000000 2.4351319999999999 O
atom 2.7107220000000001 6.3688599999999997 7.4569859999999997 O
atom 7.8253849999999998 1.2735069999999999 2.5198939999999999 O
atom 7.6814320000000000 1.1131679999999999 7.4378000000000002 O
atom 7.7209849999999998 6.3260100000000001 2.4456479999999998 O
atom 7.7021199999999999 6.3486149999999997 7.4582670000000002 O
atom 2.7065079999999999 1.3390470000000001 4.9498069999999998 O
atom 2.6147779999999998 1.3423570000000000 10.1064939999999996 O
atom 2.7451430000000001 6.4956690000000004 4.9744050000000000 O
atom 2.6919759999999999 6.5583479999999996 9.9517340000000001 O
atom 7.6872499999999997 1.2863190000000000 4.9783030000000004 O
atom 7.7527949999999999 1.3447279999999999 9.8788699999999992 O
atom 7.7109680000000003 6.5218030000000002 4.9544499999999996 O
atom 7.7306549999999996 6.4869380000000003 9.9644919999999999 O
atom 2.2905060000000002 3.9010889999999998 4.9422360000000003 O
atom 2.3484479999999999 3.9705469999999998 9.9371250000000000 O
atom 2.2816250000000000 9.1012129999999996 5.0710810000000004 O
atom 2.2105670000000002 9.2981719999999992 10.2326770000000007 O
atom 7.3185549999999999 3.9133939999999998 4.9641479999999998 O
atom 7.3168300000000004 3.9073660000000001 9.9581590000000002 O
atom 7.3393569999999997 9.1434770000000007 4.8962810000000001 O
atom 7.4612980000000002 9.0013950000000005 9.8116230000000009 O
atom 2.3725470000000000 3.6413449999999998 2.4284810000000001 O
atom 2.3126500000000001 3.7614139999999998 7.4712579999999997 O
atom 2.4314689999999999 8.6575799999999994 2.6664960000000000 O
atom 2.3157880000000000 8.9772900000000000 7.5715519999999996 O
atom 7.2548380000000003 3.7796319999999999 2.4444849999999998 O
atom 7.3221340000000001 3.7511519999999998 7.4336460000000004 O
atom 7.5684420000000001 8.8628529999999994 2.4549400000000001 O
atom 7.2970629999999996 8.9452459999999991 7.3786790000000000 O
