lattice_vector 5.1019616000000001 0.0130753900000000 0.3747522300000000 
lattice_vector -0.0054801600000000 10.4600160399999993 -0.0435653700000000 
lattice_vector 0.8019045600000000 -0.0053024800000000 10.4603758300000003 
atom 1.4493344500000001 0.0790757700000000 1.5226753399999999 La
atom 1.9247469900000000 0.2195527400000000 6.8857758699999998 Hf
atom 1.5700927400000000 5.4409409799999997 1.5551995300000001 Hf
atom 1.9005978500000000 5.4926626100000000 6.8466307700000000 Hf
atom 1.6392806900000001 2.4796173100000001 4.1461726900000002 La
atom 2.1548732600000000 2.4391203099999998 9.4534383200000001 Hf
atom 1.6940030200000000 7.5980792900000003 4.2273997400000001 Hf
atom 2.1819387699999999 7.6279755900000001 9.4042214699999995 Hf
atom 3.7972328499999999 2.8711845500000002 1.3058573000000000 Hf
atom 4.0979488100000001 2.8341088600000002 6.6396173200000002 Hf
atom 3.7854711600000002 7.9787851500000002 1.3082262800000000 Hf
atom 4.1419619000000001 8.0817773899999992 6.5527015000000004 Hf
atom 3.9624448800000001 5.1052198799999999 3.9248499300000002 Hf
atom 4.3856847099999996 5.0116115600000004 9.1546108000000004 Hf
atom 3.8553607300000001 10.2220558700000002 3.9907243200000000 Hf
atom 4.4181969399999996 10.2372346099999998 9.1542247000000003 Hf
atom 0.5226572800000000 2.0575811200000000 0.8797526100000000 O
atom 0.7606882200000000 1.7971164399999999 6.3040570699999998 O
atom 0.5219493400000000 7.1001349300000003 0.8804435200000000 O
atom 0.8030550200000000 7.0134065699999999 6.0928858500000000 O
atom 0.5802147000000000 0.5093652400000001 3.6970895499999998 O
atom 1.0926403099999999 0.7957395900000001 8.8013847199999997 O
atom 0.6869662900000000 5.9841434500000004 3.4891870500000000 O
atom 1.0379972700000000 6.0638191199999998 8.7085234000000007 O
atom 4.9318865499999998 4.4513229499999998 2.0807406400000001 O
atom 5.2586017199999997 4.4206929300000004 7.2998569399999997 O
atom 4.4815539900000001 9.7140852300000002 2.0105416400000000 O
atom 5.2649831400000000 9.6191835399999999 7.3214858999999999 O
atom 4.7170504700000002 3.3890927799999999 4.7068511400000004 O
atom 5.4798589199999999 3.4843039600000001 9.8830736600000009 O
atom 4.9898610300000001 8.5998295299999992 4.6744621700000000 O
atom 5.6073851200000000 8.7377597500000004 9.9486567899999994 O
atom 3.1830579600000002 1.3850374999999999 2.7229386899999999 O
atom 3.3861233600000000 1.3570823900000000 7.9739877999999997 O
atom 3.0154358499999998 6.5657996599999997 2.6707061699999999 O
atom 3.4012065499999999 6.5972154800000000 7.9026086500000003 O
atom 3.1948126399999999 1.1922539299999999 5.4587643200000002 O
atom 3.7135847599999998 1.3314660899999999 10.4679699100000008 O
atom 3.1865015099999998 6.5458240600000002 5.2986687100000003 O
atom 3.6335848600000000 6.4539893199999998 10.5093534900000005 O
atom 2.3265346199999999 4.0025998899999999 0.1811349300000000 O
atom 2.6988829700000001 4.1130286299999996 5.5450894499999999 O
atom 2.4776633800000001 9.0419135399999995 0.0638639500000000 O
atom 2.6389098000000000 9.1751411100000002 5.4854932500000002 O
atom 2.6276309300000000 4.0256604500000002 2.7072214799999998 O
atom 2.8947204599999998 3.8928658299999999 8.0927852500000004 O
atom 2.4824736900000000 8.9389213200000004 2.9098047800000000 O
atom 2.9090993100000002 9.1147113199999996 8.0408243699999993 O
