lattice_vector 10.0411727499999994 0.0250223900000000 -0.0170928600000000 
lattice_vector 0.0218446500000000 10.3931005100000000 0.0050679900000000 
lattice_vector 0.0091840100000000 0.0038151100000000 5.0408831500000000 
atom 1.2236955300000001 0.1067629600000000 1.2373956100000001 La
atom 1.3608782300000000 5.3874256000000003 1.3095526300000000 Hf
atom 6.3620882300000003 0.1774209500000000 1.2441967199999999 Hf
atom 6.3434635500000001 5.3938842400000002 1.2771313600000000 Hf
atom 1.4328343100000001 2.5074639400000001 3.8734527100000000 Hf
atom 1.3974224200000001 7.6218741899999998 3.8201910300000002 Hf
atom 6.3503641899999996 2.4348686399999999 3.7557641199999998 Hf
atom 6.3830582400000004 7.6296399700000004 3.8047325999999999 Hf
atom 3.6774344399999999 2.7767802300000000 1.2950973299999999 Hf
atom 3.7247098400000000 7.9669899500000003 1.2496959700000001 Hf
atom 8.5805377800000002 2.8584605000000001 1.2142361800000001 Hf
atom 8.6613369099999993 7.9455550300000004 1.2765602000000000 Hf
atom 3.7041185699999999 5.0423423300000003 3.8044402200000000 Hf
atom 3.7225948899999999 10.2434653800000000 3.7531342699999999 Hf
atom 8.7388615000000005 5.0470248399999997 3.7833012300000002 Hf
atom 8.6628472700000003 10.2220776400000002 3.7671377599999998 Hf
atom 0.3492160900000000 7.0851476499999997 2.0246853800000002 O
atom 5.4197867400000002 1.9340009400000000 1.9322312399999999 O
atom 5.3999739299999998 7.1042816799999997 1.9889893900000000 O
atom 0.3424453900000000 0.8081163500000000 3.9960781200000000 O
atom 0.3613762300000000 5.9066674399999997 4.5381912499999997 O
atom 5.4302900799999998 0.6868940900000000 4.4345433900000000 O
atom 5.3825912300000001 5.9050328399999996 4.5193434500000000 O
atom 4.6770916199999997 4.5132555900000000 1.9877108900000000 O
atom 4.6614325399999998 9.7571194099999996 1.9143332900000001 O
atom 9.7409610499999992 4.4166465900000000 2.0050684200000002 O
atom 9.4539760299999998 9.6336363899999995 2.0207670000000002 O
atom 4.7046381100000003 3.3148377500000001 4.4880880000000003 O
atom 4.7575619800000002 8.5201170400000006 4.5048456999999997 O
atom 9.7082235600000004 3.3431931000000001 4.5249201200000000 O
atom 9.8014531199999997 8.6087926499999998 4.5992444499999996 O
atom 2.7601786300000000 1.3624540400000000 2.5581400699999999 O
atom 2.7316508399999999 6.4022987599999999 2.5317294700000001 O
atom 7.7753520299999996 1.2836479199999999 2.4665873899999999 O
atom 7.7576591700000002 6.4192977200000003 2.5009870699999999 O
atom 2.8133531399999998 1.4311861400000001 4.9982809899999996 O
atom 2.7337566199999999 6.5652773299999998 5.0618174199999997 O
atom 7.7450879099999996 1.4018756299999999 5.0048639200000000 O
atom 7.7518502500000004 6.5672776400000004 5.0140003100000001 O
atom 2.3639980299999999 4.0196612500000004 5.0865844600000001 O
atom 2.4478943200000001 9.1048806199999994 4.9667682099999997 O
atom 7.3476982599999996 3.9994224300000001 5.0312241499999999 O
atom 7.3627285899999997 9.1524530700000000 5.0629629999999999 O
atom 2.3063893000000002 3.8669732300000002 2.5482345600000000 O
atom 2.4349822099999998 8.9210522000000001 2.5564087999999998 O
atom 7.3141128899999996 3.8762848399999998 2.5199464300000001 O
atom 7.2213208499999997 9.0374769700000002 2.5441259100000000 O
