lattice_vector 10.0470813900000007 0.0092765200000000 -0.0042638900000000 
lattice_vector -0.0090358100000000 9.9871835699999991 -0.0058808200000000 
lattice_vector 0.0060124900000000 0.0066481700000000 10.0480971399999994 
atom 1.2629279000000000 0.0026195100000000 1.2619687300000000 Si
atom 1.2651750100000001 0.0061299400000000 6.2860880999999997 Hf
atom 1.2586116000000001 4.9963093000000001 1.2591618400000000 Si
atom 1.2607775100000000 4.9999264099999996 6.2833393099999997 Hf
atom 6.2865966000000002 0.0074740700000000 1.2592669100000000 Hf
atom 6.2893280999999996 0.0108772700000000 6.2837828099999999 Hf
atom 6.2820629600000002 5.0010759100000000 1.2566254600000000 Hf
atom 6.2850822500000003 5.0039325500000000 6.2808736100000004 Hf
atom 1.2624894799999999 2.5012394300000000 3.7815918000000002 Hf
atom 1.2652791800000001 2.5051570299999999 8.7875150600000005 Hf
atom 1.2577273000000000 7.4947815300000000 3.7785218299999999 Hf
atom 1.2606377099999999 7.4985031299999996 8.7843215899999993 Hf
atom 6.2857602400000001 2.5059120899999998 3.7841713200000000 Hf
atom 6.2885516099999998 2.5091689300000000 8.7800814200000001 Hf
atom 6.2810059499999999 7.4996509900000001 3.7814210400000001 Hf
atom 6.2837650099999998 7.5028853000000000 8.7770348100000000 Hf
atom 3.7811587699999998 2.5018427000000001 1.2595297000000001 Hf
atom 3.7895170800000000 2.5052302599999998 6.2835186500000004 Hf
atom 3.7763687799999999 7.4953874400000000 1.2564428700000001 Hf
atom 3.7849436500000002 7.4988429700000001 6.2803003100000003 Hf
atom 8.7874163400000000 2.5070386099999999 1.2573619800000000 Hf
atom 8.7841488600000002 2.5098299900000001 6.2812080100000003 Hf
atom 8.7824296700000009 7.5003602699999998 1.2543700300000000 Hf
atom 8.7794483499999991 7.5035738099999998 6.2779998499999996 Hf
atom 3.7496397899999998 0.0690259400000000 3.7463650700000000 Hf
atom 3.7521443099999998 -0.0523072000000000 8.8242951299999994 Hf
atom 3.7449107499999998 5.0628501400000001 3.7432096000000001 Hf
atom 3.7479125899999999 4.9415461499999997 8.8208079300000009 Hf
atom 8.8271331300000000 -0.0509728100000000 3.7437191699999999 Hf
atom 8.8299772500000007 0.0777936400000000 8.8220542799999997 Hf
atom 8.8222599099999996 4.9428962099999998 3.7409057200000002 Hf
atom 8.8251661899999991 5.0716582099999998 8.8189619500000003 Hf
atom -0.2707332300000000 1.5844869500000001 -0.2702903800000000 O
atom -0.1056842300000000 1.2870044899999999 4.8036158799999997 O
atom -0.2753088400000000 6.5780503799999996 -0.2731202800000000 O
atom -0.1101262900000000 6.2804414800000004 4.8007910300000001 O
atom 4.8028229700000002 1.2888320799999999 -0.1112187900000000 O
atom 4.9110011699999996 1.2727644300000001 4.9061182299999997 O
atom 4.7982138699999997 6.2823304799999997 -0.1138701000000000 O
atom 4.9064464799999996 6.2663292200000003 4.9033108299999997 O
atom 0.2985726200000000 0.9604309900000000 2.2256142500000000 O
atom 0.1182579400000000 1.2592109000000000 7.3475747499999997 O
atom 0.2941719400000000 5.9540798900000000 2.2227974300000000 O
atom 0.1133809100000000 6.2527465299999996 7.3444013000000004 O
atom 5.2240850600000002 1.2599936800000000 2.4054758100000000 O
atom 5.1545423899999996 1.2791864500000001 7.4170816300000002 O
atom 5.2194072000000000 6.2534866899999999 2.4027961400000000 O
atom 5.1496288799999999 6.2724098599999998 7.4143273499999998 O
atom -0.2708604500000000 3.4119753400000001 2.7929575099999999 O
atom -0.1061356400000000 3.7171357399999998 7.7670589799999998 O
atom -0.2751955200000000 8.4053456400000002 2.7892873100000002 O
atom -0.1108880300000000 8.7104270100000001 7.7635712400000001 O
atom 4.8018953800000004 3.7166251699999999 2.6294871899999999 O
atom 4.9102803000000002 3.7395012699999999 7.6600751799999998 O
atom 4.7975754000000004 8.7100434999999994 2.6261733100000000 O
atom 4.9055193900000003 8.7331451799999993 7.6565895399999997 O
atom 0.2948513700000000 4.0366302699999999 0.2967121700000000 O
atom 0.1149285200000000 3.7446287400000000 5.2229495600000000 O
atom 0.2895100800000000 9.0308562099999996 0.2929775200000000 O
atom 0.1099027500000000 8.7386143000000001 5.2194758400000003 O
atom 5.2205002800000004 3.7462646899999998 0.1121505400000000 O
atom 5.1512723300000003 3.7338418400000002 5.1488012200000002 O
atom 5.2153482200000001 8.7402820499999994 0.1087070800000000 O
atom 5.1463833899999996 8.7277379600000007 5.1454729600000002 O
atom 2.7939208799999999 1.5882843700000000 2.7923646600000001 O
atom 2.6352070699999999 1.2915539199999999 7.7670974399999997 O
atom 2.7893062700000000 6.5821815800000003 2.7894372399999998 O
atom 2.6302079900000002 6.2849585399999999 7.7641509299999996 O
atom 7.7680456600000003 1.2935415400000001 2.6292442800000000 O
atom 7.6654285900000003 1.2764745000000000 7.6601797300000003 O
atom 7.7633894100000003 6.2869801799999996 2.6259470299999998 O
atom 7.6606101500000001 6.2701378999999999 7.6568346500000004 O
atom 2.2258893400000002 0.9609381299999999 0.2974869000000000 O
atom 2.4110122000000000 1.2593781399999999 5.2235473499999996 O
atom 2.2213303700000000 5.9547912600000004 0.2944843100000000 O
atom 2.4065261900000001 6.2528183600000000 5.2204013800000002 O
atom 7.3471114799999997 1.2608107600000000 0.1124419000000000 O
atom 7.4220216499999996 1.2797704100000000 5.1490840300000000 O
atom 7.3423099799999996 6.2542279199999999 0.1091005200000000 O
atom 7.4174623799999999 6.2732052200000004 5.1458540199999998 O
atom 2.7908157000000000 3.4127196600000000 -0.2731031200000000 O
atom 2.6316396800000001 3.7165138799999999 4.8004763300000004 O
atom 2.7854694200000001 8.4062944500000008 -0.2756220000000000 O
atom 2.6267286200000002 8.7103202199999998 4.7979702499999997 O
atom 7.7643747999999997 3.7181068399999999 -0.1138333700000000 O
atom 7.6617727499999999 3.7403738400000002 4.9031531299999997 O
atom 7.7592749200000002 8.7117125800000004 -0.1168396400000000 O
atom 7.6569084199999997 8.7341000399999995 4.9002218199999996 O
atom 2.2238348299999999 4.0390427600000001 2.2225127800000002 O
atom 2.4102208599999999 3.7488954099999998 7.3447395300000000 O
atom 2.2191193600000001 9.0323625799999991 2.2196262299999998 O
atom 2.4055203800000000 8.7424902299999996 7.3419318100000002 O
atom 7.3459329200000001 3.7502868299999998 2.4032741000000000 O
atom 7.4210537700000003 3.7370944499999998 7.4145665500000000 O
atom 7.3414238500000000 8.7439556599999992 2.4003395799999998 O
atom 7.4162378899999997 8.7304992000000006 7.4114645799999996 O
