lattice_vector 10.0640644600000009 0.0614721000000000 -0.0445575800000000 
lattice_vector 0.0605175300000000 10.1943246199999997 -0.0129290100000000 
lattice_vector -0.0141786300000000 -0.0071120100000000 10.5020539999999993 
atom 1.0448454500000000 -0.1009524000000000 1.8055815900000001 Si
atom 1.3523600000000000 0.2488103400000000 7.0242376300000000 Hf
atom 1.4364509800000000 5.3699050699999997 1.7815293600000000 Hf
atom 1.4185540200000000 5.2894090800000004 7.0391263799999999 Hf
atom 1.3170672200000000 2.4137350199999998 4.1745931699999996 La
atom 1.4770288800000000 2.2802607699999999 9.7182250200000002 Hf
atom 1.3954571200000001 7.4456124299999997 4.4325817900000004 Hf
atom 1.3844465200000000 7.4577479000000002 9.6470040600000004 Hf
atom 3.7477969299999998 2.8706302699999999 1.6819143500000000 Hf
atom 3.6366017600000000 2.7884407400000000 7.0077292900000003 Hf
atom 3.6296917799999999 7.9829063600000003 1.7722446999999999 Hf
atom 3.6529224400000002 7.8877087799999996 7.0474003500000002 Hf
atom 3.7012134200000002 4.9449339300000004 4.4170328300000001 Hf
atom 3.6385217500000002 4.9236900600000002 9.6182904400000009 Hf
atom 3.7099695900000000 9.9946832600000004 4.4637201500000003 Hf
atom 3.6659183700000000 10.0482749600000005 9.6692750699999994 Hf
atom 6.4328462300000000 0.2496398100000000 0.7726514400000000 Hf
atom 6.4189977999999996 0.2524606600000000 6.0570522799999997 Hf
atom 6.4643522200000003 5.3701747500000003 0.7669422900000000 Hf
atom 6.4583591599999997 5.3405389899999998 6.0505936299999998 Hf
atom 6.4496253200000000 2.3649462799999998 3.4348331800000000 Hf
atom 6.4265134799999997 2.3667094400000002 8.6876060800000001 Hf
atom 6.4306302400000002 7.4676057199999999 3.3974938200000002 Hf
atom 6.4440897100000001 7.4644863600000004 8.6405426799999994 Hf
atom 8.7551974300000008 2.7442187499999999 0.8427521800000000 Hf
atom 8.6508949899999994 2.8154479900000000 6.0961088500000002 Hf
atom 8.6587112400000006 7.8599771799999996 0.7332358600000000 Hf
atom 8.6878582499999997 7.8877639799999999 6.0439829700000001 Hf
atom 8.6689968799999999 4.9521676499999998 3.4129260000000001 Hf
atom 8.7342258200000007 4.8822357099999998 8.7067585500000000 Hf
atom 8.6776097500000002 9.9840238600000006 3.4031017000000001 Hf
atom 8.7327728899999997 10.0302810600000001 8.6424891899999992 Hf
atom 0.5434372800000000 1.3155688299999999 0.8835957900000000 O
atom 0.1929009500000000 1.5449098500000000 6.0794640199999996 O
atom 0.2936333400000000 6.6754252300000001 0.7607362000000000 O
atom 0.3249191600000000 6.6818475800000003 6.0442658900000001 O
atom 0.3634995400000000 0.6187908200000000 3.2352648500000001 O
atom 0.3031155800000000 0.9144777800000000 8.7102673900000003 O
atom 0.3130669000000000 6.0396848900000002 3.4043483299999999 O
atom 0.3378895100000000 6.0107543100000003 8.7055133199999997 O
atom 4.7598185300000004 4.3009570200000002 0.8000944900000000 O
atom 4.7593906600000002 4.2467964199999999 6.0888215499999996 O
atom 4.7381528199999998 9.3631009899999995 0.8103344900000000 O
atom 4.7610180499999997 9.3270339500000006 6.0861888100000003 O
atom 4.7644944599999999 3.4397077600000001 3.4766818499999999 O
atom 4.7263007500000001 3.4682211500000002 8.7112684199999997 O
atom 4.7026378400000004 8.5528203299999994 3.4547923100000002 O
atom 4.7385010300000001 8.5672207900000004 8.7022676000000008 O
atom 2.7600133200000001 1.2642676900000001 8.2975569300000007 O
atom 2.7547094300000001 6.5197600400000004 3.0774989900000000 O
atom 2.7842297899999999 6.3678316400000003 8.3090676699999992 O
atom 3.0546513599999998 1.5129330000000001 0.3310359000000000 O
atom 2.8165947800000000 1.2769045000000001 5.7187113800000002 O
atom 2.8100927100000002 6.5317080900000004 0.4319797900000000 O
atom 2.8056546500000001 6.4337001000000003 5.7004854800000002 O
atom 2.5027060600000000 4.0084467200000002 2.9490277100000002 O
atom 2.2853161200000001 3.8044453599999999 8.3388831999999997 O
atom 2.2398479700000000 9.1691434199999993 2.9733217399999998 O
atom 2.2877164099999998 8.9177615800000005 8.3740184200000005 O
atom 2.2697756099999999 3.9482367900000002 0.4102625000000000 O
atom 2.3464247299999998 3.9302257699999998 5.7315743200000000 O
atom 2.1091866000000001 9.1912544900000004 0.5518149600000000 O
atom 2.2834463800000000 8.9398496699999992 5.7008091900000002 O
atom 5.4152051400000003 1.7131645700000000 1.7279425700000000 O
atom 5.3662355499999999 1.7121432000000001 6.9852619000000002 O
atom 5.3599017399999997 6.8246886399999998 1.7211469900000000 O
atom 5.3759301099999997 6.7997041999999999 6.9784564400000004 O
atom 5.3568545299999997 0.8987252700000000 4.3607329699999999 O
atom 5.3902352100000002 0.8715484999999999 9.5753463900000000 O
atom 5.3904502900000004 6.0319543099999997 4.3619324600000002 O
atom 5.3812721400000001 6.0105290599999996 9.5932580099999996 O
atom 9.9158190200000007 4.0494610099999999 1.9261965999999999 O
atom 9.8146219000000006 4.1504662000000003 7.1337736100000004 O
atom 9.8028247099999994 9.2026192099999999 1.7049247700000001 O
atom 9.8048903999999997 9.2913526500000003 7.0071205000000001 O
atom 9.6538146400000002 3.7522096700000001 4.6127478200000001 O
atom 9.8223879299999997 3.4727933599999998 9.7724896500000007 O
atom 9.7533720899999992 8.5848486000000008 4.3841672699999998 O
atom 9.7440902499999993 8.5866044200000005 9.6128207999999997 O
atom 7.8378097000000002 1.2838833999999999 10.0265433799999997 O
atom 7.8298352900000001 1.2834185300000001 4.7420719000000000 O
atom 7.8191417000000003 6.3765942700000000 9.9693096400000005 O
atom 7.8211727299999998 6.4010742100000000 4.7273152400000003 O
atom 7.8530824800000003 1.2940133300000001 2.1170078999999999 O
atom 7.7747470999999999 1.3108209700000000 7.3918724200000003 O
atom 7.8114645300000003 6.4226203300000000 2.0865962300000001 O
atom 7.8500196500000001 6.3998140499999998 7.3672628800000002 O
atom 7.3535862300000003 3.8111737899999998 10.0412409199999999 O
atom 7.2257125599999998 3.8265531600000000 4.7580945799999999 O
atom 7.3042111700000003 8.9275547799999995 9.9742675599999995 O
atom 7.2975328099999999 8.9280207199999992 4.7357050300000001 O
atom 7.3684987299999998 3.8579158900000001 2.1084367600000000 O
atom 7.3154903899999999 3.8843961400000002 7.4171519000000004 O
atom 7.3351252999999996 8.9680866100000003 2.1046137100000002 O
atom 7.3293122999999998 8.9664813300000006 7.3549971599999999 O
