lattice_vector 9.9851252600000002 -0.0171268700000000 0.0109824000000000 
lattice_vector 0.0175197900000000 10.1679494199999993 0.0762763600000000 
lattice_vector -0.0104356800000000 0.0768064100000000 10.4362799499999994 
atom 1.0770122400000000 0.2548265600000000 2.2297769399999998 Si
atom 1.3520416700000000 0.2353444600000000 6.9589252999999998 Hf
atom 1.4186267500000000 5.3198184900000003 1.8116429700000001 Hf
atom 1.3365682999999999 5.3433146799999998 7.0887096900000000 Hf
atom 1.3337691300000001 2.4261236700000000 4.3947084900000002 Hf
atom 1.4797948800000000 2.2730528699999999 9.6961046300000007 Hf
atom 1.3477916000000001 7.4611272499999997 4.4089659299999999 Hf
atom 1.4367840400000000 7.4970213899999996 9.6506317799999994 Hf
atom 3.6009313399999998 2.7278571399999998 1.7729192100000000 Hf
atom 3.4858489000000001 2.8155986300000002 6.9689213199999998 Hf
atom 3.6160431499999999 7.9314326800000003 1.7213338899999999 Hf
atom 3.5955994300000000 7.8652034200000003 7.0206104700000003 Hf
atom 3.5764351300000001 4.9349545099999998 4.4110412900000000 Hf
atom 3.6630897299999998 4.8726850700000002 9.6430743299999993 Hf
atom 3.5685571600000001 10.0210162999999994 4.3789394100000001 Hf
atom 3.6957487000000002 10.0533385000000006 9.6211850299999995 Hf
atom 6.4782450000000003 0.3319565400000000 0.7684073600000000 Hf
atom 6.3206575999999997 0.1794558600000000 6.0692500799999998 Hf
atom 6.4341501399999999 5.2762839499999998 0.8894902700000000 Hf
atom 6.3348386000000003 5.3124195199999997 6.1310159600000000 Hf
atom 6.3517247399999999 2.3702905599999999 3.5050514499999998 Hf
atom 6.0671064299999999 2.3513251799999999 8.2335121900000008 Si
atom 6.3364159000000004 7.4301908299999999 3.4513007700000000 Hf
atom 6.4079863899999996 7.4534292899999999 8.7284619299999999 Hf
atom 8.6837607200000004 2.7125370300000000 0.9240703500000000 Hf
atom 8.5466456599999994 2.7450540499999998 6.1659503000000004 Hf
atom 8.6697521399999999 7.8928890400000000 0.9020570100000000 Hf
atom 8.5722217500000006 7.8310177599999999 6.1339908699999999 Hf
atom 8.5866852199999997 4.9006791900000000 3.5242784000000000 Hf
atom 8.5962029700000002 4.8344691400000004 8.8235493399999996 Hf
atom 8.4942960700000008 9.9505110999999999 3.5760062600000002 Hf
atom 8.5990546999999999 10.0379740799999997 8.7722446600000001 Hf
atom 0.6885750200000000 1.4742198399999999 1.0972826700000000 O
atom 0.3057263800000000 1.7583612300000000 6.1285655300000004 O
atom 0.3930715200000000 6.8332723299999998 0.9588829400000000 O
atom 0.3205113500000000 6.8110818200000001 6.1533210199999999 O
atom 0.2792499100000000 0.8295801600000000 3.5997799300000000 O
atom 0.3697749200000000 0.8953455400000000 8.6889490800000004 O
atom 0.3440123400000000 5.9445382799999997 3.5533122499999998 O
atom 0.3338036300000000 5.9583634700000001 8.8011981699999993 O
atom 4.6938444400000003 4.2200972400000003 0.9111514300000000 O
atom 4.5779660000000000 4.3066747100000002 6.1332010300000004 O
atom 4.7961317799999996 9.3797374300000005 0.8293536300000000 O
atom 4.5918591500000003 9.3737156499999994 6.1210009599999999 O
atom 4.6160616299999999 3.3942781399999999 3.5538460800000000 O
atom 4.7458815400000001 3.3708244700000001 8.6382589599999999 O
atom 4.5828722099999997 8.5308302900000008 3.4780658099999999 O
atom 4.7108309500000001 8.5649531799999998 8.6973845000000001 O
atom 2.5473403000000001 1.2380295800000001 2.9381859900000000 O
atom 2.7695763200000001 1.2678275500000000 8.1953264800000003 O
atom 2.7512581699999998 6.4595931100000001 3.0846215199999998 O
atom 2.7729623000000001 6.3612478399999999 8.3201950999999994 O
atom 3.1502634899999999 1.4627187500000001 0.2369499900000000 O
atom 2.7294954400000000 1.3622116900000001 5.5953571899999996 O
atom 2.8191094900000002 6.3473704399999997 0.4735964800000000 O
atom 2.7239747300000001 6.4131545900000004 5.7096898800000000 O
atom 2.2361155300000002 3.8525764900000001 3.1189209000000000 O
atom 2.2630170399999998 3.8108499100000000 8.3380572500000003 O
atom 2.0756391800000000 9.0651647700000009 2.9488884000000000 O
atom 2.2471358299999999 8.9112051900000004 8.2580771399999993 O
atom 2.2395122800000000 3.8438975300000000 0.5066698200000000 O
atom 2.1386534199999998 3.8945085599999998 5.7075880400000001 O
atom 2.4015253300000001 8.9079763700000001 0.3438250700000000 O
atom 2.2055758900000000 8.9648423800000003 5.6366268200000000 O
atom 5.3709551500000003 1.7137403099999999 1.7726466200000000 O
atom 5.2703886899999999 1.7800867499999999 6.8613133399999997 O
atom 5.3352839899999998 6.8190245400000000 1.7362283700000001 O
atom 5.3347788600000001 6.8327574999999996 6.9840889500000003 O
atom 5.2988781600000001 0.8505823100000000 4.3328731400000002 O
atom 5.6716358500000004 1.1327389000000001 9.3649830800000000 O
atom 5.3135918699999998 5.9658461899999997 4.3842590499999998 O
atom 5.3755330299999997 5.9434661499999999 9.5787842500000000 O
atom 9.7029393800000001 4.1966569600000003 1.8503027800000000 O
atom 9.5645410200000001 4.2315250400000002 7.0692397800000002 O
atom 9.7555975799999999 9.3911761499999997 1.9093064099999999 O
atom 9.6154791199999998 9.3680150500000003 6.9937579899999998 O
atom 9.5760566100000002 3.3890883399999998 4.4264527500000002 O
atom 9.7692562600000006 3.3821292999999999 9.7185382899999997 O
atom 9.5796843700000007 8.4559565200000009 4.4141987499999997 O
atom 9.6853067100000008 8.5422032899999998 9.6364877700000005 O
atom 8.1318342700000006 1.1369644299999999 10.2308911200000008 O
atom 7.7226722499999996 1.2387004600000000 4.8717603599999997 O
atom 7.8021321700000001 6.4210986400000003 10.0696727100000007 O
atom 7.7174358300000003 6.3556239200000002 4.8334389599999996 O
atom 7.7684017299999999 1.3328563000000000 2.2720119200000002 O
atom 7.5350667900000001 1.3637404000000000 7.5290109300000001 O
atom 7.7716971900000003 6.4074910699999998 2.2228144500000000 O
atom 7.7391215100000004 6.3092475200000004 7.4582949200000002 O
atom 7.3751211200000002 3.8619698599999999 10.1982774000000003 O
atom 7.1900966600000000 3.8057712399999999 4.9050318800000001 O
atom 7.2311779899999999 8.9266269800000000 10.0352865399999995 O
atom 7.1406551800000004 8.8762827800000004 4.8342639800000002 O
atom 7.2373040299999998 3.8590435500000000 2.2836366699999999 O
atom 7.0541546899999998 3.7058064700000002 7.5924336900000000 O
atom 7.2706252600000001 8.9595823100000000 2.2041453799999999 O
atom 7.2329325500000001 8.9181441400000008 7.4231678299999997 O
