lattice_vector 10.1822583200000008 -0.0032552600000000 0.8121349200000000 
lattice_vector 0.0091461500000000 10.4923609100000004 -0.0176457600000000 
lattice_vector 0.3750229000000000 0.0083414000000000 5.2411353600000004 
atom 1.4281038500000001 0.1486677300000000 1.5584476199999999 La
atom 1.5299490400000000 5.5004795099999999 1.6009284200000000 Hf
atom 6.6155993400000002 0.1678608200000000 2.0517567900000002 Hf
atom 6.6303158199999999 5.4641365600000000 2.0161842100000000 Hf
atom 1.7154423900000000 2.4617106600000001 4.2620539300000004 Hf
atom 1.7293887400000001 7.6571736499999998 4.2272022099999997 Hf
atom 6.7098532400000002 2.4808892000000000 4.5808081500000002 La
atom 6.8099685100000000 7.6212511500000000 4.6240948299999998 Hf
atom 3.7063174600000002 2.8414249499999999 1.4751310300000000 Hf
atom 3.8062458299999999 8.0468788199999999 1.3389890099999999 Hf
atom 8.8619973600000002 2.8994519400000001 1.7460733600000000 Hf
atom 8.8161898799999996 8.0296088599999997 1.7511860699999999 Hf
atom 3.9114405300000001 5.0891703000000001 3.9699392400000000 Hf
atom 3.9652788100000000 10.2192413500000008 3.9484103899999998 Hf
atom 9.0827983999999997 5.0723178799999999 4.3704871599999997 Hf
atom 8.9916575099999996 10.2768100199999992 4.4899503999999997 Hf
atom 0.5084970800000000 2.1212492200000002 0.9164669000000000 O
atom 0.4564534100000000 7.0841203600000000 0.8688320800000000 O
atom 5.4771136199999999 1.7878107400000001 1.5330092399999999 O
atom 5.5543365400000004 7.0101558199999996 1.2539341500000001 O
atom 0.5728785700000000 0.8416093600000000 3.7499012899999999 O
atom 0.6494424300000000 6.1111421899999998 3.4693294400000001 O
atom 5.7844882699999998 0.5080432100000000 3.9454153299999999 O
atom 5.7350302700000002 6.0338230700000004 3.8987460199999999 O
atom 4.8938807999999998 4.3706685399999996 2.1941990900000001 O
atom 4.8337475899999998 9.6429522700000003 2.0497439300000000 O
atom 9.9692450699999995 4.4991422999999999 2.4957205500000001 O
atom 9.6863736399999993 9.6004848000000003 2.6457445399999999 O
atom 4.7754393700000000 3.5166169799999998 4.8680066300000000 O
atom 5.0682764200000001 8.6202952199999991 4.7034602899999998 O
atom 10.1075020700000007 3.4782342900000001 5.0877703199999997 O
atom 10.1766719600000002 8.7512284699999991 5.2161479799999997 O
atom 3.0207155999999999 1.4058847999999999 2.8398953800000002 O
atom 3.0168828699999999 6.5719209500000000 2.6885101800000002 O
atom 8.1808760500000002 1.3051583099999999 3.1003426300000001 O
atom 8.0722080999999992 6.6200270000000003 3.1113738000000000 O
atom 3.2768423100000001 1.3257336300000000 5.3147265299999997 O
atom 3.1694722199999998 6.5039068000000002 5.3263639899999999 O
atom 8.2996194699999997 1.2256898800000000 5.8674582099999997 O
atom 8.2958052099999993 6.5518202299999997 5.7150174299999996 O
atom 2.2192921399999999 4.0196153199999998 0.2851090700000000 O
atom 2.4334925100000002 9.0959899400000008 0.1424226800000000 O
atom 7.4772294600000002 4.1124980899999999 0.6696509000000000 O
atom 7.3779882499999996 9.1880420300000001 0.6653704300000000 O
atom 2.4704169299999998 3.9286110000000001 2.8888151899999999 O
atom 2.5778084300000002 9.0040988300000002 2.8766738100000002 O
atom 7.7087858200000001 4.0202169300000001 3.1773073799999998 O
atom 7.5020767199999998 9.0974038000000004 3.3037392099999998 O
