lattice_vector 10.0054251599999997 -0.0260031500000000 0.7683304800000000 
lattice_vector 0.0101129300000000 10.1707190199999999 -0.0187517400000000 
lattice_vector 0.8977024000000000 0.0104414500000000 10.4584401299999996 
atom 1.3694903599999999 0.2391323400000000 1.7050325200000001 Si
atom 1.9180593200000000 0.2348981800000000 6.7496618499999999 Hf
atom 1.4924071299999999 5.3201153400000001 1.6085208000000000 Hf
atom 1.9973832000000000 5.3224067499999999 6.8844178899999999 Hf
atom 6.5234926000000000 0.2030529300000000 2.0244953300000001 Hf
atom 6.9778567200000001 0.2146958700000000 7.2363336699999996 Hf
atom 6.4523827699999998 5.2588394200000002 2.0323051900000002 Hf
atom 6.9744671800000004 5.3037737399999996 7.2522081399999996 Hf
atom 1.5355958999999999 2.3070782900000002 4.3121280300000002 Si
atom 2.2120319600000000 2.3090367199999999 9.4060152099999996 Hf
atom 1.7630638800000000 7.3596900700000001 4.2590612400000003 Hf
atom 2.2039839300000001 7.4811715100000002 9.4632438000000008 Hf
atom 6.7408096799999999 2.2873881500000000 4.6174891699999998 Hf
atom 7.1932107900000002 2.3445308699999998 9.8786232599999995 Hf
atom 6.7242387700000004 7.3989231100000001 4.6041903399999997 Hf
atom 7.1718118300000002 7.4210077700000001 9.8852898099999997 Hf
atom 3.6256922399999998 2.6108437000000002 1.3646736500000001 Hf
atom 4.1431497899999998 2.7958035200000002 6.5520285700000001 Hf
atom 3.6533060100000001 7.8789319600000001 1.3796093100000000 Hf
atom 4.1754488600000004 7.8717390199999997 6.5852622600000004 Hf
atom 8.7804932099999995 2.6839561399999998 1.7769172400000000 Hf
atom 9.1663499799999997 2.7696107400000001 7.0008056400000003 Hf
atom 8.7432006399999995 7.8588091400000000 1.7782235900000001 Hf
atom 9.1444625800000008 7.8145318200000000 6.9830136800000000 Hf
atom 3.8614224699999999 4.7600270699999996 3.9888272400000000 Hf
atom 4.3964819899999998 4.8780032999999996 9.2583998500000000 Hf
atom 3.8516525800000001 9.9637460200000003 3.8621558399999998 Hf
atom 4.3830261300000002 10.0143777600000004 9.1886160100000005 Hf
atom 8.9450811899999998 4.8183890600000003 4.3709281200000003 Hf
atom 9.4006040899999999 4.8640271799999999 9.6512973700000000 Hf
atom 9.0322713500000003 9.9749248700000006 4.3979194399999999 Hf
atom 9.3859735499999992 9.9571647300000006 9.5778934499999995 Hf
atom 0.5950957100000001 1.4936340600000000 0.8184583600000001 O
atom 0.8484220800000000 1.7001852399999999 5.8598639199999996 O
atom 0.4252427900000000 6.7979238200000003 0.8524593900000000 O
atom 0.8579849000000001 6.7665547000000004 6.0836306499999999 O
atom 5.4091996599999996 1.6269211299999999 1.1828939300000001 O
atom 5.8186857999999999 1.6202915600000001 6.3788006700000004 O
atom 5.3580072300000001 6.7167751300000003 1.1912056200000001 O
atom 5.8758668600000004 6.7698518500000002 6.4188632300000004 O
atom 0.7922006700000001 1.0068606800000000 3.3721011600000002 O
atom 1.0461577399999999 0.9336874300000000 8.5546652999999999 O
atom 0.6331190900000000 5.9237397700000001 3.4484235200000000 O
atom 1.0995587000000000 5.9931282899999996 8.7164431899999997 O
atom 5.5584911000000004 0.9213882400000000 3.7508087899999998 O
atom 6.1282636500000001 0.8752993900000000 9.0234660699999996 O
atom 5.6024403800000000 5.9093829600000003 3.8285814299999998 O
atom 6.0714553200000001 5.9941269999999998 9.0202637699999997 O
atom 4.7356758799999996 4.1334815999999996 2.2126963100000001 O
atom 5.2852482099999998 4.1889160700000003 7.4375974100000004 O
atom 4.9110863299999998 9.1919523299999994 2.2059273699999999 O
atom 5.2979680800000004 9.2954265899999999 7.4122122800000003 O
atom 9.8520083300000003 4.1531258500000003 2.5896434099999999 O
atom 10.3031948799999995 4.1819508900000004 7.8506878100000002 O
atom 10.0118144699999991 9.3736740500000000 2.6163959299999999 O
atom 10.2591752500000002 9.2899604599999996 7.7733708899999998 O
atom 5.0994200599999999 3.4492396799999998 4.8342503499999996 O
atom 5.5704894500000002 3.5049841200000000 10.0945589600000005 O
atom 5.0534238800000004 8.5381495600000008 4.7694449499999996 O
atom 5.4306116500000003 8.5215808400000004 10.0420497700000002 O
atom 10.1523431700000000 3.3356635899999998 5.1531916300000002 O
atom 10.5448392999999996 3.3979724500000001 10.4835691200000003 O
atom 10.0985157099999991 8.4928083399999998 5.1972437200000003 O
atom 10.5085262499999992 8.5319675000000004 10.4407954000000007 O
atom 2.8945030900000002 0.8557322800000000 2.1829718400000000 O
atom 3.3905989999999999 1.2791868500000001 7.7278531199999998 O
atom 2.9739936299999998 6.2630848200000004 2.7084838000000002 O
atom 3.4500503199999999 6.4240399200000002 7.9534094599999996 O
atom 8.0136333000000004 1.2631356400000000 3.1210453600000001 O
atom 8.4634136699999996 1.3203718099999999 8.3179352299999998 O
atom 7.9783900200000000 6.3603449899999998 3.0999654400000001 O
atom 8.4451026099999993 6.3836421200000002 8.3601703199999999 O
atom 2.9733920899999999 1.3910247000000000 4.9498613000000002 O
atom 3.8594658499999999 1.5099793600000000 10.1925445000000003 O
atom 3.2252971100000001 6.3129954799999997 5.3391801599999997 O
atom 3.6360800100000001 6.4018944500000003 10.5524417199999991 O
atom 8.2279039399999991 1.2356071799999999 5.7166893700000001 O
atom 8.6893898899999993 1.2277467099999999 10.9588740700000002 O
atom 8.2185815800000004 6.2980156500000000 5.7124238399999996 O
atom 8.6583526800000001 6.3370153199999999 10.9792997200000002 O
atom 2.2588761499999999 3.8889837500000000 0.3422048700000000 O
atom 2.6545761300000001 3.8673730300000000 5.5476253800000004 O
atom 2.1738904500000000 9.2326389399999993 0.4059790000000000 O
atom 2.7294963200000000 8.9815922599999993 5.4846334900000002 O
atom 7.3026617399999996 3.8173805199999999 0.7157180400000001 O
atom 7.7536719099999996 3.8314203000000000 5.9022751199999997 O
atom 7.2571455199999999 8.9208791099999996 0.6761992100000001 O
atom 7.7261490300000002 8.9340361700000006 5.8751433999999998 O
atom 2.4298024599999999 3.3054387200000002 3.1130540700000000 O
atom 2.9492860099999998 3.7931072399999999 8.1500868700000009 O
atom 2.4713106699999998 8.7194432099999997 2.9151384500000002 O
atom 2.9085479400000001 8.8962872900000001 8.1136384300000000 O
atom 7.4914868700000001 3.7246956999999998 3.2797931100000000 O
atom 7.9316720600000004 3.7955147000000000 8.5358296199999995 O
atom 7.6085226199999996 8.8670873799999992 3.2906935900000001 O
atom 7.9168631700000001 8.8566230200000007 8.5135916399999996 O
