lattice_vector 10.1698858399999992 0.0471360900000000 0.7809597500000000 
lattice_vector 0.0249422200000000 10.2393808800000006 0.0223634700000000 
lattice_vector 0.8197161600000000 0.0262644200000000 10.4793390100000003 
atom 1.3530416199999999 0.1122641200000000 1.8262454699999999 Si
atom 1.8984970699999999 0.2041164600000000 6.8848594800000003 Hf
atom 1.5890271300000001 5.3866982300000004 1.6644150099999999 Hf
atom 1.8666200100000001 5.2957557299999998 6.8784798599999997 Hf
atom 6.6675717700000003 0.2471891400000000 2.0102989199999999 Hf
atom 7.0053801000000000 0.2962760200000000 7.2684375699999997 Hf
atom 6.5872958600000002 5.3860107299999997 1.9950841800000001 Hf
atom 7.0437815300000004 5.3360801499999999 7.2767752799999998 Hf
atom 1.7056822000000000 2.3401707900000002 4.2074830499999996 Hf
atom 2.1641346800000001 2.3123952399999999 9.5099700200000008 Hf
atom 1.7073247899999999 7.4883586099999997 4.2847348399999996 Hf
atom 2.0516190200000000 7.4636304400000002 9.5068057800000005 Hf
atom 6.8527865500000003 2.4237369599999998 4.6594942699999997 Hf
atom 7.2349124299999996 2.4204433600000002 9.9427783999999999 Hf
atom 7.1718554100000000 7.3623469400000001 4.5869157899999999 Hf
atom 7.1681768899999998 7.5343976899999996 9.8872584000000003 Hf
atom 3.7399104099999998 2.7956367900000001 1.3598562700000001 Hf
atom 4.1467370499999996 2.8260603099999999 6.6353787700000000 Hf
atom 3.6972383400000002 8.0187137499999999 1.3596235100000000 Hf
atom 4.2711014199999999 7.7632019100000003 6.8504163299999998 La
atom 8.9751098299999992 2.7556619499999999 1.7968728300000001 Hf
atom 9.2597542500000003 2.7822452599999998 7.0344445100000002 Hf
atom 8.8989499100000007 7.9710512299999996 1.7501726300000000 Hf
atom 9.2575736099999997 7.9379367600000004 7.0562855400000002 Hf
atom 3.9941315500000001 4.9514411500000000 3.9939081200000000 Hf
atom 4.3661813100000000 4.9551116300000002 9.2719159399999995 Hf
atom 3.9816728499999998 10.1003062799999999 4.0304556399999996 La
atom 4.3818950299999999 10.2137069500000006 9.2904457600000008 Hf
atom 9.1487023399999998 4.8741712000000001 4.3616212799999996 Hf
atom 9.4462644699999991 4.9343014700000003 9.6851996200000006 Hf
atom 9.0681123499999998 10.0842977800000000 4.4102466199999997 Hf
atom 9.4526555499999994 10.1067016800000005 9.6345430400000005 Hf
atom 0.6079154500000000 1.4722467100000001 0.8848601600000000 O
atom 0.7377749300000001 1.6003656399999999 5.9909385200000003 O
atom 0.3980126200000000 6.7913574399999996 0.8402619200000000 O
atom 0.7909340900000000 6.7987709199999999 6.1011409399999996 O
atom 5.4940815799999996 1.7036315300000000 1.2828717599999999 O
atom 5.9434898000000000 1.8421521199999999 6.4827166299999996 O
atom 5.4219396000000000 6.7752108099999999 1.1125438000000001 O
atom 6.1641425700000001 6.7812553600000003 6.2208795500000003 O
atom 0.6662034100000001 0.7555786100000000 3.3789822500000000 O
atom 0.9672386100000000 0.9216901500000000 8.6569358399999992 O
atom 0.6609544700000000 5.9637771199999996 3.4529535700000000 O
atom 0.8894811600000000 6.0509593700000002 8.6903888699999996 O
atom 5.9783529499999997 0.8073457900000000 3.8925958199999999 O
atom 6.1785040999999996 0.9368273800000000 9.1177201700000001 O
atom 5.7169477300000002 6.1996574799999999 3.7708870100000000 O
atom 5.9638242300000002 6.2268102000000001 8.8926505200000001 O
atom 4.9204291600000003 4.2750111400000002 2.2250103299999999 O
atom 5.2618954200000001 4.3460429600000001 7.4393868999999997 O
atom 5.0607063200000004 9.2255915300000009 2.1987696799999998 O
atom 5.2562125799999997 9.6805000099999994 7.3740993200000000 O
atom 10.0971951000000004 4.2101784400000000 2.6146240900000000 O
atom 10.3599371399999995 4.2374494100000000 7.8778803599999998 O
atom 10.0752103399999999 9.4413438700000007 2.5814343900000001 O
atom 10.3644203699999995 9.3935157399999998 7.8650767000000004 O
atom 5.1053806699999997 3.4808979500000001 4.8045579700000003 O
atom 5.6174070599999997 3.6279498700000001 10.1258422800000005 O
atom 5.4096480800000002 8.6319228900000002 10.0215788299999993 O
atom 10.1825250799999996 3.4208515799999999 5.2168337600000001 O
atom 10.6392046699999998 3.4852149400000001 10.5111152699999995 O
atom 10.1093329000000001 8.5609678099999993 5.2224550799999996 O
atom 10.5625909500000006 8.6423055600000005 10.4703888700000007 O
atom 2.7599030600000001 1.2685460300000000 2.4797703300000000 O
atom 3.3432120200000002 1.3337391500000000 7.9110927000000002 O
atom 3.0391010500000002 6.5029787700000004 2.7402565800000001 O
atom 3.1902801400000000 6.3103333900000003 8.1226395500000006 O
atom 8.2093790000000002 1.3331606100000000 3.0901059700000002 O
atom 8.4993140700000005 1.3883567200000000 8.3740449800000007 O
atom 8.1922720400000006 6.4031376099999999 3.0709345500000000 O
atom 8.4411166499999997 6.4724679800000002 8.3744412500000003 O
atom 3.1055885999999999 1.4050891100000000 5.4000053200000000 O
atom 3.8792881399999999 1.6133923699999999 10.3327165700000005 O
atom 3.1305761200000002 6.3116761800000001 5.3205023400000000 O
atom 3.5947486600000000 6.5225686200000004 10.6121203600000005 O
atom 8.2971612799999992 1.2731686600000001 5.7399244100000004 O
atom 8.7237389800000003 1.3103187000000001 10.9970188499999999 O
atom 8.5053811699999997 6.3431872199999999 5.7060533199999997 O
atom 8.6606285199999995 6.4395799199999999 10.9757304799999993 O
atom 2.3189940600000001 3.9832243799999998 0.3067108700000000 O
atom 2.6799584300000001 3.8959495300000002 5.5288309299999998 O
atom 2.3003121000000002 9.4801538999999995 0.5272168800000000 O
atom 2.6041025499999999 8.9695609899999997 5.5874242499999998 O
atom 7.4543253800000002 3.8939414100000000 0.7374437800000000 O
atom 7.8316528700000001 3.9136508299999999 5.9310503900000002 O
atom 7.3825918499999998 9.0368799499999994 0.6655774600000000 O
atom 7.7352467400000000 9.0059966300000003 5.8948521899999999 O
atom 2.5622048700000000 3.8107050099999999 2.9353708100000002 O
atom 2.9279818799999999 3.7891374799999999 8.1765837799999996 O
atom 2.2815708699999999 8.9172220699999993 2.8187885700000002 O
atom 2.8492917300000000 9.0033990300000006 8.3769332999999992 O
atom 7.6511062399999998 3.8217362300000000 3.2991034099999998 O
atom 7.9734501099999999 3.8589476800000000 8.5803747799999996 O
atom 7.7015764500000001 8.9164333399999993 3.2791309200000001 O
atom 7.9708477899999997 8.9854851199999999 8.5368440900000007 O
