lattice_vector 10.0483440200000000 0.0302544600000000 -0.1452506300000000 
lattice_vector 0.0585348300000000 10.2566956600000001 0.0658817900000000 
lattice_vector -0.0701850900000000 0.0394236600000000 10.4441064699999995 
atom 1.0321060399999999 0.2767984100000000 2.2197465500000000 Si
atom 1.3593617899999999 0.2157190000000000 6.9380032600000003 Hf
atom 1.4440256400000000 5.3762161600000002 1.7646321400000000 Hf
atom 1.3907518000000001 5.3928640500000000 7.0635358899999998 Hf
atom 1.4043098800000000 2.4459643999999998 4.3392926999999997 Hf
atom 1.4203161399999999 2.3106188699999999 9.6091743100000002 Hf
atom 1.3763890700000001 7.5226880700000001 4.4013248400000000 Hf
atom 1.4268166400000000 7.5613002600000003 9.6480524499999998 Hf
atom 3.5817395900000002 2.7784562300000002 1.6888762500000001 Hf
atom 3.5784253100000001 2.8075103299999999 6.9385876299999998 Hf
atom 3.6232831000000001 7.9729673400000003 1.7237837600000001 Hf
atom 3.6040925200000000 7.9449054600000002 6.9922143900000000 Hf
atom 3.6333704400000002 4.9662720399999998 4.3656996599999998 Hf
atom 3.6051174000000001 4.9377073700000000 9.5970543199999998 Hf
atom 3.5873183800000001 10.0873285900000003 4.3272000000000004 Hf
atom 3.6423562600000001 10.0913543499999996 9.6241409400000002 Hf
atom 6.4459527400000001 0.2276730400000000 0.6925053700000000 Hf
atom 6.2765521499999997 0.2145208900000000 5.9681581599999998 Hf
atom 6.4532980699999998 5.3529694900000004 0.7805473100000000 Hf
atom 6.3708914200000004 5.4477564500000000 6.0844135200000000 Hf
atom 6.3243400200000002 2.3001731200000002 3.2680390699999999 Hf
atom 6.3617895700000000 2.4158451900000002 8.6157072600000006 Hf
atom 6.3867082399999999 7.4819858300000002 3.3712217199999999 Hf
atom 6.4278554200000002 7.5434337899999999 8.6504034799999996 Hf
atom 8.7632921300000000 2.7467013900000001 0.7818390600000000 Hf
atom 8.6498398999999999 2.7549037799999998 6.0428937700000001 La
atom 8.7683995199999991 7.9716809700000004 0.7771995300000000 Hf
atom 8.6474489600000002 7.9315610999999997 6.0047940999999998 Hf
atom 8.7218335400000004 5.0092897699999996 3.2947723600000001 Hf
atom 8.6848801499999997 4.9901649700000004 8.6649020100000005 Hf
atom 8.5681378699999993 10.0354098999999994 3.4313660200000000 Hf
atom 8.6613831799999996 10.1042679199999998 8.6073877700000008 Hf
atom 0.5571639800000000 1.5239311600000001 1.0826806000000000 O
atom 0.6022101700000000 1.8385873800000001 6.1181168499999998 O
atom 0.4489509000000000 6.9492473199999996 0.9928256700000000 O
atom 0.3899620500000000 6.9407201900000004 6.1776591200000004 O
atom 0.2555492300000000 0.8086091100000000 3.6195718200000000 O
atom 0.2955004000000000 0.8739591300000000 8.6821047100000008 O
atom 0.3962025600000000 5.9803094000000003 3.5293522899999998 O
atom 0.3896166700000000 5.9855613400000003 8.8786848000000003 O
atom 4.7237057299999998 4.2598533200000004 0.8411115800000000 O
atom 4.6809219899999999 4.3141388300000001 6.0516740400000000 O
atom 4.8094816600000003 9.3928781600000004 0.8523442700000000 O
atom 4.6319744600000003 9.4147186299999994 6.0503351700000003 O
atom 4.6703686900000001 3.4268679600000000 3.4471034100000000 O
atom 4.6294369700000004 3.4537361199999999 8.6579282600000003 O
atom 4.6309535999999998 8.5637733500000000 3.4494559599999999 O
atom 4.7043920100000003 8.6112695200000005 8.6624944500000005 O
atom 2.4986024900000001 1.2494077500000000 2.8505910200000000 O
atom 2.7252923099999999 1.2680405699999999 8.1644877499999993 O
atom 2.7756919700000000 6.5044105999999999 3.0663183500000000 O
atom 2.7926132600000000 6.4364342399999996 8.2978561200000005 O
atom 3.0361874400000000 1.4599370300000001 0.2246434900000000 O
atom 2.8687079400000002 1.3584481200000000 5.5105899899999997 O
atom 2.8350793699999999 6.4048794800000000 0.4622798100000000 O
atom 2.7863105199999998 6.4760502200000003 5.6655448799999997 O
atom 2.2851757899999998 3.8954146600000001 3.0436998100000001 O
atom 2.2090745799999998 3.8339186399999998 8.2921007600000003 O
atom 2.0877355999999998 9.1455883500000006 2.9502407599999998 O
atom 2.2462338499999999 8.9719640100000007 8.2571885199999997 O
atom 2.2379143199999998 3.8912209600000001 0.4436415200000000 O
atom 2.2263226700000001 3.9415140000000002 5.6426526800000003 O
atom 2.4091167599999999 8.9733889500000004 0.3714423400000000 O
atom 2.2194775700000000 9.0439732399999997 5.6282437500000002 O
atom 5.3385123999999999 1.6965452500000000 1.6294238599999999 O
atom 5.3028228200000003 1.7768554999999999 6.8449472900000004 O
atom 5.3601064699999998 6.8447276600000002 1.6870939899999999 O
atom 5.3515242699999996 6.8885237600000000 6.9441310900000000 O
atom 5.2492513900000004 0.8415513000000000 4.2056995500000003 O
atom 5.3594771999999997 0.8843960300000000 9.4619283500000009 O
atom 5.3748541699999999 6.0118848399999996 4.3164481900000000 O
atom 5.3578781099999997 6.0150944600000003 9.5250971500000006 O
atom 9.7243891199999997 4.3829774500000003 1.5161073000000000 O
atom 9.6883971899999999 4.5306925800000002 6.9306815999999998 O
atom 9.8225725199999996 9.5379323700000000 1.7176036200000000 O
atom 9.6614062500000006 9.5346252099999997 6.8009771800000003 O
atom 9.6932254800000006 3.4385719799999999 4.0418749399999996 O
atom 9.6926414399999992 3.3715636800000000 9.4973283199999994 O
atom 9.6392490599999991 8.5185331499999997 4.2261271999999996 O
atom 9.7033220599999996 8.5862593300000007 9.4750919000000007 O
atom 7.8189531700000003 1.3229995999999999 9.9146325500000003 O
atom 7.6136872200000001 1.2133029500000001 4.5942192500000001 O
atom 7.8054625399999997 6.4723907399999998 9.9737818899999997 O
atom 7.8064230600000002 6.3192924899999996 4.7334309200000000 O
atom 7.7998003599999999 1.2996433900000000 2.0295494199999999 O
atom 7.5610675799999996 1.2038945500000000 7.3820376500000000 O
atom 7.8179486899999997 6.4870348099999999 2.0815733000000001 O
atom 7.8126683200000002 6.5026542999999997 7.3634142699999998 O
atom 7.2845776000000004 3.8625671300000000 10.0079005199999997 O
atom 7.2939813600000001 9.0290016099999999 9.9412957700000000 O
atom 7.2167406500000002 8.9249494499999997 4.7267251899999998 O
atom 7.3079742799999998 3.8693741199999998 2.1765172700000002 O
atom 7.1495663499999997 4.0185192100000000 7.4241167499999996 O
atom 7.3447710900000001 8.9996266200000008 2.1036822000000002 O
atom 7.2724369500000003 8.9843790299999995 7.3174040700000003 O
