lattice_vector 10.0237361800000002 0.0710648400000000 0.7645684300000000 
lattice_vector 0.0591950600000000 10.1670023900000004 -0.0261997800000000 
lattice_vector 0.8884942100000000 -0.0629405600000000 10.4533737400000000 
atom 1.2928610100000000 0.2056536500000000 1.7383121699999999 Si
atom 1.9354250000000000 0.1769308100000000 6.8276359600000003 Hf
atom 1.5334879699999999 5.3153297300000002 1.6125768199999999 Hf
atom 2.0124371000000001 5.2499424200000000 6.8546393999999999 Hf
atom 6.3049718500000003 0.2415306800000000 2.1212447100000000 Si
atom 6.9473999400000004 0.2125660800000000 7.2102516200000002 Hf
atom 6.5454817099999998 5.3510049200000003 1.9952799999999999 Hf
atom 7.0244724700000001 5.2856205500000000 7.2370162100000002 Hf
atom 1.7371071199999999 2.2657011599999999 4.1369534300000002 Hf
atom 2.2498273800000002 2.2738096500000000 9.4457418099999995 Hf
atom 1.7833787699999999 7.3591998299999997 4.2507206000000002 Hf
atom 2.1609752000000002 7.3972993200000001 9.4758155500000001 Hf
atom 6.7489950500000004 2.3011466199999999 4.5193581500000004 Hf
atom 7.2619267199999999 2.3094970300000002 9.8281750700000003 Hf
atom 6.7952611200000002 7.3950782400000001 4.6329834099999996 Hf
atom 7.1728584399999997 7.4330848100000004 9.8582866599999992 Hf
atom 3.7732655700000000 2.6866564099999999 1.3449153500000000 Hf
atom 4.1817663500000002 2.7445450500000002 6.5623302399999996 Hf
atom 3.7031584799999999 7.9460736100000000 1.3878491100000001 Hf
atom 4.1949864300000002 7.8153282500000003 6.6294590700000002 Hf
atom 8.7852028700000009 2.7223995900000002 1.7274354700000001 Hf
atom 9.1936704099999993 2.7801304999999998 6.9449354400000001 Hf
atom 8.7149728100000008 7.9816868300000001 1.7703439200000000 Hf
atom 9.2069230199999996 7.8509489600000002 7.0120466199999996 Hf
atom 3.9641851699999999 4.8434853699999998 3.9550963399999999 Hf
atom 4.4298912499999998 4.8465792099999998 9.2423215400000007 Hf
atom 3.9584675900000001 9.8976447200000006 3.9407050600000000 Hf
atom 4.4310636099999998 10.0054748999999994 9.2048901200000000 Hf
atom 8.9761951799999995 4.8791806299999996 4.3378085000000004 Hf
atom 9.4417737600000002 4.8823546599999998 9.6250802600000007 Hf
atom 8.9708051799999993 9.9330648499999992 4.3230997699999998 Hf
atom 9.4430857899999996 10.0408034199999996 9.5874416300000007 Hf
atom 0.5784979900000000 1.4759845899999999 0.8253338300000000 O
atom 0.8296949500000000 1.5630408200000001 5.9253752200000003 O
atom 0.4058068500000000 6.7826614899999997 0.8321122100000000 O
atom 0.8855941200000000 6.6993917800000000 6.0544758700000001 O
atom 5.5904097400000001 1.5118047200000000 1.2082342900000000 O
atom 5.8420400499999996 1.5991536099999999 6.3082943499999997 O
atom 5.4181755599999999 6.8186534999999999 1.2149793900000001 O
atom 5.8977205799999997 6.7353950800000000 6.4371158099999999 O
atom 0.5919745100000000 0.8148810399999999 3.2684134500000002 O
atom 1.0978499799999999 0.8524573700000000 8.6093027499999994 O
atom 0.6726784400000000 5.8939633200000001 3.4451715599999999 O
atom 1.1000446900000000 5.9467492100000001 8.6575652900000009 O
atom 5.6045200599999996 0.8494615700000000 3.6516346099999999 O
atom 6.1104032400000001 0.8875180900000000 8.9922644700000003 O
atom 5.6851309299999997 5.9291072900000001 3.8279787199999999 O
atom 6.1127956299999999 5.9818149299999996 9.0402260800000001 O
atom 4.9115949099999998 4.1663576899999999 2.1956806900000001 O
atom 5.3312655299999996 4.1557594199999999 7.4437791400000002 O
atom 4.9914769500000000 9.3313620700000008 2.1646290200000000 O
atom 5.3217080399999999 9.2695581399999991 7.4145958700000003 O
atom 9.9240136799999998 4.2015925100000002 2.5785555400000000 O
atom 10.3435457399999997 4.1910200099999999 7.8266027400000002 O
atom 10.0036100799999996 9.3665236000000007 2.5470300699999999 O
atom 10.3340881299999996 9.3047064499999994 7.7972464199999996 O
atom 5.0851198899999996 3.4016425600000000 4.7806308199999998 O
atom 5.6302753299999999 3.4659756200000000 10.1135960100000002 O
atom 5.0889395999999998 8.4915964800000001 4.7969703099999998 O
atom 5.4425455300000003 8.4985754500000006 10.0435284599999992 O
atom 10.0973350899999996 3.4377582900000001 5.1637443599999999 O
atom 10.6425753800000003 3.5021306299999999 10.4964981999999996 O
atom 10.1012931500000001 8.5275253200000005 5.1798366700000003 O
atom 10.4547578500000000 8.5341872199999997 10.4261653200000008 O
atom 2.7672380799999998 1.1187389100000000 2.4482920500000001 O
atom 3.4205657000000000 1.2647286700000000 7.8195783600000004 O
atom 3.0244323299999998 6.3666974400000003 2.7018618200000000 O
atom 3.4561366499999999 6.3573497000000003 7.9550538000000000 O
atom 7.7798946200000003 1.1545781399999999 2.8309224899999998 O
atom 8.4323500599999992 1.3002038800000000 8.2022533299999996 O
atom 8.0365366500000004 6.4023371999999998 3.0843935800000000 O
atom 8.4679680899999994 6.3930103000000003 8.3376134200000003 O
atom 3.2123081000000000 1.2274484800000001 5.1967712800000001 O
atom 3.8876935300000000 1.4569980400000000 10.3036887499999992 O
atom 3.2550801200000001 6.2786286999999996 5.3390263300000003 O
atom 3.6598661099999998 6.3936314400000001 10.5536019799999998 O
atom 8.2242706499999993 1.2628369500000001 5.5794028999999998 O
atom 8.8999049299999999 1.4927464699999999 10.6862963799999999 O
atom 8.2668113299999995 6.3144161499999996 5.7214955999999999 O
atom 8.6712870700000000 6.4293245299999997 10.9363233700000002 O
atom 2.3422405400000001 3.9260694200000001 0.2933839100000000 O
atom 2.7050195000000001 3.8072889499999998 5.4802483700000000 O
atom 2.2262409999999999 9.3406714999999991 0.5042452600000000 O
atom 2.7401981200000001 8.8873510000000007 5.5261831399999997 O
atom 7.3540502400000003 3.9616167600000001 0.6761647900000000 O
atom 7.7169296999999997 3.8426576200000002 5.8628278500000004 O
atom 7.2380057899999999 9.3764649099999993 0.8871379500000000 O
atom 7.7522487699999996 8.9228904500000006 5.9089394300000002 O
atom 2.5586230900000002 3.6859402499999998 2.8650365899999999 O
atom 2.9784500000000000 3.7496529700000001 8.1259419099999999 O
atom 2.5264605699999998 8.8097868199999994 2.9376443000000001 O
atom 2.9563857100000002 8.8378896299999994 8.1862788000000002 O
atom 7.5706037300000002 3.7214674900000002 3.2474894200000000 O
atom 7.9903405500000000 3.7854782700000000 8.5084738000000009 O
atom 7.5383921200000001 8.8455790699999994 3.3199893700000001 O
atom 7.9681259700000000 8.8735374500000006 8.5687562499999999 O
