lattice_vector 10.0918799999999997 -0.0019240000000000 -0.0010320000000000 
lattice_vector -0.0005710000000000 10.2504960000000001 0.0021560000000000 
lattice_vector 0.0011530000000000 -0.0007170000000000 10.0920070000000006 
atom 1.2703120000000001 -0.0023590000000000 1.2701020000000001 La
atom 1.2705470000000001 -0.0027450000000000 6.3162770000000004 Hf
atom 1.2697390000000000 5.1230500000000001 1.2709060000000001 La
atom 1.2702480000000000 5.1224390000000000 6.3171819999999999 Hf
atom 6.3158709999999996 -0.0031550000000000 1.2696490000000000 Hf
atom 6.3164259999999999 -0.0035370000000000 6.3153910000000000 Hf
atom 6.3154230000000000 5.1219749999999999 1.2707070000000000 Hf
atom 6.3163640000000001 5.1214240000000002 6.3164930000000004 Hf
atom 1.2702389999999999 2.5603210000000001 3.8430279999999999 Hf
atom 1.2707200000000001 2.5596359999999998 8.7891860000000008 Hf
atom 1.2700140000000000 7.6854149999999999 3.8442090000000002 Hf
atom 1.2709530000000000 7.6849710000000000 8.7902520000000006 Hf
atom 6.3162630000000002 2.5591620000000002 3.7918300000000000 Hf
atom 6.3169389999999996 2.5589360000000001 8.8390149999999998 Hf
atom 6.3159340000000004 7.6842230000000002 3.7929599999999999 Hf
atom 6.3166739999999999 7.6840919999999997 8.8399940000000008 Hf
atom 3.8426380000000000 2.5599379999999998 1.2697320000000001 Hf
atom 3.7930240000000000 2.5592850000000000 6.3156470000000002 Hf
atom 3.8425600000000002 7.6850449999999997 1.2709839999999999 Hf
atom 3.7929529999999998 7.6848359999999998 6.3167819999999999 Hf
atom 8.7890569999999997 2.5587789999999999 1.2691010000000000 Hf
atom 8.8399470000000004 2.5579779999999999 6.3153459999999999 Hf
atom 8.7888870000000008 7.6840900000000003 1.2704540000000000 Hf
atom 8.8396629999999998 7.6837540000000004 6.3160170000000004 Hf
atom 3.8165540000000000 0.0167260000000000 3.8166850000000001 Hf
atom 3.8173620000000001 -0.0230090000000000 8.8152249999999999 Hf
atom 3.8159839999999998 5.1419470000000000 3.8178359999999998 Hf
atom 3.8169260000000000 5.1022239999999996 8.8158940000000001 Hf
atom 8.8154660000000007 -0.0237580000000000 3.8155150000000000 Hf
atom 8.8157920000000001 0.0150160000000000 8.8151810000000008 Hf
atom 8.8151569999999992 5.1013289999999998 3.8167849999999999 Hf
atom 8.8155380000000001 5.1410090000000004 8.8159580000000002 Hf
atom -0.0152900000000000 1.5313280000000000 -0.0147570000000000 O
atom 0.0731490000000000 1.5129210000000000 5.1702750000000002 O
atom -0.0157790000000000 6.6567059999999998 -0.0139200000000000 O
atom 0.0725780000000000 6.6381530000000000 5.1712939999999996 O
atom 5.1697090000000001 1.5126670000000000 0.0723270000000000 O
atom 5.0879009999999996 1.5194300000000001 5.0871620000000002 O
atom 5.1695779999999996 6.6380590000000002 0.0735760000000000 O
atom 5.0871579999999996 6.6445879999999997 5.0880440000000000 O
atom -0.1363170000000000 1.1890689999999999 2.6781980000000001 O
atom -0.0054410000000000 1.0407800000000000 7.6207719999999997 O
atom -0.1370950000000000 6.3143440000000002 2.6789410000000000 O
atom -0.0053930000000000 6.1660519999999996 7.6215880000000000 O
atom 5.0132019999999997 1.0407700000000000 2.5474890000000001 O
atom 5.0430690000000000 1.0428720000000000 7.5908490000000004 O
atom 5.0123049999999996 6.1658489999999997 2.5482100000000001 O
atom 5.0429849999999998 6.1680979999999996 7.5917490000000001 O
atom -0.0156360000000000 3.5896940000000002 2.5562000000000000 O
atom 0.0732000000000000 3.6067990000000001 7.4625740000000000 O
atom -0.0160440000000000 8.7150680000000005 2.5576409999999998 O
atom 0.0722810000000000 8.7321790000000004 7.4642520000000001 O
atom 5.1696080000000002 3.6065140000000002 2.4678450000000001 O
atom 5.0874439999999996 3.5987900000000002 7.5452370000000002 O
atom 5.1689870000000004 8.7319800000000001 2.4694900000000000 O
atom 5.0868039999999999 8.7240780000000004 7.5466959999999998 O
atom -0.1376100000000000 3.9319160000000002 -0.1371140000000000 O
atom -0.0061530000000000 4.0789020000000002 5.0126020000000002 O
atom -0.1371880000000000 9.0572269999999993 -0.1356710000000000 O
atom -0.0066470000000000 9.2041579999999996 5.0141130000000000 O
atom 5.0119389999999999 4.0785410000000004 -0.0069220000000000 O
atom 5.0420999999999996 4.0755260000000000 5.0413189999999997 O
atom 5.0122520000000002 9.2037220000000008 -0.0055920000000000 O
atom 5.0416860000000003 9.2007809999999992 5.0428910000000000 O
atom 2.5561980000000002 1.5303700000000000 2.5561039999999999 O
atom 2.4696050000000001 1.5118430000000000 7.4633510000000003 O
atom 2.5555479999999999 6.6558089999999996 2.5568369999999998 O
atom 2.4694219999999998 6.6371919999999998 7.4640190000000004 O
atom 7.4636220000000000 1.5111910000000000 2.4685190000000001 O
atom 7.5467160000000000 1.5188340000000000 7.5457299999999998 O
atom 7.4627330000000001 6.6366779999999999 2.4690059999999998 O
atom 7.5467029999999999 6.6440710000000003 7.5465350000000004 O
atom 2.6777220000000002 1.1888730000000001 -0.1370750000000000 O
atom 2.5481009999999999 1.0417220000000000 5.0129530000000004 O
atom 2.6773989999999999 6.3141499999999997 -0.1363200000000000 O
atom 2.5472670000000002 6.1670100000000003 5.0134840000000001 O
atom 7.6199050000000002 1.0408290000000000 -0.0068250000000000 O
atom 7.5917479999999999 1.0423929999999999 5.0417319999999997 O
atom 7.6195130000000004 6.1660890000000004 -0.0059630000000000 O
atom 7.5910539999999997 6.1676320000000002 5.0423660000000003 O
atom 2.5553149999999998 3.5896859999999999 -0.0151500000000000 O
atom 2.4690539999999999 3.6076600000000001 5.1695029999999997 O
atom 2.5554730000000001 8.7149330000000003 -0.0139000000000000 O
atom 2.4685199999999998 8.7329059999999998 5.1708809999999996 O
atom 7.4622940000000000 3.6067650000000002 0.0721010000000000 O
atom 7.5458939999999997 3.5983320000000001 5.0866870000000004 O
atom 7.4628129999999997 8.7322749999999996 0.0722590000000000 O
atom 7.5453999999999999 8.7236290000000007 5.0872880000000000 O
atom 2.6776049999999998 3.9312060000000000 2.6776890000000000 O
atom 2.5478939999999999 4.0778059999999998 7.6201040000000004 O
atom 2.6770689999999999 9.0564599999999995 2.6792229999999999 O
atom 2.5470419999999998 9.2031539999999996 7.6216489999999997 O
atom 7.6196279999999996 4.0772899999999996 2.5470959999999998 O
atom 7.5913870000000001 4.0747439999999999 7.5905449999999997 O
atom 7.6192539999999997 9.2024950000000008 2.5477140000000000 O
atom 7.5907320000000000 9.2001729999999995 7.5912629999999996 O
