lattice_vector 10.0486160299999998 -0.0414622900000000 -0.0370846000000000 
lattice_vector -0.0075698700000000 10.3424546599999996 -0.0195725700000000 
lattice_vector -0.0396306500000000 0.0036091500000000 5.2032718999999998 
atom 1.1824738400000001 0.0436835300000000 1.6090787900000001 La
atom 1.3755041400000001 5.3905299700000002 1.7481277300000000 Hf
atom 1.3468522999999999 2.3775974500000001 4.3227673199999996 Hf
atom 1.3907240400000001 7.5267107400000004 4.3368748500000001 Hf
atom 3.5578421200000001 2.7379969200000001 1.7329742600000000 Hf
atom 3.6498151900000000 7.9347662500000000 1.7223854300000001 Hf
atom 3.5746696999999998 4.9176094399999997 4.3385495599999997 Hf
atom 3.6218096200000001 10.1311071599999991 4.2872378700000002 Hf
atom 6.4037224799999999 0.2011577700000000 0.8509216800000000 Hf
atom 6.3709036100000001 5.3182399299999998 0.7856569900000000 Hf
atom 6.3640100500000001 2.3741845200000000 3.4001848899999998 Hf
atom 6.3800840799999996 7.5013420999999996 3.3836975200000001 Hf
atom 8.6454247100000003 2.8205545299999999 0.7854778900000000 Hf
atom 8.5763073199999997 7.8394385700000004 0.7754042500000000 Hf
atom 8.6277864100000006 4.9243285700000001 3.3727311800000002 Hf
atom 8.5320809799999999 10.1573616500000004 3.5587228799999999 Hf
atom 0.3590442500000000 2.0097157999999999 0.9408600600000000 O
atom 0.3927553900000000 7.1201265600000001 1.0216384199999999 O
atom 0.2473453900000000 0.7796551200000000 3.6998679900000000 O
atom 0.3281817600000000 5.9841722700000002 3.5443540200000001 O
atom 4.6536654200000003 4.2846928399999999 0.8627173900000000 O
atom 4.7081022099999998 9.4875898500000009 0.8640942100000000 O
atom 4.6306324200000004 3.4084842100000001 3.4604004499999999 O
atom 4.7229472899999996 8.6211875700000000 3.4073759699999999 O
atom 2.7448383100000000 1.2848615900000000 3.0295183200000002 O
atom 2.7730772199999998 6.4117585799999999 3.0204134200000001 O
atom 2.8254655999999998 1.3304505600000001 0.3364638600000000 O
atom 2.7334251400000000 6.4058326499999998 0.4237007300000000 O
atom 2.1895692499999999 3.8643806700000001 3.0027418600000000 O
atom 2.2837396299999999 8.9147532900000002 3.0203141400000000 O
atom 2.2179204499999998 3.8925427400000001 0.4116956600000000 O
atom 2.4405479200000002 8.9171021400000008 0.3013382000000000 O
atom 5.3510452800000001 1.7281756600000000 1.6807906300000000 O
atom 5.3754073199999999 6.8798336000000004 1.6572118700000000 O
atom 5.3914162299999999 0.8056350400000000 4.2785760499999999 O
atom 5.3220590600000000 6.0007188600000001 4.2766572600000003 O
atom 9.6152780000000000 4.4585290700000000 1.5669506000000000 O
atom 9.6092381699999994 3.3585565700000002 4.1663265100000002 O
atom 9.6851844600000003 8.6225329599999991 4.3327029499999998 O
atom 7.7296438500000004 1.3025454700000001 4.7875432299999998 O
atom 7.7716196399999999 6.4243245499999997 4.7075473299999997 O
atom 7.7993924799999998 1.2703242299999999 2.1735725299999999 O
atom 7.7568530600000001 6.4237515099999998 2.1073388000000000 O
atom 7.2163586200000003 3.8797239800000001 4.6911316000000003 O
atom 7.1909932699999999 8.9853454999999993 4.7568600300000004 O
atom 7.2425328200000001 3.8501391300000001 2.1013896500000002 O
atom 7.4070077500000000 9.0087882900000000 2.1353996700000000 O
