lattice_vector 10.0944586100000002 0.0304999900000000 0.8011941100000000 
lattice_vector 0.0395588000000000 10.2426261299999997 0.0071664100000000 
lattice_vector 0.8649434400000000 -0.0377608800000000 10.4417045799999997 
atom 1.3556002899999999 0.1133475800000000 1.8203134599999999 Si
atom 1.9546448300000001 0.1912856800000000 6.7973454200000001 Hf
atom 1.6288126700000001 5.2684678700000003 1.6974311799999999 Hf
atom 1.9987474300000001 5.2915674199999998 6.8757920700000001 Hf
atom 6.5289140300000001 0.2896720300000000 2.0505886699999998 Hf
atom 7.0400806700000000 0.2203655800000000 7.2413626000000004 Hf
atom 6.5567288499999998 5.3320702000000004 2.0290508500000000 Hf
atom 7.0295773300000004 5.3254782900000004 7.2857950799999998 Hf
atom 1.7261587899999999 2.2915419099999998 4.1689342299999996 Hf
atom 2.2375614599999998 2.2460587400000001 9.4435532299999991 Hf
atom 1.7635060000000000 7.4513630800000001 4.2662373599999999 Hf
atom 2.1809729700000000 7.6369321899999996 9.4655119299999999 La
atom 6.8128240800000004 2.3501498700000001 4.6415908100000003 Hf
atom 7.2580723400000000 2.3863248300000000 9.8838702699999992 Hf
atom 6.8141394899999996 7.4554330100000001 4.6731088700000001 Hf
atom 7.1932695600000001 7.4633670499999996 9.8921588099999997 Hf
atom 3.7127095600000000 2.7425761099999999 1.3293444800000001 Hf
atom 4.1931208699999996 2.7849749799999999 6.5801409700000004 Hf
atom 3.7061817800000001 7.9788055499999997 1.4294895800000000 Hf
atom 4.2331742400000003 7.9036156899999996 6.5962334299999998 Hf
atom 8.9067776500000004 2.7249956000000002 1.8022019800000000 Hf
atom 9.2337195600000008 2.7882946000000000 6.9833969099999997 Hf
atom 8.6359179800000003 7.9886578699999999 1.8230491400000000 Hf
atom 9.2426055700000003 7.8737672900000000 7.0434937800000004 Hf
atom 3.9910373099999998 4.9061713999999998 4.0070587499999997 Hf
atom 4.3806340700000002 4.9064856900000002 9.2282133300000009 Hf
atom 3.9534000499999999 10.0181109799999994 3.9587751700000000 Hf
atom 4.4968450000000004 10.1160536200000006 9.1969624999999997 Hf
atom 9.0095503899999994 4.9227303300000003 4.3722486700000003 Hf
atom 9.4891450499999994 4.8694227899999998 9.6484174599999992 Hf
atom 9.0292579600000007 10.0010115000000006 4.4176115800000000 Hf
atom 9.4334409200000007 10.0606265799999992 9.6072183899999999 Hf
atom 0.6072332400000000 1.4643077499999999 0.9083655500000000 O
atom 0.8279790100000000 1.6441294200000001 5.9611071200000003 O
atom 0.8818472300000000 6.7842273200000003 6.0910019200000001 O
atom 5.4746009100000004 1.7559375699999999 1.2349314499999999 O
atom 5.9255547200000001 1.7090392400000001 6.4537669700000002 O
atom 5.4572265199999999 6.8783522300000000 1.2846041600000000 O
atom 5.9584270000000004 6.8321301099999996 6.4669146199999998 O
atom 0.6560261300000000 0.7321144000000001 3.3444587499999998 O
atom 1.0956884700000000 0.7549919899999999 8.6582262700000001 O
atom 0.6351613699999999 5.9861893500000001 3.4041773399999999 O
atom 1.1149245100000000 5.7854327999999997 8.7123525399999995 O
atom 5.6328304500000002 0.9042243700000000 3.8424439399999999 O
atom 6.2164491899999996 0.8396489200000000 9.0792734399999997 O
atom 5.7325820299999997 5.9452121699999996 3.8823660800000002 O
atom 6.1096384099999996 5.9903004900000001 9.0772061100000005 O
atom 4.8346654999999998 4.2827651600000003 2.1712352199999998 O
atom 5.3141798400000004 4.2421079400000004 7.4145969200000001 O
atom 4.8621349100000000 9.4126360499999997 2.2004122599999998 O
atom 5.4137973700000002 9.3773607000000005 7.3880868700000004 O
atom 9.9402004799999997 4.3214623699999999 2.5166608799999999 O
atom 10.3520229199999996 4.2303382999999997 7.7874237800000001 O
atom 10.0322985800000009 9.3313847299999999 2.5846341700000002 O
atom 10.3881286199999998 9.3395720600000001 7.8398280600000003 O
atom 5.1036106800000001 3.4291716499999998 4.7891865100000004 O
atom 5.5848703100000003 3.5004747300000001 10.0371761700000004 O
atom 5.0909692800000004 8.5366382800000000 4.7625256699999996 O
atom 5.3595422599999996 8.4730994200000005 10.0076626100000006 O
atom 10.1108972200000000 3.3996848900000001 5.1136481399999996 O
atom 10.5738263299999993 3.2948806500000001 10.4410496399999992 O
atom 10.1269981599999994 8.5314079100000004 5.2287751099999999 O
atom 10.2590840599999993 8.4918355900000009 10.4832582700000003 O
atom 2.8061706800000001 1.1926286200000000 2.5137872400000001 O
atom 3.4073901800000002 1.3127688600000000 7.8320129600000001 O
atom 3.0290077599999998 6.4707812300000001 2.7948901300000002 O
atom 3.5363152100000002 6.3832304400000002 7.8820195999999996 O
atom 8.0594566699999994 1.3054713800000000 3.1365560600000002 O
atom 8.5211738399999994 1.3454809999999999 8.3342969100000008 O
atom 8.0571546600000001 6.4634129299999996 3.1360041900000000 O
atom 8.4952038200000004 6.4255884300000004 8.3941098299999997 O
atom 3.2076415200000001 1.2520386200000000 5.2348918299999996 O
atom 3.9056402800000001 1.4693344399999999 10.2850341400000005 O
atom 3.2427050899999998 6.3507400299999999 5.3482348300000000 O
atom 3.6354738400000000 6.3030453499999997 10.7223332199999994 O
atom 8.2866557800000002 1.2287521200000000 5.7189037999999996 O
atom 8.7132656999999991 1.2293706200000001 10.9875601599999992 O
atom 8.3028216199999996 6.3481820100000004 5.7562777299999999 O
atom 8.6715280299999993 6.3510202299999996 10.9938241699999999 O
atom 2.2598131499999998 3.8880544600000002 0.2737897600000000 O
atom 2.7064803199999998 3.8534611100000000 5.4777018899999996 O
atom 2.2879160700000001 9.4637850500000003 0.5505126400000000 O
atom 2.7321629100000000 8.9846447999999999 5.4724937400000000 O
atom 7.3963146999999996 3.8767108800000001 0.7308492200000000 O
atom 7.7697842799999997 3.8804170899999999 5.9051101700000004 O
atom 7.1652687300000002 9.0521065099999998 0.7461959600000000 O
atom 7.7930094800000003 8.9865930699999996 5.9207437599999997 O
atom 2.5137201999999998 3.7745758500000002 2.8890223399999999 O
atom 2.9603699300000001 3.7582526600000001 8.1178492400000000 O
atom 2.3941680200000000 8.9624378999999994 2.9063525700000001 O
atom 3.1065069599999999 9.0500178099999999 7.9892615600000001 O
atom 7.5916326500000002 3.7907287300000001 3.2871439100000002 O
atom 7.9936979600000004 3.8075268499999999 8.5279255700000007 O
atom 7.5563208499999996 8.9660936299999996 3.3330218199999999 O
atom 7.9922008299999998 8.9178983699999996 8.5410717700000003 O
