lattice_vector 10.0725600499999999 0.0697962900000000 0.7745799200000000 
lattice_vector 0.0296328100000000 10.1069274999999994 -0.0633867300000000 
lattice_vector 0.9213118000000000 -0.1151140700000000 10.4856757500000004 
atom 1.2448451700000001 0.1516440400000000 1.7252820200000001 Si
atom 1.9579568700000001 0.1863986000000000 6.8544802899999997 Hf
atom 1.5542435100000001 5.2474966099999998 1.5889394699999999 Hf
atom 2.0301503500000000 5.2237157999999999 6.8782607499999999 Hf
atom 6.5698107700000001 0.2570600000000000 2.0197223599999998 Hf
atom 7.0522975700000003 0.2282459700000000 7.2372825599999997 Hf
atom 6.5069879999999998 5.3012414600000000 1.9462395100000001 Hf
atom 7.0455196400000002 5.2488099100000003 7.2557438300000001 Hf
atom 1.7379362800000000 2.2294219399999999 4.1146923800000001 Hf
atom 2.3470710700000001 2.0971451800000001 9.4166424699999993 Hf
atom 1.7944149400000000 7.2839938799999997 4.2755202700000003 Hf
atom 2.2790327200000000 7.4087961900000003 9.5451052300000008 Hf
atom 6.8222578199999999 2.3340972000000000 4.5991594100000004 Hf
atom 7.2865093099999996 2.2705050800000000 9.8620996299999995 Hf
atom 6.8022687900000003 7.3485328200000000 4.6087774399999999 Hf
atom 7.1981729200000002 7.3676613800000004 9.8583778899999999 Hf
atom 3.7083621299999998 2.6181782800000000 1.2642903299999999 Hf
atom 4.1923012100000001 2.7431880099999999 6.5338698099999997 Hf
atom 3.6398424600000001 7.9288204999999996 1.3929671400000001 Hf
atom 4.2487544200000000 7.7976835900000001 6.6945141899999996 Hf
atom 8.8616845400000006 2.7287089400000002 1.7260179200000001 Hf
atom 9.2574463900000001 2.7483872200000001 6.9757256700000001 Hf
atom 8.7736175900000006 7.8258250000000000 1.7222607400000001 Hf
atom 9.2375852300000005 7.7623400299999998 6.9853610899999996 Hf
atom 3.9568431300000002 4.8029998500000000 3.9313905800000000 Hf
atom 4.4326071499999999 4.7788629499999997 9.2203304599999996 Hf
atom 4.0280965100000001 9.8405667399999999 3.9542338600000000 Hf
atom 4.7430587500000003 9.8739191399999999 9.0845462000000001 Si
atom 9.0143896800000007 4.8481509599999999 4.3287770400000003 Hf
atom 9.5532760200000002 4.7953187499999999 9.6383973500000000 Hf
atom 9.0077320099999998 9.8685951200000002 4.3470527900000002 Hf
atom 9.4901347600000001 9.8393387200000006 9.5648787300000002 Hf
atom 0.6002631100000000 1.4249251800000000 0.7838845300000000 O
atom 0.8197688500000000 1.5046921300000000 5.9136674800000000 O
atom 0.3906737200000000 6.6721805400000003 0.7909328300000000 O
atom 0.8510127700000000 6.5879889199999999 6.0282541900000002 O
atom 5.4594956300000002 1.6479582300000000 1.1319674000000000 O
atom 5.8992170399999999 1.6286716699999999 6.3856859699999999 O
atom 5.3763492900000003 6.7768952300000000 1.1123237800000001 O
atom 5.9339211599999997 6.7081805699999997 6.4228127900000000 O
atom 0.6343213599999999 0.7403371399999999 3.2843071500000001 O
atom 1.0452714900000000 0.8234053600000000 8.6076947399999995 O
atom 0.6559061200000000 5.8643247699999996 3.3962177100000002 O
atom 1.1346281600000001 5.9050157099999998 8.6864069300000004 O
atom 5.6324021100000001 0.9544703800000000 3.7531979199999999 O
atom 6.1444889299999996 0.7817596999999999 9.0503492699999999 O
atom 5.6458768800000003 5.9512558200000001 3.7488056200000002 O
atom 6.0872875100000003 5.9476069499999999 9.0090029099999995 O
atom 4.8520497400000000 4.1221072699999999 2.1227296700000000 O
atom 5.3307874499999999 4.1630625099999996 7.4128063099999997 O
atom 4.9411135799999997 9.2034429600000003 2.2013315800000002 O
atom 5.3523246200000001 9.2873924599999995 7.5245901899999996 O
atom 9.9733030100000004 4.1480415600000002 2.5758915099999999 O
atom 10.4145204899999992 4.1448026699999998 7.8360169099999997 O
atom 9.9164034900000004 9.3138164999999997 2.5347022199999998 O
atom 10.4280634899999995 9.1411598099999996 7.8318935999999999 O
atom 5.1357596499999998 3.4381827000000000 4.7805625599999999 O
atom 5.5963976400000002 3.3538164799999999 10.0178984500000006 O
atom 5.1663550400000000 8.5215076300000003 4.8949445200000001 O
atom 5.3876547099999996 8.6004407599999997 10.0250816399999998 O
atom 10.1262253799999993 3.3894574899999999 5.1622877599999999 O
atom 10.6839053100000001 3.3196884999999998 10.4725047300000007 O
atom 10.1607962199999999 8.4686904399999996 5.1992490199999999 O
atom 10.6007193700000002 8.4489864499999996 10.4528337699999998 O
atom 2.7482747000000001 1.0896052700000001 2.3747921500000002 O
atom 3.3947045100000000 1.3107336500000000 7.7411636399999999 O
atom 3.0019307500000001 6.3080134599999997 2.6855679700000001 O
atom 3.4499702000000001 6.3776635199999996 7.9711604700000001 O
atom 8.0624526299999992 1.3023712500000000 3.0952218100000000 O
atom 8.4980631500000001 1.2848816800000000 8.3245428500000003 O
atom 8.0347007000000001 6.3501045300000003 3.0574682599999998 O
atom 8.4976057600000008 6.3334690800000004 8.3513293500000003 O
atom 3.2105991999999999 1.2273902100000000 5.1705094699999998 O
atom 3.9580343400000002 0.9765513700000000 10.1372902299999996 O
atom 3.2876387800000000 6.2410919900000001 5.3566019200000001 O
atom 3.6920240899999999 6.2438033099999997 10.5809536099999999 O
atom 8.2816916099999993 1.2348172700000000 5.7050915099999999 O
atom 8.7597983799999994 1.1663419300000000 10.9664925899999997 O
atom 8.2785356900000000 6.2745651799999997 5.6940295499999998 O
atom 8.6839476500000004 6.2417741199999996 10.9275349500000001 O
atom 2.2951589100000001 3.7825158999999999 0.2282206500000000 O
atom 2.6992413000000002 3.7859604800000000 5.4526598399999999 O
atom 2.0295073700000001 9.0494241500000001 0.6709298700000000 O
atom 2.7762520099999999 8.7998429199999997 5.6380647100000001 O
atom 7.3761778199999997 3.8545643900000002 0.6573215900000000 O
atom 7.7813615599999997 3.8222826699999999 5.8905101300000000 O
atom 7.3002208700000004 8.9299157400000002 0.6182656600000001 O
atom 7.7782281600000003 8.8620435000000004 5.8793354799999999 O
atom 2.5370104499999999 3.6492822199999999 2.8382190600000001 O
atom 2.9849225800000001 3.7190604899999999 8.1240847400000007 O
atom 2.5904049400000000 8.7169278299999995 3.0670714399999999 O
atom 3.2395170900000001 8.9369099799999994 8.4343939599999995 O
atom 7.5626379500000001 3.7630222000000000 3.2331799000000001 O
atom 8.0254232499999993 3.7466421599999999 8.5271158600000003 O
atom 7.5619962500000000 8.8116999299999996 3.2597699300000000 O
atom 7.9977205800000002 8.7940802199999997 8.4890408599999994 O
