lattice_vector 10.2617470500000003 -0.0331822600000000 -0.1104908600000000 
lattice_vector 0.0153703200000000 5.1687722000000003 0.0119718000000000 
lattice_vector -0.0358785400000000 -0.0243717100000000 10.4384117500000002 
atom 1.2717621600000000 0.0780648600000000 1.6556648400000000 La
atom 1.4481980999999999 0.1623214100000000 7.0103887299999998 Hf
atom 1.5359672200000001 2.3578203200000001 4.3487612999999996 Hf
atom 1.3966879999999999 2.3736767099999998 9.5539674500000000 Hf
atom 3.7478069899999999 2.7049238400000002 1.7103146800000000 Hf
atom 3.6701835500000000 2.7323656600000001 6.9586160000000001 Hf
atom 3.7244393800000002 4.9100133699999997 4.3324855299999996 Hf
atom 3.7232710600000001 4.9179210800000002 9.5752325200000001 Hf
atom 6.5734539500000002 0.1533301300000000 0.7664858600000000 Hf
atom 6.4961266599999998 0.1013032200000000 6.0143350599999996 Hf
atom 6.5321158300000004 2.3186472000000000 3.4026491100000000 Hf
atom 6.4967045900000002 2.3268038799999999 8.5983147599999992 Hf
atom 8.7953942000000005 2.7380206299999998 0.7145651100000000 Hf
atom 8.9718994900000002 2.6272943400000002 6.0693301300000000 La
atom 8.7210801999999994 4.9214408299999999 3.3868315099999999 Hf
atom 8.8231778300000006 4.9365293499999998 8.6197862399999998 Hf
atom 0.4203290100000000 2.1644364600000001 0.9675933799999999 O
atom 0.8262849100000000 1.9730104600000000 6.3183460199999999 O
atom 0.1696340600000000 0.9273019100000000 3.7554693200000000 O
atom 0.4059753000000000 0.6930650800000000 8.9263526899999999 O
atom 4.8613950199999998 4.2167238300000003 0.8109567600000001 O
atom 4.7946073399999998 4.1760825800000001 6.0159927900000003 O
atom 4.8479116099999997 3.4474300300000000 3.4011771600000000 O
atom 4.7740685000000003 3.4297296700000000 8.6150992399999993 O
atom 2.8384984200000001 1.2488884600000001 3.0856024000000000 O
atom 2.8130490600000000 1.2476251199999999 8.2561502699999991 O
atom 2.8841067200000001 1.2772281299999999 0.3596417000000000 O
atom 2.9406288200000001 1.2608732000000000 5.6163623600000001 O
atom 2.4477550699999999 3.7394253800000001 3.0567541700000000 O
atom 2.3026025099999998 3.8287666100000002 8.2366595399999998 O
atom 2.5105597799999999 3.7502442999999999 0.3114558900000000 O
atom 2.3295735899999999 3.9225649400000000 5.6266316700000001 O
atom 5.4576030299999996 1.5995853600000001 1.7159149400000000 O
atom 5.3904762499999999 1.6162233100000001 6.9207568699999999 O
atom 5.4006927800000000 0.8589095800000000 4.3268699399999999 O
atom 5.4376372200000000 0.8410486900000000 9.5517272500000008 O
atom 9.4283076200000000 4.5408929300000000 1.4161813100000000 O
atom 9.8346433199999996 4.7053723900000000 6.7661182300000000 O
atom 10.0788296699999993 3.4790342900000000 3.9733787199999999 O
atom 9.8046243900000007 3.2463079900000000 9.2394648299999993 O
atom 7.9113797699999999 1.2222341400000001 9.9318303399999994 O
atom 7.8025959000000000 1.1343813599999999 4.6726091600000004 O
atom 7.9210459200000001 1.3288374800000000 2.1038996299999999 O
atom 7.7385681599999998 1.1322817300000001 7.4184761899999998 O
atom 7.4013572700000001 3.8135647700000002 9.9126288200000001 O
atom 7.4118304200000003 3.8153196700000001 4.6449775600000001 O
atom 7.3087850300000001 3.8405352800000001 2.1139326899999999 O
atom 7.3661064700000001 3.8308352999999999 7.3706836899999999 O
