lattice_vector 10.2300841499999997 -0.0536008100000000 0.7796539500000000 
lattice_vector -0.0451203800000000 5.2062601800000001 -0.0117329700000000 
lattice_vector 0.7260831000000000 0.0034692300000000 10.4276900099999992 
atom 1.3958573900000000 0.0871156800000000 1.5076222900000000 La
atom 1.7587779500000000 0.0889149300000000 6.7216162099999996 La
atom 6.6753372200000003 0.1516152500000000 2.0550357799999999 Hf
atom 7.0383341000000001 0.1532651800000000 7.2691983799999997 Hf
atom 1.7148156100000000 2.3874542999999999 4.1881904299999997 Hf
atom 2.0778054799999999 2.3891825199999999 9.4024136299999999 Hf
atom 6.8030527699999999 2.3362647299999999 4.6499416900000003 Hf
atom 7.1660088100000001 2.3378258600000001 9.8637542400000005 Hf
atom 3.7876245499999999 2.7296620599999999 1.3333938599999999 Hf
atom 4.1506445599999999 2.7312412799999999 6.5470486599999997 Hf
atom 8.8531647000000007 2.7421295300000001 1.7602496200000000 Hf
atom 9.2161112599999999 2.7437468400000000 6.9735532100000004 Hf
atom 3.9459733600000000 4.9494471000000004 3.9017436299999999 Hf
atom 4.3089703400000001 4.9510145300000001 9.1155553499999993 Hf
atom 8.9748150700000000 4.9521062799999997 4.4550219899999997 Hf
atom 9.3378514399999997 4.9536870899999998 9.6691214100000007 Hf
atom 0.5137346500000000 2.2050083400000000 0.9787553600000000 O
atom 0.8765460000000000 2.2067012500000001 6.1922362599999996 O
atom 5.5426057399999999 1.6797284600000000 1.2529165600000001 O
atom 5.9056031100000004 1.6813534699999999 6.4666828399999998 O
atom 0.5732213800000000 0.7697090599999999 3.7393532399999998 O
atom 0.9359945700000000 0.7717046200000000 8.9532189700000000 O
atom 5.7464315399999997 0.7958175800000000 3.8505563899999999 O
atom 6.1093903000000003 0.7974540800000000 9.0645479000000009 O
atom 4.8848332100000000 4.3028063000000003 2.0979374100000001 O
atom 5.2478386600000002 4.3044765500000004 7.3118643600000004 O
atom 9.4686374999999998 4.5403445099999997 2.4588296600000001 O
atom 9.8316337899999997 4.5417361500000002 7.6729492300000004 O
atom 5.1281241800000004 3.4370854600000000 4.7229622899999999 O
atom 5.4911788200000000 3.4389250599999999 9.9367640200000000 O
atom 10.1056247300000006 3.3596624199999998 5.0308656999999997 O
atom 10.4687513600000006 3.3616029799999998 10.2449610399999997 O
atom 3.0519303500000001 1.3005672900000000 2.7240845000000000 O
atom 3.4149522499999998 1.3020288000000000 7.9379179999999998 O
atom 8.0955779999999997 1.3665324000000001 3.1805904500000000 O
atom 8.4586627399999994 1.3683608899999999 8.3942946799999998 O
atom 3.2343406799999999 1.2644450000000000 5.2175404700000003 O
atom 3.5973192900000002 1.2660189100000001 10.4314880999999993 O
atom 8.2674391099999998 1.2068249600000001 5.7833574600000004 O
atom 8.6306025700000006 1.2088294200000000 10.9973025399999997 O
atom 2.4669396600000000 3.8279833000000001 0.1025414600000000 O
atom 2.8298768299999999 3.8298315199999999 5.3162783500000002 O
atom 7.3892619899999996 3.8854786500000000 0.6887518800000000 O
atom 7.7521056899999996 3.8874946300000000 5.9026025799999999 O
atom 2.5614073899999998 3.7279236299999998 2.8310503900000001 O
atom 2.9244137100000001 3.7292494999999999 8.0448999600000004 O
atom 7.4478073199999999 3.8367520900000001 3.3407331800000000 O
atom 7.8106239799999999 3.8385493899999998 8.5547106599999996 O
