lattice_vector 10.0781636300000006 0.0017459800000000 -0.0043353300000000 
lattice_vector 0.0180567500000000 10.2660053999999992 -0.0002245400000000 
lattice_vector 0.0183708400000000 -0.0196963000000000 10.4722882300000002 
atom 1.3373216999999999 0.1157697500000000 1.7015095800000000 La
atom 1.4225949300000000 0.1970485300000000 7.0383674200000002 Hf
atom 1.4065659600000000 5.3555014400000003 1.7906530599999999 Hf
atom 1.4117343300000000 5.3564518000000003 7.0361473300000004 Hf
atom 1.4830561600000001 2.4167743700000002 4.4733781099999996 Hf
atom 1.4266319599999999 2.3844650299999999 9.6286828100000008 Hf
atom 1.4182247600000000 7.4768587599999998 4.4227127099999999 Hf
atom 1.4473917100000000 7.4583068199999998 9.6439025399999991 Hf
atom 3.6341874600000001 2.7771783900000000 1.7866562800000001 Hf
atom 3.6843308200000000 2.7703484399999998 7.0471705199999999 Hf
atom 3.7056589799999999 7.8825493499999997 1.7971797800000000 Hf
atom 3.6703681200000000 7.9029733699999998 7.0309103200000003 Hf
atom 3.6674764099999999 4.9185893399999996 4.4016653799999998 Hf
atom 3.6721836699999999 4.8995784999999996 9.6562646799999996 Hf
atom 3.6715157199999999 10.0343023799999997 4.4259449499999999 Hf
atom 3.7178640000000001 10.0453010900000006 9.6204106100000004 Hf
atom 6.4345912900000002 0.2203479300000000 0.8249637399999999 Hf
atom 6.4327469900000001 0.2067986700000000 6.0861837300000001 Hf
atom 6.4424810700000004 5.3253738000000004 0.8089348900000000 Hf
atom 6.4631109599999998 5.3285195200000004 6.0532514500000003 Hf
atom 6.4290785399999999 2.3495063799999998 3.4389486699999998 Hf
atom 6.4764571499999999 2.3375684200000002 8.6775683200000007 Hf
atom 6.4360095499999996 7.4371592199999998 3.4511456200000001 Hf
atom 6.4628892599999999 7.4640354100000001 8.6626683799999995 Hf
atom 8.6754251399999998 2.8172584600000001 0.7986010300000000 Hf
atom 8.7005579100000006 2.7522151300000002 6.0311681000000004 Hf
atom 8.6568011699999996 7.8758912099999998 0.8114273000000000 Hf
atom 8.7141735300000001 7.9159449300000002 6.0684810499999999 Hf
atom 8.7053888100000005 4.9078758499999999 3.4271419800000000 Hf
atom 8.6996872399999994 4.9049182399999998 8.6405601700000005 Hf
atom 8.4954763900000003 9.9702217999999991 3.4686521400000001 Hf
atom 8.7313017199999994 10.0408561899999995 8.6915165699999992 Hf
atom 0.3376672400000000 1.9075967000000000 0.8525221400000000 O
atom 0.3362811200000000 1.6295308300000000 6.0301987600000002 O
atom 0.3612465000000000 6.8679528599999999 0.8795587499999999 O
atom 0.3497810000000000 6.8307195099999998 6.1138593900000000 O
atom 0.3618058100000000 0.8723590300000000 8.7354476999999999 O
atom 0.3430795400000000 6.0019846299999999 3.5119926200000000 O
atom 0.3442331200000000 5.9984506000000000 8.7033197599999994 O
atom 4.7142238599999997 4.2497086700000004 0.8718930800000000 O
atom 4.7265598700000000 4.2565692999999998 6.1115433399999999 O
atom 4.7380896000000003 9.4248700900000006 0.8897743100000000 O
atom 4.7269894299999997 9.3995305099999999 6.1288604900000001 O
atom 4.7118834300000003 3.4280623000000001 3.4966368100000000 O
atom 4.7396319900000003 3.4096362299999998 8.7366279500000008 O
atom 4.7515887299999999 8.5451724599999999 3.5142429700000002 O
atom 4.7583537199999997 8.5528912300000002 8.7057086699999999 O
atom 2.7551369700000001 1.3236424200000001 3.1986333199999999 O
atom 2.7986882999999998 1.2593188300000000 8.3008870300000002 O
atom 2.8052035499999999 6.3763480899999996 3.0887817800000001 O
atom 2.8124143699999999 6.3944563199999997 8.3249174900000007 O
atom 2.8986619000000000 1.3948041300000000 0.3613208700000000 O
atom 2.8151660600000001 1.2909841500000001 5.7464203899999999 O
atom 2.7897596299999998 6.3826651800000000 0.4812775600000000 O
atom 2.7934481400000002 6.4144102700000003 5.7073253599999996 O
atom 2.2644157400000000 3.8568081200000002 3.0847787400000000 O
atom 2.2919945600000000 3.8445655200000002 8.3119076599999993 O
atom 2.3657078399999998 8.8675782400000003 3.1609333700000000 O
atom 2.2970730800000001 8.9605617399999993 8.3021692900000001 O
atom 2.2534736199999998 3.8891968000000001 0.4675747100000000 O
atom 2.2850030200000000 3.8528474899999998 5.7049348300000000 O
atom 2.4586515200000001 8.8540549800000008 0.3551223300000000 O
atom 2.2892784800000001 8.9828408799999995 5.7219642300000002 O
atom 5.3746505300000003 1.7032890800000000 1.7455604100000000 O
atom 5.4046365300000003 1.6968689299999999 6.9814358399999996 O
atom 5.3897998400000002 6.7885692300000002 1.7504805900000000 O
atom 5.4013802699999998 6.8141645799999999 6.9680043500000002 O
atom 5.3925532000000000 0.8454678300000000 4.3623467700000003 O
atom 5.4455072099999997 0.8269793900000000 9.5659898299999995 O
atom 5.3940216500000000 5.9618712399999998 4.3618399500000002 O
atom 5.3915777800000004 5.9913971300000002 9.6006336700000006 O
atom 9.7155455300000000 4.3456256800000004 1.7002864600000001 O
atom 9.7793673600000002 4.2446008900000001 6.9200277100000003 O
atom 9.5044999200000007 9.3339191499999998 1.8501350500000000 O
atom 9.7865348999999995 9.3653198999999994 7.0233820299999996 O
atom 9.7579500100000001 3.3405116700000002 4.2742098700000000 O
atom 9.7462850000000003 3.4470474800000002 9.5337617899999998 O
atom 9.7791976300000005 8.6605272499999995 4.3971235699999998 O
atom 9.8277631200000002 8.6145508199999998 9.6700037999999999 O
atom 7.8607004299999996 1.2662108400000001 10.0096992199999999 O
atom 7.8142025300000002 1.2436171899999999 4.7794203800000004 O
atom 7.8397838399999999 6.3686174099999997 9.9763476799999999 O
atom 7.8498429900000000 6.3878810200000000 4.7623475099999997 O
atom 7.8258967699999999 1.2881830200000000 2.1705435000000000 O
atom 7.8545969299999996 1.2855295000000000 7.3845237800000003 O
atom 7.8285247000000000 6.4156494000000004 2.1418444600000002 O
atom 7.8435448699999997 6.4213847900000003 7.3645757999999999 O
atom 7.3066823500000000 3.8307733200000000 9.9757721400000001 O
atom 7.3313824299999997 3.8194386100000002 4.7581992099999999 O
atom 7.3432307699999999 8.9439740299999997 10.0024724500000008 O
atom 7.2681122299999998 8.9136245800000005 4.8018522399999997 O
atom 7.2913406800000002 3.8595198000000002 2.1460383200000002 O
atom 7.3269405599999997 3.8443873900000001 7.3627179800000002 O
atom 7.1565578099999998 8.9772825500000000 2.1756369100000001 O
atom 7.3366210299999999 8.9898573899999992 7.3947676800000002 O
