lattice_vector 10.1256160099999999 0.0311962200000000 0.0017081600000000 
lattice_vector 0.0197459300000000 10.2406557800000009 0.0542745400000000 
lattice_vector -0.0050507100000000 0.0638225400000000 10.4558752199999994 
atom 0.9423473200000000 0.3004889200000000 2.1813052000000002 Si
atom 1.4013874099999999 0.2464608100000000 6.9382604099999998 Hf
atom 1.3894981700000000 5.3611572000000001 1.8028158599999999 Hf
atom 1.4099375599999999 5.3695454700000003 7.0432388399999999 Hf
atom 1.3474620100000001 2.4640636900000001 4.4146031399999996 Hf
atom 1.4863242299999999 2.3153933300000000 9.6618694299999994 Hf
atom 1.3320679000000000 7.5679795099999998 4.3711959800000004 Hf
atom 1.4665227500000000 7.5485357000000004 9.6223024600000002 Hf
atom 3.6008427900000002 2.8014927400000000 1.7397935600000001 Hf
atom 3.6718665300000000 2.7929652900000002 7.0280694700000002 Hf
atom 3.6159290999999998 7.8676410399999996 1.7387029100000000 Hf
atom 3.7344639200000000 7.9418108600000004 6.8601031700000004 La
atom 3.6345440000000000 4.9419691099999996 4.4181840699999997 Hf
atom 3.6685744699999998 4.9367584600000001 9.6351407099999999 Hf
atom 3.7279973300000000 10.3532395600000005 3.9784451399999998 La
atom 3.6995371700000002 10.0972509099999996 9.6807587399999999 Hf
atom 6.4533369000000000 0.2263582300000000 0.8664498899999999 Hf
atom 6.7645664999999999 0.3919727900000000 6.1642482999999997 Hf
atom 6.4778275299999999 5.3521065800000001 0.8367190200000000 Hf
atom 6.5004259199999996 5.3445605799999996 6.1012505299999997 Hf
atom 6.4497654799999999 2.4218639999999998 3.4835661600000001 Hf
atom 6.4910705599999998 2.4222970099999999 8.7397537399999994 Hf
atom 6.4033653499999996 7.4594129100000002 3.4815859699999998 Hf
atom 6.5464975900000004 7.5608893999999998 8.7479075099999992 Hf
atom 8.7976518499999994 2.7394979899999998 0.8791107800000000 Hf
atom 8.7807078099999991 2.9075113099999998 6.1118716400000004 Hf
atom 8.7811507100000004 7.9403476099999999 0.9113596899999999 Hf
atom 8.7226116600000001 7.9221598400000000 6.1505413799999999 Hf
atom 8.7029848699999999 4.9860638699999997 3.4469524100000002 Hf
atom 8.7907344599999995 4.9740101499999998 8.7623284699999999 Hf
atom 8.5830025200000009 10.0353815900000001 3.5663798500000001 Hf
atom 8.8236430299999995 10.1183114300000003 8.7890523799999993 Hf
atom 0.4500557400000000 1.4575176299999999 0.9781733800000000 O
atom 0.3444500300000000 1.7804574000000000 6.1100159100000004 O
atom 0.3765468900000000 6.8643835299999996 0.9127479900000000 O
atom 0.3442770700000000 6.8843408300000002 6.1366655200000002 O
atom 0.1786954900000000 0.8624226400000000 3.5711262499999998 O
atom 0.3728618800000000 0.9158149400000000 8.7038095700000007 O
atom 0.2790858000000000 6.0423849100000000 3.4778519399999999 O
atom 0.3834635800000000 5.9913878100000000 8.7864232700000002 O
atom 4.7630907899999997 4.2231006600000001 0.8693894100000000 O
atom 4.7234689599999999 4.3228203299999999 6.1471693500000004 O
atom 4.7648120799999996 9.3995374399999996 1.0166209399999999 O
atom 4.6372100100000004 3.3295285600000000 3.5587485200000000 O
atom 4.7768106200000000 3.4906320000000002 8.7025220000000001 O
atom 4.6071531900000000 8.3391216299999993 3.6170309399999998 O
atom 4.9130636200000000 8.7737401100000003 8.7231568799999994 O
atom 2.2637886400000000 1.4441945500000000 2.7303286199999999 O
atom 2.8093890099999999 1.2709420800000000 8.2270144199999997 O
atom 2.7198923200000000 6.4954386299999998 3.0632273699999999 O
atom 2.7980998300000000 6.3711855699999997 8.3143085200000009 O
atom 3.0446094800000001 1.4588674699999999 0.2749294200000000 O
atom 2.7838552800000000 1.4296867000000000 5.6376156799999997 O
atom 2.8143215600000002 6.3494973400000001 0.4744083700000000 O
atom 2.6363075100000000 6.3553292399999997 5.5752303899999998 O
atom 2.2886995200000002 3.9365748599999999 3.1132773299999998 O
atom 2.3102561300000000 3.8179196700000002 8.3251799000000002 O
atom 1.9461802399999999 9.1511637300000004 2.7641946200000000 O
atom 2.2261025399999999 9.0334764100000005 8.3066165200000004 O
atom 2.2363864499999999 3.8760241500000001 0.4815728000000000 O
atom 2.2715935799999998 3.8787287400000001 5.7268530100000001 O
atom 2.4759045099999999 8.8450936000000002 0.3217630900000000 O
atom 2.1635067399999999 9.1307752099999995 5.5323132700000004 O
atom 5.2597546299999998 1.5489066000000000 1.9755059300000000 O
atom 5.4146862899999997 1.5900475300000001 7.0747422699999998 O
atom 5.3931959300000001 6.8202167700000000 1.7372615400000000 O
atom 5.7223258499999998 6.9670599900000001 6.9362225200000003 O
atom 5.6529527100000001 0.9348832800000000 4.5920719500000002 O
atom 5.4578614700000001 0.9883381999999999 9.6914402400000004 O
atom 5.4177657799999999 5.9085358599999998 4.3558651399999997 O
atom 5.4155586600000003 6.0639657800000002 9.5764306099999992 O
atom 9.8084444299999998 4.2423469100000002 1.8012378300000000 O
atom 9.8244885600000007 4.3261103800000003 7.0592815800000004 O
atom 9.7557342800000004 9.5270393599999998 1.8471676299999999 O
atom 9.7686933600000003 9.4868979200000005 6.9887326900000000 O
atom 9.8019113900000008 3.5734766699999998 4.4228984599999999 O
atom 9.8496404700000006 3.4396807300000001 9.6982401500000002 O
atom 9.6632876799999998 8.5543294999999997 4.3780823800000004 O
atom 9.8242379799999995 8.6144295100000008 9.6482438699999999 O
atom 7.9089659100000000 1.3367636700000001 10.0491451099999995 O
atom 8.0229208700000001 1.3318675600000001 4.8580653099999997 O
atom 7.8955400500000001 6.4671609900000000 10.0782978199999995 O
atom 7.8370961899999996 6.4317104699999996 4.8162548100000002 O
atom 7.7831336300000000 1.3247765499999999 2.2026867499999998 O
atom 7.9553613700000003 1.4511238700000000 7.4601214999999996 O
atom 7.8344185599999996 6.4405202399999997 2.1799883400000000 O
atom 8.0072887500000007 6.4742327399999997 7.4911478599999999 O
atom 7.3908685900000002 3.8825619300000001 10.0534696300000004 O
atom 7.3519140399999996 3.8569461399999998 4.7957848900000002 O
atom 7.3968243700000000 9.0350697899999997 10.1152834100000000 O
atom 7.2262308800000001 8.9929199200000003 4.9161764799999998 O
atom 7.3392203399999998 3.8681790600000001 2.1725637199999999 O
atom 7.3612801000000001 3.9361472300000000 7.4289143500000003 O
atom 7.3217616799999998 8.9729091099999998 2.2633062300000000 O
atom 7.4023136000000003 9.0905546499999996 7.5034712600000004 O
