lattice_vector 9.9778571899999999 -0.0154226000000000 0.0072239900000000 
lattice_vector 0.0165536500000000 10.1919976900000009 0.0905122400000000 
lattice_vector -0.0051414400000000 0.0461038800000000 10.4050157599999995 
atom 1.0657922700000000 0.2683903000000000 2.2212880699999999 Si
atom 1.3165549299999999 0.2407193400000000 6.9649769199999998 Hf
atom 1.4273148800000000 5.3176987599999999 1.8033462899999999 Hf
atom 1.3707998699999999 5.3172120999999999 7.0462162599999996 Hf
atom 1.3746173300000000 2.4206867200000000 4.3780842000000000 Hf
atom 1.4729613300000000 2.2680001800000000 9.6499463700000003 Hf
atom 1.3100114800000000 7.4637485500000000 4.4040926699999998 Hf
atom 1.4597215200000000 7.4902245599999997 9.6451004299999994 Hf
atom 3.6311023699999998 2.7641484500000000 1.7089868399999999 Hf
atom 3.5824722699999998 2.7764931700000002 6.9955318200000001 Hf
atom 3.5800581199999999 7.9116200699999997 1.7744891500000000 Hf
atom 3.5015048200000001 7.8995508900000004 6.9513531799999999 Hf
atom 3.5862818800000000 4.9175675400000003 4.3917986100000004 Hf
atom 3.6732715499999999 4.9434316100000002 9.5751431000000000 Hf
atom 3.5508943700000000 10.0449568899999999 4.3812527699999997 Hf
atom 3.6961288600000000 9.9953127700000000 9.6299080099999994 Hf
atom 6.4411696300000001 0.1878245800000000 0.8335584500000000 Hf
atom 6.2861054300000001 0.2144778400000000 6.0746862100000003 Hf
atom 6.4709408000000002 5.4100340200000003 0.8284713500000001 Hf
atom 6.3670137200000001 5.2571811100000003 6.1002899399999997 Hf
atom 6.3570152799999997 2.3609580600000002 3.4322521300000002 Hf
atom 6.4079840800000003 2.3604782300000000 8.6755873799999996 Hf
atom 6.3190845099999997 7.4377054899999999 3.5134133500000000 Hf
atom 6.0634394599999997 7.4102947800000001 8.2564803500000004 Si
atom 8.6631948100000002 2.7274595200000000 0.9067595899999999 Hf
atom 8.5704917500000004 2.7536455000000002 6.0897720700000004 Hf
atom 8.6857035000000007 7.8675158900000000 0.9424526100000000 Hf
atom 8.5348026000000008 7.8186292200000000 6.1907515599999998 Hf
atom 8.5769966899999996 4.8946137600000004 3.4858151899999998 Hf
atom 8.6200831699999991 4.9069870399999997 8.7726466399999996 Hf
atom 8.4954749599999992 9.9637765500000004 3.6206910899999998 Hf
atom 8.5689975399999998 9.9521468599999992 8.7977327600000006 Hf
atom 0.5994297300000000 1.5081829000000000 1.0922288099999999 O
atom 0.3335464000000000 1.7667968000000001 6.1223443900000003 O
atom 0.4822834400000000 6.8929496200000004 1.0215369200000000 O
atom 0.3159787800000000 6.8359583400000004 6.1782228899999998 O
atom 0.2945081300000000 0.8137344700000000 3.6173059200000002 O
atom 0.3370933400000000 0.8444433800000000 8.7156180600000006 O
atom 0.3398799800000000 5.9227935599999997 3.5636521900000000 O
atom 0.3955671600000000 5.9419467600000004 8.7750170099999991 O
atom 4.7348214000000004 4.3024143500000003 0.8244781799999999 O
atom 4.6038246500000000 4.3021247499999999 6.1216610899999999 O
atom 4.7342371800000000 9.3560984099999995 0.9526547400000001 O
atom 4.5521479200000003 9.4147136000000007 6.1395816700000001 O
atom 4.6252911900000004 3.3896757100000001 3.5001631600000001 O
atom 4.6987891900000003 3.4489584199999999 8.6816514599999994 O
atom 4.5499604400000004 8.4953900299999994 3.5592796899999999 O
atom 4.7498972400000001 8.4338484499999993 8.6513544000000007 O
atom 2.5413450200000001 1.2483615500000000 2.8881726300000001 O
atom 2.7432501500000002 1.2468636300000000 8.1877125999999993 O
atom 2.7364008300000000 6.4403438800000004 3.0986206400000000 O
atom 2.8077812899999999 6.3823673799999998 8.2750583399999993 O
atom 3.0861008100000000 1.4312285899999999 0.2501586700000000 O
atom 2.7411437799999998 1.3377949800000000 5.5898674300000000 O
atom 2.8545136900000001 6.3617392300000004 0.4830880100000000 O
atom 2.7131584800000002 6.4183258299999997 5.6745060100000000 O
atom 2.2528919300000001 3.8443290000000001 3.0844343699999999 O
atom 2.2641064900000001 3.8189582799999999 8.3114307099999998 O
atom 2.0652955300000002 9.0864846600000000 2.9820962299999998 O
atom 2.2649519100000002 8.9216192099999994 8.2573679299999991 O
atom 2.2678346800000000 3.8745871200000002 0.4635356900000000 O
atom 2.1986667000000000 3.8663026899999999 5.6828866500000004 O
atom 2.3781352400000002 8.9004265199999999 0.3985200000000000 O
atom 2.1512461500000000 8.9853709899999998 5.6448009499999996 O
atom 5.3816553300000001 1.7396220600000001 1.7017362700000001 O
atom 5.3206596599999996 1.7590273100000000 6.9129108199999996 O
atom 5.3393256400000002 6.8369710599999998 1.7613724900000001 O
atom 5.2917198799999996 6.8675775699999999 6.8595765300000000 O
atom 5.2969125400000001 0.8452005400000000 4.2985577099999999 O
atom 5.4575988999999998 0.7876491500000000 9.4554371199999991 O
atom 5.3305691800000004 5.9143724999999998 4.3544986400000001 O
atom 5.5914948799999999 6.1724130900000000 9.3848661100000008 O
atom 9.6928048300000000 4.2185505599999997 1.8019278700000001 O
atom 9.6140481799999993 4.2781711900000001 6.9836472100000000 O
atom 9.7444623999999997 9.4253278700000003 1.9230326600000001 O
atom 9.5387642300000000 9.3647537300000003 7.0145194799999997 O
atom 9.5927660299999999 3.3663054899999998 4.3617135800000000 O
atom 9.7183009699999996 3.3656115899999999 9.6591513500000001 O
atom 9.5409577199999998 8.4460217899999996 4.4344241699999998 O
atom 9.7176913999999996 8.5040873900000005 9.6215751699999998 O
atom 7.8307406400000001 1.3120484900000000 9.9980498299999994 O
atom 7.6943640200000001 1.2556942400000000 4.8063765800000002 O
atom 8.0774409200000008 6.2420266900000003 10.2307706300000003 O
atom 7.7384219500000002 6.3360900100000004 4.8909280600000002 O
atom 7.7919150000000004 1.2912515200000001 2.2057739800000000 O
atom 7.7148355100000003 1.2338345500000001 7.3820844900000004 O
atom 7.7433478600000001 6.4265228399999996 2.2928702500000000 O
atom 7.5352850599999996 6.4262902899999998 7.5923091600000001 O
atom 7.2520054800000002 3.8007677400000000 10.0156999300000003 O
atom 7.1879275700000003 3.8090858700000001 4.7962438299999999 O
atom 7.3628339000000000 8.9670169899999994 10.1721430099999992 O
atom 7.1400699200000002 8.8822628600000009 4.9251296800000004 O
atom 7.2563267400000004 3.8565132499999999 2.1679803400000002 O
atom 7.2393677800000003 3.8312718200000000 7.3951996199999996 O
atom 7.2571854299999998 8.9457632399999998 2.3125250099999999 O
atom 7.0510671299999998 8.7818633100000003 7.5871813100000001 O
