lattice_vector 10.2706290700000000 0.2008553500000000 -0.0305336300000000 
lattice_vector 0.2442604300000000 10.0105404500000006 0.0185566300000000 
lattice_vector -0.0720585000000000 -0.0390254100000000 10.0731806099999996 
atom 1.3629780499999999 0.1240329900000000 1.0811700300000000 Si
atom 1.0466492999999999 0.0234801700000000 6.3073801400000002 Hf
atom 1.4890351600000000 5.1666710599999996 1.3043298000000001 Hf
atom 1.3236500000000000 5.0007819299999996 6.4036456299999998 Hf
atom 6.4384534400000000 0.1332591800000000 1.2644224100000001 Hf
atom 6.2151431600000002 0.0304059400000000 6.2810143199999997 Hf
atom 6.5562789700000002 5.1525419499999998 1.1108651100000000 Hf
atom 6.4541212100000003 5.0365517400000002 6.0731953000000001 Hf
atom 1.2393010000000000 2.3461890400000001 3.7126893600000002 Hf
atom 1.2026500400000000 2.5370538800000002 8.8900071300000008 Hf
atom 1.5162327200000001 7.7043571100000001 3.7923587200000002 La
atom 1.5085970000000000 7.6185149200000000 8.7855341899999999 Hf
atom 6.5785376800000002 2.6915529399999998 3.6403282899999998 Hf
atom 6.6199570799999998 2.7513017199999998 8.6909896000000000 Hf
atom 6.4521459700000001 7.5069546899999997 3.7346551699999999 Hf
atom 6.5127965000000003 7.5537722599999997 8.7022539699999992 Hf
atom 3.9657025300000002 2.6201892600000001 1.3841048400000000 Hf
atom 3.9261233400000002 2.5534748299999999 6.5206259299999996 Hf
atom 4.0861769800000003 7.5952471299999997 1.1649967400000001 Hf
atom 4.0538235199999999 7.4231048299999998 6.2841202799999998 Hf
atom 9.0405111500000004 2.6770914600000002 1.2391405600000001 Hf
atom 9.0500212799999993 2.7681686100000000 6.3250311300000002 Hf
atom 9.0682738700000005 7.6523890600000000 1.4843892599999999 Hf
atom 9.0988309899999997 7.7066572999999998 6.3964719299999997 Hf
atom 3.8724781400000001 0.1008285100000000 3.7471640000000002 Hf
atom 3.9229125699999998 0.1173134200000000 8.8882634800000009 Hf
atom 3.7412628699999999 4.8150429299999997 3.9032206700000001 Hf
atom 3.8428661200000001 4.9418519700000001 8.9253139499999996 Hf
atom 8.7091187600000008 0.0489119900000000 3.9407033100000000 Hf
atom 8.8679314700000003 0.1802578900000000 8.9337362999999996 Hf
atom 9.1918551799999992 5.1991637400000004 3.8826982900000000 Hf
atom 9.2022358799999999 5.3809556199999999 8.9622976199999993 Hf
atom -0.3563364300000000 1.6235923100000000 -0.3559578500000000 O
atom -0.3622829700000000 1.3435405499999999 4.8279201199999999 O
atom 0.0283739700000000 6.6090890599999996 0.0447126600000000 O
atom -0.0947390500000000 6.2366418100000001 5.1997428000000001 O
atom 4.8490833200000001 1.2226018500000000 0.2741081600000000 O
atom 4.6101217999999999 1.0877265700000001 5.3405596500000003 O
atom 5.1279196000000002 6.3434997199999996 -0.2421154700000000 O
atom 5.0670594600000003 6.1862595200000001 4.7802575699999998 O
atom 0.5011126400000000 1.1797030300000000 2.0377154200000001 O
atom 0.2811124600000000 1.4814853699999999 7.3568246000000004 O
atom 0.2394875900000000 6.1031900600000002 2.5586256299999999 O
atom 0.3909220200000000 6.2699207899999996 7.6573450799999998 O
atom 5.4457363000000001 1.2951352500000000 2.7172208599999998 O
atom 5.3800565200000001 1.3654125699999999 7.7498405100000003 O
atom 5.5823041299999998 6.5041656200000002 2.2007567099999998 O
atom 5.5979625999999998 6.4356347100000004 7.2672980999999996 O
atom -0.2424857500000000 3.4902779800000001 2.7416440099999999 O
atom -0.1796707600000000 3.8317045200000002 7.6831611899999999 O
atom -0.2237687500000000 8.7432642299999994 2.6747034900000002 O
atom -0.0542979200000000 8.7745284199999993 7.7509195499999999 O
atom 5.0221566299999996 3.9045002000000002 2.5487697400000000 O
atom 5.0316659899999996 3.9113293599999999 7.5743236999999999 O
atom 5.0458540899999997 8.8395246200000006 2.4969321700000000 O
atom 5.0309938100000000 8.8404304400000004 7.5466299799999996 O
atom 0.3508303300000000 3.9652731999999999 0.1327651000000000 O
atom 0.2895218600000000 3.7493491200000002 5.1641740399999998 O
atom 0.7346144100000001 9.2071811900000000 0.0425188200000000 O
atom 0.0518937400000000 8.8446281700000000 5.2708474499999998 O
atom 5.4537788500000000 3.7961059800000001 0.0116741300000000 O
atom 5.3173665100000003 3.6542366099999999 5.0613746300000004 O
atom 5.7153021900000001 8.8420058000000008 0.0253324800000000 O
atom 5.3729705000000001 8.7201627800000008 5.0657281999999997 O
atom 2.9659323600000000 1.5951820100000000 2.7420711999999998 O
atom 2.7490375999999999 1.1801151400000001 7.5739592199999999 O
atom 3.0457544799999998 6.3117166500000002 2.4923912499999998 O
atom 2.9834579899999998 6.2569452600000002 7.6665846300000000 O
atom 8.0411557600000005 1.3916366000000000 2.5170889800000000 O
atom 7.9953815500000003 1.4842050000000000 7.5687644599999997 O
atom 8.0073970699999997 6.3454894900000003 2.6318007300000001 O
atom 8.0969808299999997 6.5057743500000003 7.6977629700000003 O
atom 2.2720521200000001 1.1274883700000000 0.0866616700000000 O
atom 2.0215371100000001 0.4270682600000000 4.6417498500000001 O
atom 2.5482633600000000 6.2778201500000002 0.0295070500000000 O
atom 2.5963844900000002 6.0305541800000002 5.1838623100000003 O
atom 7.4291581899999999 1.4890133800000001 0.0368248400000000 O
atom 7.2573958200000002 1.3174674399999999 5.0277891400000003 O
atom 7.7034678500000000 6.5157350300000001 0.0805951400000000 O
atom 7.6424535000000002 6.3646265599999996 5.1009400200000004 O
atom 2.8590601699999998 3.6988457600000002 0.0505866800000000 O
atom 2.7650629499999999 3.3234313700000002 5.0234992299999996 O
atom 3.2437380800000000 8.5762093799999999 -0.5175223600000000 O
atom 8.0663224400000004 4.0031323700000003 -0.1775001500000000 O
atom 7.9412485500000001 3.8520226499999999 4.8482687400000000 O
atom 8.3064608700000004 9.0861626399999995 0.2570749900000000 O
atom 7.8607410000000000 8.8358899999999991 5.1988473300000004 O
atom 2.3204536199999999 3.8997506000000000 2.6228834499999998 O
atom 2.4313750199999999 3.7402031500000001 7.6186614199999996 O
atom 2.5465297800000002 9.0938583600000005 1.9928979899999999 O
atom 2.3871821600000001 8.5008271900000008 6.9347416199999996 O
atom 7.5340587200000000 3.8241573799999999 2.2720316199999999 O
atom 7.5641260399999997 3.9227848299999999 7.3362332400000003 O
atom 7.5551522499999999 8.8841585199999997 2.6753948699999999 O
atom 7.6104254800000000 9.0088306899999999 7.7350030500000004 O
