lattice_vector 10.0630740500000009 0.0193912400000000 0.0427721500000000 
lattice_vector 0.0139893700000000 10.3898101500000006 -0.0072018400000000 
lattice_vector -0.0310358700000000 -0.0351464800000000 10.0692234299999992 
atom 0.9859831400000000 -0.1315962200000000 0.8381961700000000 Hf
atom 1.2928449500000001 0.1401113400000000 6.3111827800000002 Hf
atom 1.4122545099999999 5.4013467700000000 1.2836811500000000 Hf
atom 1.3257739600000000 5.3323216899999997 6.2867106599999998 Hf
atom 6.4542063100000000 0.1878193800000000 1.3389991500000000 Hf
atom 6.3254424800000004 0.1652425600000000 6.3084139099999996 Hf
atom 6.4046149999999997 5.3920755800000002 1.2911222800000000 Hf
atom 6.3312596900000004 5.3670264999999997 6.3513151700000003 Hf
atom 1.1909331200000000 2.5046010200000000 3.6798498899999998 La
atom 1.3140224800000000 2.4172058900000000 8.7777917900000002 Hf
atom 1.3364627099999999 7.6456484500000004 3.7800175800000000 Hf
atom 1.3518781799999999 7.5404394000000003 8.8262501400000009 Hf
atom 6.4410356899999996 2.4536585400000002 3.8429181300000002 Hf
atom 6.3697581500000000 2.4020779000000001 8.8395023599999991 Hf
atom 6.3967919499999999 7.6025772299999996 3.8248090800000001 Hf
atom 6.3477202000000004 7.5807822600000003 8.8657816000000000 Hf
atom 3.7647987100000000 2.6287965199999999 1.2421639600000001 La
atom 3.6711635299999998 2.7398717299999999 6.2498011900000003 Hf
atom 3.7098525400000000 8.0337481299999993 1.2915857900000001 Hf
atom 3.6338192700000000 7.9139851600000002 6.3509179400000004 Hf
atom 8.7552835400000006 2.7714906400000001 1.2665036000000001 Hf
atom 8.6672026500000001 2.7893441200000000 6.3968629999999997 Hf
atom 8.6887481700000002 7.9602441500000003 1.3600846499999999 Hf
atom 8.7042445599999994 7.9165622899999999 6.3334823199999999 Hf
atom 3.7067384500000000 5.0709671600000004 3.7935795500000000 Hf
atom 3.6629807500000000 4.9941426000000000 8.7939978900000000 Hf
atom 3.7611332599999998 10.0732384800000005 3.8961042699999999 Hf
atom 3.6797028599999999 10.1969689999999993 8.7992261400000000 Hf
atom 8.6845787500000000 5.0403455800000003 3.8503472500000000 Hf
atom 8.6981993499999994 5.0245465400000002 8.8578898899999992 Hf
atom 8.6880295299999997 10.1937617300000003 3.8954373699999998 Hf
atom 8.5946224800000000 10.1718408799999995 8.7712360100000009 Hf
atom 0.4835994300000000 1.7294077800000001 1.5668355800000000 O
atom 0.3533332700000000 1.9257392600000001 6.9114767099999996 O
atom 0.3500247800000000 7.0742539500000001 1.9864648899999999 O
atom 0.3193024800000000 7.0699295299999996 7.0532860199999998 O
atom 5.6966082099999999 1.9179074500000000 2.0356280899999999 O
atom 5.3723981199999997 1.8940186699999999 7.0177327800000002 O
atom 5.4329345199999999 7.2109315299999999 1.9716936800000000 O
atom 5.3322203400000001 7.0887090500000003 7.0804612300000001 O
atom 0.2671213300000000 0.5470496500000001 4.5948148199999999 O
atom 0.2411138900000000 0.6534985400000000 9.1906509799999991 O
atom 0.3711679400000000 5.8604347199999998 4.4794337799999999 O
atom 0.2991540500000000 5.9067443600000002 9.5511502099999994 O
atom 5.4415858300000002 0.6603629500000000 4.4773698000000000 O
atom 5.2965275500000004 0.7366731900000000 9.6363897000000005 O
atom 5.3844331099999998 5.9399282400000004 4.5485276700000004 O
atom 5.3782893899999999 5.8666887799999996 9.5516683300000000 O
atom 4.8194108800000004 4.6193079499999996 2.0833928799999999 O
atom 4.6330087100000004 4.4951979599999996 6.9566499500000001 O
atom 4.6230903899999998 9.8640291199999997 2.0033761200000000 O
atom 4.6425514400000001 9.6869420200000000 6.9807004600000004 O
atom 9.8303096599999993 4.3846601600000001 2.0948754400000000 O
atom 9.6873620099999993 4.5234974000000001 7.0772990199999999 O
atom 9.6457044500000002 9.6446099899999993 2.1134788699999998 O
atom 9.6674579000000005 9.6398918899999995 7.0329473299999998 O
atom 4.6696333100000000 3.2576692399999998 4.4262164700000000 O
atom 4.6940711400000001 3.3314115599999998 9.3684169399999995 O
atom 4.6824549800000002 8.4508883000000008 4.5511391600000000 O
atom 4.7057292500000001 8.5129587000000004 9.5582831099999996 O
atom 9.5145245700000007 3.3721140200000002 4.6611976100000003 O
atom 9.6486117700000005 3.2697941400000001 9.4964283700000003 O
atom 9.6567456000000007 8.4084346399999994 4.5287794200000002 O
atom 9.8761367399999997 8.6630621399999992 9.7975680599999997 O
atom 2.7041319800000001 1.2106317200000001 7.4965273600000000 O
atom 2.7664916300000000 6.5717359699999998 2.5303547000000002 O
atom 2.6728982499999998 6.3828373799999998 7.5532479700000001 O
atom 7.9452698000000002 1.2412895300000000 2.5833798600000000 O
atom 7.6869611500000001 1.1975316199999999 7.5916199600000001 O
atom 7.7544940000000002 6.4408347800000003 2.5540194500000002 O
atom 7.7136232600000003 6.4017689200000003 7.5827511000000003 O
atom 2.8245292900000001 1.2516566700000000 4.9184863900000000 O
atom 2.5171725800000000 1.1358004900000001 10.0036200500000003 O
atom 2.6835901099999999 6.5977624199999996 5.0433698900000001 O
atom 2.7327943000000001 6.5327679400000003 10.0799911800000004 O
atom 7.7269085000000004 1.3738215700000000 5.1211557399999998 O
atom 7.7254352900000001 1.3125731800000000 10.1000947399999994 O
atom 7.7410795700000001 6.5471333899999999 5.0685872800000000 O
atom 7.7649159100000000 6.5754530000000004 10.0873625300000000 O
atom 2.4222982700000002 4.0503211099999996 5.0873182699999999 O
atom 2.2247663200000001 3.9810241400000002 9.9705985199999994 O
atom 2.2917753900000002 9.1056518799999999 5.0620924100000000 O
atom 2.3692035900000001 9.0278688000000002 10.0080484700000003 O
atom 7.2554154100000003 4.0005237999999999 5.1015069999999998 O
atom 7.3442210899999996 3.9405391500000002 10.1291323799999997 O
atom 7.3108712599999999 9.1237396600000000 5.0864899899999996 O
atom 7.3625925600000004 9.1132685000000002 10.1001377500000000 O
atom 2.3934669999999998 4.0756500800000000 2.4882102700000002 O
atom 2.2986927499999998 3.7760822500000000 7.5166576799999998 O
atom 2.2978386799999999 9.1893469999999997 2.5076985800000000 O
atom 2.2904910799999998 8.9780457899999995 7.5608962399999999 O
atom 7.4376362800000004 3.8462824800000002 2.5718289500000000 O
atom 7.3054883400000001 3.8254805200000002 7.6178778500000002 O
atom 7.3014407099999996 9.0392143699999998 2.5668405700000001 O
atom 7.3078743800000003 8.9738043500000000 7.5743393499999998 O
