lattice_vector 10.0355680300000003 0.0122414200000000 -0.1262433800000000 
lattice_vector 0.0325357200000000 10.2225332499999997 0.0290712700000000 
lattice_vector -0.0611547600000000 0.0228688900000000 10.4527696100000007 
atom 1.0875682700000000 0.1612319000000000 2.1817478700000001 Si
atom 1.3312421000000001 0.2287597000000000 6.9388681700000001 Hf
atom 1.4927309200000001 5.3995489299999999 1.7766299200000000 Hf
atom 1.3638631000000001 5.3382777800000003 7.0254212200000001 Hf
atom 1.3603906100000001 2.4053241200000000 4.3566750100000000 Hf
atom 1.4884866600000000 2.2793087999999999 9.5893747400000002 Hf
atom 1.3236680700000001 7.4577946300000004 4.3944151099999997 Hf
atom 1.3943745800000000 7.5090924399999999 9.6058369300000006 Hf
atom 3.5845007099999999 2.7454494899999999 1.7124516999999999 Hf
atom 3.6057043700000002 2.7913386899999999 6.9659693899999997 Hf
atom 3.6092056000000001 7.9611906699999997 1.6885969400000000 Hf
atom 3.6042367000000000 7.9043706100000000 6.9690676199999997 Hf
atom 3.6008224800000002 4.9250720599999998 4.3748041100000004 Hf
atom 3.6083481200000000 4.9034443999999997 9.6025923700000000 Hf
atom 3.5873354000000002 10.0641353900000006 4.3356839300000001 Hf
atom 3.6250457100000002 10.0408051599999997 9.5793626100000004 Hf
atom 6.4040869699999998 0.2331426700000000 0.7310097200000000 Hf
atom 6.3296835700000003 0.2435708400000000 6.0042878000000002 Hf
atom 6.4484792100000004 5.3153458000000002 0.7580352600000000 Hf
atom 6.3736541500000001 5.3458429000000001 6.0352234100000004 Hf
atom 6.3498068900000000 2.3748710900000001 3.3852357000000000 Hf
atom 6.4115693800000004 2.3852183700000000 8.6328360699999998 Hf
atom 6.3365003399999997 7.4680230500000002 3.3531372600000000 Hf
atom 6.3968574299999998 7.4750944099999996 8.6257936399999995 Hf
atom 8.9282293999999993 2.6673794399999999 0.9545833000000000 La
atom 8.5927948399999998 2.7805199599999999 5.9682047200000001 Hf
atom 8.7007856799999992 7.9078674800000002 0.7537811700000000 Hf
atom 8.6009415899999997 7.9020021099999997 6.0094591199999998 Hf
atom 8.5565523399999996 5.0092839500000004 3.4623395499999998 Hf
atom 8.6601185800000007 4.8881245199999999 8.6189876400000003 Hf
atom 8.5271081599999992 9.9858661800000004 3.4304970300000002 Hf
atom 8.6412582199999992 10.0506636100000009 8.6038614800000008 Hf
atom 0.8355737100000000 1.2885786600000000 0.9685274200000000 O
atom 0.2927976400000000 1.7217748900000001 6.0342600800000001 O
atom 0.3532325600000000 6.7637786100000001 0.8617640600000001 O
atom 0.2887042400000000 6.7867749200000000 6.0702279700000004 O
atom 0.2419280100000000 0.8564443500000000 3.4732683899999999 O
atom 0.3100328700000000 0.8974747400000000 8.6700165600000005 O
atom 0.3081143300000000 5.9377899699999999 3.4428561800000002 O
atom 0.3134115500000000 6.0202600799999999 8.6912667399999997 O
atom 4.6894367700000004 4.2680853399999998 0.8528837400000000 O
atom 4.6319462400000004 4.3077626100000002 6.0736956299999996 O
atom 4.7513649700000000 9.3832842000000003 0.8301364200000000 O
atom 4.6282089199999996 9.4066080500000009 6.0565815599999997 O
atom 4.6055894999999998 3.3989547500000001 3.4824121200000002 O
atom 4.6717393899999999 3.4402583600000001 8.6599979800000000 O
atom 4.5975226999999999 8.5565615299999997 3.4303870399999998 O
atom 4.6731074899999996 8.5455954900000002 8.6541902299999993 O
atom 2.5768284000000001 1.2341165999999999 2.9342440700000001 O
atom 2.7322563299999998 1.2464962799999999 8.1552989000000000 O
atom 2.7449259000000001 6.4795081799999998 3.0583729599999998 O
atom 2.7617509999999998 6.3909561600000000 8.2814946599999999 O
atom 3.1697317200000001 1.5228782900000000 0.1542501200000000 O
atom 2.7303689300000000 1.3274511700000000 5.5872528399999997 O
atom 2.8139124600000001 6.4083862600000003 0.4417598600000000 O
atom 2.7220977099999999 6.4190320900000000 5.6670000900000002 O
atom 2.1964607599999999 3.8675266700000002 3.0569169700000001 O
atom 2.2481796900000002 3.8167022099999999 8.2819179900000002 O
atom 2.0770098099999998 9.0878271300000009 2.9185691100000000 O
atom 2.2143954899999998 8.9369686099999992 8.2164545199999992 O
atom 2.1914373500000002 3.8857161300000000 0.4736749900000000 O
atom 2.1961455600000002 3.8646786500000001 5.6574856699999998 O
atom 2.3670963000000000 8.9458225599999999 0.3361664000000000 O
atom 2.2055798000000002 8.9821254899999996 5.5926335600000003 O
atom 5.3489965799999997 1.7451637900000001 1.6678764600000000 O
atom 5.3346098000000000 1.7549917900000001 6.8852747399999998 O
atom 5.3392061100000001 6.8360211199999998 1.6604505100000000 O
atom 5.3345446799999996 6.8448277400000004 6.9087942199999999 O
atom 5.2830846700000000 0.8790225000000000 4.2826869099999998 O
atom 5.3837492500000002 0.8378408899999999 9.4413959300000005 O
atom 5.3191123500000002 5.9827175300000004 4.2951461100000001 O
atom 5.3226560300000001 5.9922523400000003 9.5195111800000003 O
atom 9.6739931699999993 4.2640501400000002 6.8361112100000003 O
atom 9.7828766799999993 9.4073197200000003 1.7317219100000001 O
atom 9.6753592400000006 9.3841942300000003 6.8613082900000002 O
atom 9.6099084399999999 3.3925762300000000 4.0913121400000003 O
atom 9.8324265600000000 3.4773535000000000 9.4905798600000004 O
atom 9.6368666899999997 8.5195558400000007 4.2729147300000001 O
atom 9.6970976199999992 8.5850286300000000 9.5147684300000002 O
atom 7.7793117799999996 1.2371828499999999 9.9124398399999993 O
atom 7.7272213399999998 1.2684637200000000 4.7146101700000003 O
atom 7.7892574500000000 6.4085788199999998 9.9385466999999998 O
atom 7.7235137399999996 6.4206788399999999 4.7170591999999996 O
atom 7.6355707300000004 1.1893412800000001 2.1791556100000000 O
atom 7.7659454700000001 1.3361159800000000 7.2943986499999998 O
atom 7.7970320900000001 6.4348246800000002 2.0884941600000002 O
atom 7.7753431300000004 6.4244023300000004 7.3246015000000000 O
atom 7.2421347599999999 3.8754361700000000 9.9124186400000003 O
atom 7.2167174300000001 3.8484229999999999 4.7541334900000001 O
atom 7.2561264699999999 8.9405406700000007 9.9454794000000000 O
atom 7.1893748700000000 8.9385895699999995 4.7232673299999997 O
atom 7.2771977400000001 3.9382077999999998 2.1940835200000000 O
atom 7.2540865300000004 3.8753635000000002 7.3250194700000000 O
atom 7.3060027800000000 8.9288356300000000 2.0907474700000002 O
atom 7.2441934899999998 8.9936219899999994 7.3327556800000000 O
