lattice_vector 10.0908499999999997 0.0181240000000000 0.7934850000000000 
lattice_vector 0.0301330000000000 10.2593160000000001 -0.0075070000000000 
lattice_vector 0.8535340000000000 -0.0173200000000000 10.4273000000000007 
atom 1.3510590000000000 0.0779960000000000 1.8362430000000001 Si
atom 1.9208529999999999 0.1897470000000000 6.8056630000000000 Hf
atom 1.5842020000000001 5.3585900000000004 1.6400250000000001 Hf
atom 1.9889269999999999 5.3390440000000003 6.8507490000000004 Hf
atom 6.5672569999999997 0.2369060000000000 2.0146609999999998 Hf
atom 6.9994969999999999 0.2193160000000000 7.2433030000000000 Hf
atom 6.4892779999999997 5.2256390000000001 1.9379010000000001 La
atom 7.0203639999999998 5.3445929999999997 7.2531140000000001 Hf
atom 1.6884729999999999 2.2828400000000002 4.1702990000000000 Hf
atom 2.2454290000000001 2.2833690000000000 9.4106140000000007 Hf
atom 1.7267340000000000 7.4859049999999998 4.2446729999999997 Hf
atom 2.1739869999999999 7.4802090000000003 9.4489000000000001 Hf
atom 6.8042360000000004 2.3308019999999998 4.6288689999999999 Hf
atom 7.2599609999999997 2.3533260000000000 9.8547039999999999 Hf
atom 6.7944350000000000 7.4581840000000001 4.6341900000000003 Hf
atom 7.1899790000000001 7.5251250000000001 9.8535540000000008 Hf
atom 3.6612260000000001 2.7069480000000001 1.3488540000000000 Hf
atom 4.1725680000000001 2.7864659999999999 6.5523990000000003 Hf
atom 3.6757160000000000 8.0266120000000001 1.3595480000000000 Hf
atom 4.1859640000000002 7.9253900000000002 6.5999639999999999 Hf
atom 8.9632550000000002 2.6794479999999998 1.7980440000000000 Hf
atom 9.2099810000000009 2.7875770000000002 6.9838469999999999 Hf
atom 8.8057580000000009 7.9127010000000002 1.7732889999999999 Hf
atom 9.2004520000000003 7.8853429999999998 6.9961120000000001 Hf
atom 3.8847010000000002 4.9204220000000003 4.0319440000000002 Hf
atom 4.4000539999999999 4.9193819999999997 9.2137630000000001 Hf
atom 3.9535749999999998 10.0395649999999996 3.9367640000000002 Hf
atom 4.3963780000000003 10.1120900000000002 9.1741539999999997 Hf
atom 9.0162530000000007 4.9194079999999998 4.3720759999999999 Hf
atom 9.4928200000000000 4.8894219999999997 9.6013289999999998 Hf
atom 8.9736840000000004 10.0090819999999994 4.3760130000000004 Hf
atom 9.4559770000000007 10.0362880000000008 9.5841829999999995 Hf
atom 0.6400740000000000 1.4511419999999999 0.8923440000000000 O
atom 0.8155000000000000 1.6449929999999999 5.9896589999999996 O
atom 0.4552670000000000 6.8460080000000003 0.8544420000000000 O
atom 0.8464360000000000 6.8142630000000004 6.0713330000000001 O
atom 5.5200339999999999 1.8286000000000000 1.3022270000000000 O
atom 5.9118649999999997 1.7404280000000001 6.4650400000000001 O
atom 5.4496710000000004 7.1100479999999999 1.2337199999999999 O
atom 5.9297250000000004 6.8970490000000000 6.5116649999999998 O
atom 0.6246300000000000 0.7494970000000000 3.3512629999999999 O
atom 1.0566100000000000 0.8466880000000000 8.6251130000000007 O
atom 0.6785350000000000 5.9333280000000004 3.4796689999999999 O
atom 1.1192800000000001 5.9757639999999999 8.6754149999999992 O
atom 5.6640170000000003 0.8510020000000000 3.8485499999999999 O
atom 6.1687599999999998 0.8189520000000000 9.0802399999999999 O
atom 5.6293660000000001 5.9509480000000003 4.0256829999999999 O
atom 6.1369710000000000 5.9775530000000003 9.0936450000000004 O
atom 4.4604119999999998 4.3932549999999999 2.1339999999999999 O
atom 5.2773079999999997 4.2867220000000001 7.3723200000000002 O
atom 4.8163029999999996 9.4999330000000004 2.1271149999999999 O
atom 5.2714889999999999 9.4652550000000009 7.3274460000000001 O
atom 9.9708380000000005 4.2599479999999996 2.5594459999999999 O
atom 10.3694550000000003 4.2374349999999996 7.8047180000000003 O
atom 10.0052040000000009 9.4043469999999996 2.5711339999999998 O
atom 10.3326980000000006 9.3795050000000000 7.7696529999999999 O
atom 5.0587280000000003 3.4027579999999999 4.7185740000000003 O
atom 5.6087920000000002 3.5209290000000002 10.0440269999999998 O
atom 5.0444380000000004 8.5394550000000002 4.7335839999999996 O
atom 5.3723039999999997 8.5424729999999993 9.9115020000000005 O
atom 10.0940680000000000 3.3908510000000001 5.1694690000000003 O
atom 10.7028580000000009 3.4228700000000001 10.4566990000000004 O
atom 10.0772689999999994 8.5191579999999991 5.1693009999999999 O
atom 10.5644609999999997 8.5663149999999995 10.3947489999999991 O
atom 2.7854290000000002 1.1626399999999999 2.4969340000000000 O
atom 3.3929019999999999 1.2958060000000000 7.8085519999999997 O
atom 2.9850210000000001 6.5391570000000003 2.7570969999999999 O
atom 3.4534259999999999 6.4518110000000002 7.9426310000000004 O
atom 8.0601380000000002 1.2503470000000001 3.1110020000000000 O
atom 8.4935100000000006 1.3305149999999999 8.3283229999999993 O
atom 8.1281529999999993 6.5049039999999998 3.1978680000000002 O
atom 8.4886619999999997 6.4375260000000001 8.3337699999999995 O
atom 3.1956020000000001 1.2570110000000001 5.2204740000000003 O
atom 3.8936570000000001 1.4807729999999999 10.2689579999999996 O
atom 3.1949610000000002 6.3849090000000004 5.3659730000000003 O
atom 3.6482790000000000 6.4382440000000001 10.5491430000000008 O
atom 8.2611340000000002 1.2258050000000000 5.7238790000000002 O
atom 8.7179760000000002 1.1987410000000001 10.9572289999999999 O
atom 8.2561319999999991 6.3524330000000004 5.7524920000000002 O
atom 8.7662309999999994 6.4353100000000003 10.8470010000000006 O
atom 2.2964340000000001 3.9355639999999998 0.2635790000000000 O
atom 2.6818659999999999 3.8743310000000002 5.4932780000000001 O
atom 2.2230249999999998 9.4001470000000005 0.4555460000000000 O
atom 2.7081460000000002 9.0105599999999999 5.4802109999999997 O
atom 7.5713509999999999 3.7292660000000000 0.5775100000000000 O
atom 7.7459470000000001 3.8839959999999998 5.8993229999999999 O
atom 7.3371310000000003 9.0457710000000002 0.6644590000000000 O
atom 7.7331289999999999 9.0067430000000002 5.8865090000000002 O
atom 2.3899339999999998 3.7384580000000001 2.9157109999999999 O
atom 2.9640200000000001 3.7845830000000000 8.0947479999999992 O
atom 2.3435969999999999 9.0160940000000007 2.8671760000000002 O
atom 2.9280789999999999 8.9330449999999999 8.1263819999999996 O
atom 7.7061279999999996 3.6620550000000001 3.3176739999999998 O
atom 7.9814840000000000 3.8190670000000000 8.4910809999999994 O
atom 7.5529419999999998 8.9406210000000002 3.2587060000000001 O
atom 7.9659769999999996 8.9443300000000008 8.4906400000000009 O
