lattice_vector 9.9763699999999993 -0.0272500000000000 0.0607260000000000 
lattice_vector 0.0044860000000000 10.4036880000000007 -0.0799290000000000 
lattice_vector -0.0333380000000000 -0.0678020000000000 10.0182160000000007 
atom 1.1986110000000001 0.3595110000000000 1.1038289999999999 Si
atom 1.3241229999999999 0.1398610000000000 6.2937339999999997 Hf
atom 1.3214349999999999 5.3392020000000002 1.2081919999999999 Hf
atom 1.2431410000000001 5.2285899999999996 6.1851450000000003 La
atom 6.3215700000000004 0.1485990000000000 1.2969360000000001 Hf
atom 6.2517339999999999 0.0722900000000000 6.2753949999999996 Hf
atom 6.3467229999999999 5.3783680000000000 1.2701979999999999 Hf
atom 6.3082549999999999 5.3179200000000000 6.2516489999999996 Hf
atom 1.3553020000000000 2.3166199999999999 3.6846839999999998 Hf
atom 1.2976710000000000 2.4081990000000002 8.7757020000000008 Hf
atom 1.3587540000000000 7.5859490000000003 3.6994699999999998 Hf
atom 1.2866960000000001 7.6190420000000003 8.7742950000000004 Hf
atom 6.3490489999999999 2.3544320000000001 3.7908789999999999 Hf
atom 6.2756230000000004 2.3502920000000000 8.7821870000000004 Hf
atom 6.3723770000000002 7.6069849999999999 3.7506029999999999 Hf
atom 6.2649759999999999 7.5919340000000002 8.7433890000000005 Hf
atom 3.7168630000000000 2.7634680000000000 1.1655059999999999 Hf
atom 3.6697989999999998 2.6873939999999998 6.2371999999999996 Hf
atom 3.6877399999999998 7.9042750000000002 1.2235190000000000 Hf
atom 3.6197550000000001 7.9487839999999998 6.2828239999999997 Hf
atom 8.6334839999999993 2.7302540000000000 1.2519070000000001 Hf
atom 8.5738409999999998 2.6715710000000001 6.3092860000000002 Hf
atom 8.7268469999999994 7.9786359999999998 1.2007859999999999 Hf
atom 8.6151689999999999 7.9440510000000000 6.2604030000000002 Hf
atom 3.7018830000000000 4.9741260000000000 3.7160549999999999 Hf
atom 3.6210689999999999 5.0258070000000004 8.7193970000000007 Hf
atom 3.6148300000000000 10.1336259999999996 3.6716769999999999 Hf
atom 3.5330849999999998 10.1992960000000004 8.8183070000000008 Hf
atom 8.6117059999999999 4.9530070000000004 3.7462420000000001 Hf
atom 8.5460170000000009 4.9725560000000000 8.8161830000000005 Hf
atom 8.7062340000000003 10.1976209999999998 3.7135150000000001 Hf
atom 8.6001329999999996 10.1834989999999994 8.7377730000000007 Hf
atom 0.3743550000000000 1.8460080000000001 1.7990930000000001 O
atom 0.3186420000000000 1.8964179999999999 6.9965590000000004 O
atom 0.4146640000000000 7.1545870000000003 1.8014019999999999 O
atom 0.2722600000000000 7.2136849999999999 7.0045580000000003 O
atom 5.2768530000000000 1.8522220000000000 2.0377070000000002 O
atom 5.3199079999999999 1.8295630000000001 6.9818170000000004 O
atom 5.3630279999999999 7.0934540000000004 1.9785379999999999 O
atom 5.3343010000000000 7.0658770000000004 6.9287919999999996 O
atom 0.3322200000000000 0.6936099999999999 4.5172030000000003 O
atom 0.3105670000000000 0.6171280000000000 9.5867349999999991 O
atom 0.3283370000000000 5.8870480000000001 4.1295120000000001 O
atom 0.2922180000000000 5.8382610000000001 9.3991939999999996 O
atom 5.3221869999999996 0.6426809999999999 4.4863419999999996 O
atom 5.2170269999999999 0.6832190000000000 9.5813970000000008 O
atom 5.4039710000000003 5.8485659999999999 4.3995769999999998 O
atom 5.2925860000000000 5.8649820000000004 9.4932560000000006 O
atom 4.6735730000000002 4.4755580000000004 1.9205190000000001 O
atom 4.5829519999999997 4.4975660000000000 6.9065529999999997 O
atom 4.7223230000000003 9.6478520000000003 1.9379900000000001 O
atom 4.6026699999999998 9.6685330000000000 7.0060890000000002 O
atom 9.6188850000000006 4.4259690000000003 1.9544809999999999 O
atom 9.3367970000000007 4.4034240000000002 7.0550829999999998 O
atom 9.9230839999999993 9.7746990000000000 1.8654100000000000 O
atom 9.5866989999999994 9.7125839999999997 6.9495779999999998 O
atom 4.7389910000000004 3.2772679999999998 4.4924280000000003 O
atom 4.6047969999999996 3.2618980000000000 9.4463889999999999 O
atom 4.7216329999999997 8.4962420000000005 4.5218900000000000 O
atom 4.5209910000000004 8.4552999999999994 9.4203840000000003 O
atom 9.6933460000000000 3.2517410000000000 4.5356370000000004 O
atom 9.5652390000000000 3.2139940000000000 9.4883710000000008 O
atom 9.6466519999999996 8.4687409999999996 4.4464610000000002 O
atom 9.5382789999999993 8.4495810000000002 9.4223640000000000 O
atom 2.3777689999999998 0.8151480000000000 2.4158490000000001 O
atom 2.6682899999999998 1.1476080000000000 7.5328470000000003 O
atom 2.6985960000000002 6.2388349999999999 2.4251809999999998 O
atom 2.7524540000000002 6.5014789999999998 7.5527780000000000 O
atom 7.7115299999999998 1.1692579999999999 2.5020820000000001 O
atom 7.6247780000000001 1.1406099999999999 7.5274380000000001 O
atom 7.7254389999999997 6.3800220000000003 2.4913230000000000 O
atom 7.6167299999999996 6.3709080000000000 7.5357250000000002 O
atom 2.7196009999999999 1.3007150000000001 4.9515310000000001 O
atom 2.5306329999999999 1.3498730000000001 10.0838540000000005 O
atom 2.7954580000000000 6.5871579999999996 4.8937169999999997 O
atom 2.6148530000000001 6.5537720000000004 9.9947140000000001 O
atom 7.6837460000000002 1.2949949999999999 5.0086919999999999 O
atom 7.6172329999999997 1.3070999999999999 10.0184370000000005 O
atom 7.7087050000000001 6.5280769999999997 5.0112949999999996 O
atom 7.6253760000000002 6.5551269999999997 10.0296590000000005 O
atom 2.4149200000000000 3.7911100000000002 4.8478570000000003 O
atom 2.2693180000000002 3.9706579999999998 9.9593120000000006 O
atom 2.2866070000000001 9.1416869999999992 5.0232109999999999 O
atom 2.1336230000000000 9.3253070000000005 10.2102830000000004 O
atom 7.3019010000000000 3.8968240000000001 5.0274650000000003 O
atom 7.2262540000000000 3.8994689999999999 10.0422270000000005 O
atom 7.3168610000000003 9.1534669999999991 4.9484430000000001 O
atom 7.2177259999999999 9.1383259999999993 9.9590510000000005 O
atom 2.3440050000000001 3.6521930000000000 2.4058519999999999 O
atom 2.3941800000000000 3.6487170000000000 7.5494950000000003 O
atom 2.5610560000000002 8.7146740000000005 2.6125980000000002 O
atom 2.2272910000000001 9.0241609999999994 7.5607559999999996 O
atom 7.2744720000000003 3.7595360000000002 2.5090960000000000 O
atom 7.1214389999999996 3.7461679999999999 7.5314160000000001 O
atom 7.4205340000000000 8.9900459999999995 2.4446680000000001 O
atom 7.2459930000000004 8.9673459999999992 7.4715069999999999 O
