lattice_vector 10.1931051400000001 -0.0079865200000000 0.8284958800000000 
lattice_vector 0.0074546700000000 10.4678899500000000 0.0146350800000000 
lattice_vector 0.3852172800000000 -0.0039359400000000 5.2629226100000004 
atom 1.3715099200000000 0.0908855400000000 1.5778256900000001 La
atom 1.5473071700000001 5.4245482400000000 1.6538562900000000 Hf
atom 6.6712539900000003 0.1453823500000000 2.1209489100000001 Hf
atom 6.6299990900000001 5.4576833200000001 2.0702972200000000 Hf
atom 1.6645336900000001 2.4550950600000001 4.3178195700000002 Hf
atom 1.7763083600000000 7.5674894799999999 4.2860386999999998 Hf
atom 6.8630751500000002 2.4096395199999998 4.5978665699999999 Hf
atom 6.8090430000000000 7.5959637000000004 4.7206959599999996 Hf
atom 3.8424939899999999 2.7197035100000000 1.4745699699999999 La
atom 3.8143620800000000 8.0275584700000007 1.4130471200000001 Hf
atom 8.8287957899999991 2.8940307399999998 1.7869077799999999 Hf
atom 8.8675691699999994 7.9407318199999999 1.7852981100000000 Hf
atom 3.9696302600000002 5.0238611000000004 4.0312212100000000 Hf
atom 3.9645877299999999 10.1813304000000002 4.0284873000000001 Hf
atom 9.0578477500000005 5.0323546900000000 4.4164728100000001 Hf
atom 8.9946336900000006 10.1855245300000004 4.5654510300000002 Hf
atom 0.4315691000000000 2.0677961699999998 0.9205756700000000 O
atom 0.4742551700000000 7.0283005400000000 0.8931152500000000 O
atom 5.8630281599999998 1.7607534800000000 1.2141999900000000 O
atom 5.6073877500000000 7.0714305099999999 1.3380038999999999 O
atom 0.4542035300000000 0.8793492500000000 3.7243459699999999 O
atom 0.6084592700000000 6.0929517200000003 3.5005696799999999 O
atom 5.6990583900000003 0.8585838400000000 3.8745028900000000 O
atom 5.7512653699999996 6.0751131200000001 3.9716701599999999 O
atom 4.8543727900000002 4.6251090200000000 2.1570121000000002 O
atom 4.8550948099999998 9.6787470700000000 2.1467114700000001 O
atom 9.9110869099999999 4.4835077300000004 2.5481468700000001 O
atom 9.6191907400000005 9.5600686800000005 2.7007026399999998 O
atom 5.1107710600000003 3.4327063299999998 4.5919992900000004 O
atom 5.1411175199999999 8.7014684700000000 4.8377573199999997 O
atom 10.0760940399999992 3.4794468099999998 5.1700460499999998 O
atom 10.2236910000000005 8.7077543800000008 5.2866930999999999 O
atom 2.8437486500000002 1.2597724900000000 2.9602592300000001 O
atom 3.0058411299999999 6.5383006400000001 2.7656357100000002 O
atom 8.0892546400000001 1.3608023700000000 3.1756938799999999 O
atom 8.0934978199999996 6.5977135400000000 3.1784964400000000 O
atom 3.1240983899999999 1.1650744500000001 5.2833398799999998 O
atom 3.2305596900000002 6.4667439499999997 5.4127313900000003 O
atom 8.3681476299999993 1.2682711200000001 5.7960335299999999 O
atom 8.3079398599999994 6.4839073699999998 5.7949520100000003 O
atom 2.2521530699999999 4.0320457699999999 0.2267331700000000 O
atom 2.4405676800000000 9.0253776099999996 0.2049435300000000 O
atom 7.3608869400000003 4.0078056000000002 0.6568022300000000 O
atom 7.4290112700000002 9.1733528199999999 0.7676784900000000 O
atom 2.4013258099999999 3.9500204999999999 2.9835905999999999 O
atom 2.6114978500000001 8.9566540799999999 2.9508274499999998 O
atom 7.5978679400000004 3.9060582099999999 3.2899613400000001 O
atom 7.4687290600000003 9.1042304000000005 3.4400542900000000 O
