lattice_vector 10.1138745399999994 0.0172559000000000 -0.0050880400000000 
lattice_vector 0.0547909000000000 10.2541301699999998 0.0768564500000000 
lattice_vector -0.0260887100000000 0.0434657000000000 10.4487458199999992 
atom 1.0308170800000001 0.2160594700000000 2.1749421899999999 Si
atom 1.3832221800000000 0.2181534600000000 6.9948769799999999 Hf
atom 1.3847596700000000 5.3484482099999999 1.7568648300000000 Hf
atom 1.4259036899999999 5.3860386699999996 7.0570149899999999 Hf
atom 1.3324860300000001 2.3557731799999999 4.3806696499999997 Hf
atom 1.4903111700000000 2.2926259199999999 9.6951700100000000 Hf
atom 1.3890351999999999 7.5481082700000002 4.3942199899999999 Hf
atom 1.4719922400000001 7.5638380099999996 9.6357953799999994 Hf
atom 3.6465130399999999 2.7770925300000000 1.7306282099999999 Hf
atom 3.6376514800000002 2.7879827200000000 7.0157550200000003 Hf
atom 3.5895334900000000 7.9356302799999998 1.7455529100000000 Hf
atom 3.6992012200000000 7.9826626400000000 7.0077818499999998 Hf
atom 3.3301210999999999 4.8455326400000001 4.3653172199999997 Hf
atom 3.6909961000000000 4.9553086799999999 9.6151089499999998 Hf
atom 3.6248505700000000 10.1532429600000000 4.3975304800000004 Hf
atom 3.7183639899999998 10.0815494300000008 9.6888493100000002 Hf
atom 6.4654967900000004 0.2501511700000000 0.8386765100000000 Hf
atom 6.4192183500000004 0.2744070300000000 6.0880583599999998 Hf
atom 6.4941573699999999 5.3606231400000004 0.8406527200000000 Hf
atom 6.4045430300000001 5.1862649699999999 6.3844243799999996 La
atom 6.4363423299999996 2.4258018099999998 3.4517184799999998 Hf
atom 6.5059210600000004 2.3795756500000000 8.7208046100000001 Hf
atom 6.3707903799999999 7.5405189200000002 3.6071545700000001 La
atom 6.5281166300000004 7.5988392700000000 8.7431619600000001 Hf
atom 8.7733352900000003 2.7601787999999998 0.9131658200000000 Hf
atom 8.7563700299999994 2.7894187399999999 6.0921585499999997 Hf
atom 8.7945561300000001 7.9373210199999997 0.9170989600000000 Hf
atom 8.7500713700000006 7.9044905600000002 6.1680397700000000 Hf
atom 8.7196678799999994 4.9682019500000001 3.4997508499999999 Hf
atom 8.8468574499999999 4.9439602899999997 8.8091672499999998 Hf
atom 8.6544861700000002 10.0731862000000003 3.5864976300000002 Hf
atom 8.7836847799999997 10.0935807200000003 8.7531265800000000 Hf
atom 0.6209896400000000 1.4687105899999999 1.0614110999999999 O
atom 0.3118004400000000 1.6806053200000000 6.0851830800000002 O
atom 0.4135233500000000 6.8895828000000003 0.9480546700000000 O
atom 0.4343179200000000 6.8994262199999996 6.1619251700000000 O
atom 0.2634333000000000 0.8163376400000000 3.5517520800000000 O
atom 0.3556863000000000 0.8946002199999999 8.7178162399999994 O
atom 0.3848962900000000 5.9637602799999998 3.5550585699999999 O
atom 0.4627642700000000 5.9657549999999997 8.8217419199999991 O
atom 4.7780905799999998 4.1976734100000002 0.7762955100000000 O
atom 4.4319215200000004 4.2819422500000002 5.9286700699999999 O
atom 4.8247848199999996 9.3834414299999995 0.9893002600000000 O
atom 4.6745162999999996 9.5740784500000000 6.1589068999999999 O
atom 4.7191374200000000 3.6447852900000002 3.4376366100000002 O
atom 4.8452625300000003 3.5877819099999999 8.5603466099999999 O
atom 4.3106692600000001 8.4608918000000006 3.6164326600000001 O
atom 4.7509712799999999 8.5974950700000008 8.7648231699999997 O
atom 2.5788257500000000 1.2426606300000000 2.9371911399999999 O
atom 2.7903153199999999 1.2615282600000000 8.2331309299999997 O
atom 2.7452006500000001 6.4119386599999997 3.0395756299999999 O
atom 2.8657303700000001 6.4440987900000000 8.2717311400000000 O
atom 3.1102724099999999 1.4653978700000001 0.2725002700000000 O
atom 2.7593607100000002 1.3833982899999999 5.6267590800000002 O
atom 2.8130654800000001 6.3971946800000001 0.4381447400000000 O
atom 2.8500246400000000 6.4683804399999998 5.6343263500000003 O
atom 2.1887627200000002 3.7818999099999999 3.0565475100000001 O
atom 2.3364825200000001 3.8301105999999998 8.3300579399999997 O
atom 2.0268989999999998 9.1439913599999993 2.9262270300000002 O
atom 2.3102681399999998 8.9903999799999994 8.2913350500000007 O
atom 2.2811299799999998 3.8871071000000001 0.4809371700000000 O
atom 2.0577452799999998 3.8917785999999999 5.6593510900000004 O
atom 2.4119577200000002 8.9610543600000003 0.3824635700000000 O
atom 2.2648134899999999 9.0566753299999991 5.6557046399999997 O
atom 5.4052573199999996 1.7356668099999999 1.7544304399999999 O
atom 5.4408717199999996 1.8506408100000000 6.9333676000000004 O
atom 5.2693660600000003 6.7240082499999998 1.7291051099999999 O
atom 5.4991443499999999 7.1583860899999996 6.8587110400000002 O
atom 5.3567584200000002 0.8811423000000000 4.2822085799999998 O
atom 5.4617661599999998 0.8646427400000000 9.5442068599999992 O
atom 5.4705902000000002 6.0100408600000002 9.4953935699999992 O
atom 9.8080236999999997 4.2535960499999996 1.7827782100000000 O
atom 9.8399458000000006 4.3164212600000003 7.0270066499999997 O
atom 9.8588098300000002 9.5036470499999997 1.8494533000000000 O
atom 9.8280159999999999 9.4173059699999992 7.0480188000000004 O
atom 9.7534059099999997 3.4288387299999998 4.3624463200000001 O
atom 9.8727569499999994 3.4060517600000000 9.7343756100000007 O
atom 9.7550900499999997 8.5492317199999999 4.3895610300000003 O
atom 9.8143652299999999 8.5865125500000001 9.6432295900000007 O
atom 7.9059735299999998 1.3117919199999999 10.0428330900000002 O
atom 7.7950298599999996 1.3239351500000001 4.7917760800000000 O
atom 7.8888876400000001 6.4580503900000004 10.0945093000000004 O
atom 7.9576839799999997 6.3540008200000004 4.8924641299999996 O
atom 7.8469714200000000 1.3440299099999999 2.2032909100000002 O
atom 7.8314854100000000 1.2939805499999999 7.3951786300000002 O
atom 7.9116368100000001 6.4059685699999998 2.1515397100000002 O
atom 8.0123245500000007 6.5383640400000003 7.6034471999999997 O
atom 7.3989928899999997 3.8539759000000000 10.0938239900000006 O
atom 7.3532210500000001 3.7968828800000001 4.7698975399999997 O
atom 7.3797271300000000 9.0190314300000001 10.0864777199999995 O
atom 7.4318137000000002 9.0889899500000002 4.9705831900000002 O
atom 7.3510033999999997 3.8808995899999998 2.1834099100000000 O
atom 7.6082550600000003 3.7421419899999999 7.6039013500000001 O
atom 7.4288961499999999 9.0665914799999996 2.2269753200000002 O
atom 7.3679357599999999 9.0666688400000002 7.4842166399999996 O
