lattice_vector 5.0863698700000004 -0.0286824500000000 -0.2328485500000000 
lattice_vector 0.0608984600000000 10.1482673000000005 0.0336812600000000 
lattice_vector -0.2689922600000000 0.1001563500000000 10.0973446199999994 
atom 1.2722502700000000 -0.1114870000000000 1.2463962099999999 La
atom 1.1046699600000001 0.1287157400000000 6.2816306900000001 Hf
atom 1.2702893700000000 5.0788400700000000 1.3158087400000000 Hf
atom 1.0839582699999999 5.1637672300000004 6.2665119300000001 Hf
atom 1.2666084099999999 2.5633877100000002 3.7492303699999998 Hf
atom 0.9706525300000000 2.6397286400000000 8.8973113300000009 Hf
atom 1.3532905500000001 7.5282698200000002 3.8438548400000001 Hf
atom 0.9216814600000000 7.5123742299999998 8.8075152200000009 Hf
atom 3.9080764800000001 2.4520029499999998 1.1000653000000000 Hf
atom 3.6367554599999998 2.4758444800000001 6.1293188299999999 Hf
atom 3.7846478299999999 7.5572793000000003 0.8799158700000000 Hf
atom 3.6654038600000001 7.5789557600000004 6.2138913100000002 Hf
atom 3.8360286399999999 0.1463510700000000 3.6665375700000000 Hf
atom 3.4522553800000000 0.1717819100000000 8.6755420599999997 Hf
atom 3.8646320699999999 5.2820562400000002 3.5706543599999998 Hf
atom 3.5146239600000002 5.0591122999999998 8.7411533800000001 Hf
atom -0.0752828600000000 1.3922216700000001 -0.0014054400000000 O
atom -0.1026634800000000 1.5550484200000001 5.1223724099999997 O
atom -0.0397629200000000 6.3540250499999997 0.0125457900000000 O
atom -0.0363699100000000 6.6442210299999998 5.0854294600000003 O
atom 0.0396566600000000 1.3018337799999999 2.6262317899999998 O
atom -0.2372160800000000 1.0323670199999999 7.5857115400000001 O
atom 0.0583346900000000 6.4010408200000004 2.5512081200000001 O
atom -0.3153736500000000 6.0998087400000003 7.6223068999999999 O
atom -0.1919313400000000 3.8164573599999998 2.6950353100000002 O
atom -0.7264745900000000 3.4973910899999998 7.9425580699999996 O
atom 0.2749291300000000 8.5648684199999998 7.1258270799999996 O
atom -0.0216482500000000 3.9081721200000001 0.1863736900000000 O
atom -0.5058654100000000 4.1510366799999998 5.3578221800000003 O
atom -0.0442561300000000 8.8324677999999999 -0.3075244900000000 O
atom 0.5345842900000000 9.3029129299999997 4.4710159999999997 O
atom 2.6188912700000002 1.5834661699999999 2.5299504200000000 O
atom 2.2084082100000000 1.5891576800000000 7.4800331399999997 O
atom 2.6272269399999999 6.6214701700000003 2.3937515999999999 O
atom 2.3166452999999998 6.6458685900000001 7.4635510399999996 O
atom 2.5651911699999999 1.1882080800000001 -0.1507871000000000 O
atom 2.4604483600000000 1.0602034400000000 4.9395748299999997 O
atom 2.4751962100000000 6.1278663199999999 -0.0749413500000000 O
atom 2.4559330500000001 6.1129711400000000 4.9863552899999997 O
atom 2.4646564400000002 3.6322943900000002 0.2580704100000000 O
atom 2.0042204500000000 3.5113197800000000 5.4367574300000001 O
atom 2.5582981299999998 8.6752712600000006 -0.4248778000000000 O
atom 3.0235356900000001 8.5627537100000009 4.5190827000000002 O
atom 2.2765093200000002 4.1719467400000001 2.8764702099999999 O
atom 1.7999377800000000 4.2471693100000003 7.9343643999999998 O
atom 3.7421942200000000 9.2215540899999997 1.9752265899999999 O
atom 2.8145517899999999 9.2732352000000002 7.0708208399999997 O
