lattice_vector 10.1582494499999996 -0.0211429500000000 -0.1384130400000000 
lattice_vector -0.0216879700000000 5.1864658700000001 -0.0157108000000000 
lattice_vector -0.0740733700000000 -0.0249701900000000 10.4615062299999995 
atom 1.3071846300000001 0.0873808900000000 1.5484786300000000 La
atom 1.3491403500000001 0.1885565800000000 6.9782226100000004 Hf
atom 1.4217828200000000 2.3646498700000000 4.4096984099999998 Hf
atom 1.3267996000000000 2.3912902100000002 9.5188304899999991 Hf
atom 3.6856964500000000 2.7614874500000002 1.6732307099999999 Hf
atom 3.5965135799999999 2.7749999999999999 6.9608777000000002 Hf
atom 3.5424094099999999 4.9547633500000003 4.3136959099999999 Hf
atom 3.6415641299999999 4.9647168800000001 9.5208224099999992 Hf
atom 6.5569032199999997 0.1984015600000000 0.7627991100000000 Hf
atom 6.3840521299999997 0.1626873000000000 6.0173783500000004 Hf
atom 6.4135241699999996 2.3913512400000001 3.4033469699999999 Hf
atom 6.4292906500000004 2.3525799799999998 8.5774196200000006 Hf
atom 8.6774425700000002 2.7882607799999999 0.6666860000000000 Hf
atom 8.6990577099999999 2.7364577500000000 6.0198280999999998 Hf
atom 8.7919949699999993 5.0656042000000001 3.5279747100000001 La
atom 8.6768971599999993 4.9391853899999996 8.5599714200000001 Hf
atom 0.4110751200000000 2.1824859800000000 0.9597066000000000 O
atom 0.3605082000000000 1.8467223399999999 6.3215061900000000 O
atom 0.8026545400000000 0.5173993000000000 3.8816771299999999 O
atom 0.3617732500000000 0.6811185000000000 8.8718016500000001 O
atom 4.7891490200000000 4.2938136099999999 0.7771407000000000 O
atom 4.6504069100000001 4.2497157999999997 5.9989096699999997 O
atom 4.7386064399999999 3.5214084200000002 3.3770104500000002 O
atom 4.7048148400000001 3.4702753999999998 8.6040645399999995 O
atom 2.8933236899999999 1.2728645300000001 3.0315768200000002 O
atom 2.7275185400000002 1.2765566100000001 8.2333847000000002 O
atom 2.8662477300000000 1.3090957599999999 0.3023395000000000 O
atom 2.7721234400000001 1.2720042499999999 5.6774039600000004 O
atom 2.3216709700000000 3.7080836399999999 3.0265924800000001 O
atom 2.2097082399999999 3.8604024500000000 8.2026665399999992 O
atom 2.4824741800000001 3.7736042900000002 0.2341147700000000 O
atom 2.2115353700000000 3.8808023800000000 5.6526918300000002 O
atom 5.3606211000000004 1.6316199100000000 1.6994052100000001 O
atom 5.3210967299999998 1.6575368500000001 6.9342263199999996 O
atom 5.3099621099999998 0.8592857600000000 4.2990407800000003 O
atom 5.3751706500000003 0.8780899800000000 9.5396395300000005 O
atom 9.2965134999999997 4.6355258199999998 1.1949230200000001 O
atom 9.6642057799999996 4.4466997599999996 6.6663931700000001 O
atom 9.6882631999999997 2.9703048500000002 4.1167660899999996 O
atom 9.6649892400000006 3.2810569900000002 9.2168217299999995 O
atom 7.8140392600000004 1.2465660800000000 9.8857126799999993 O
atom 7.6169560599999997 1.3797362600000000 4.8426976599999998 O
atom 7.7776659500000003 1.4450523399999999 2.0498434600000000 O
atom 7.8159479100000002 1.2670650400000001 7.3355546000000000 O
atom 7.2534836100000000 3.8559872500000001 9.8605548699999996 O
atom 7.2330511099999999 3.8438487100000001 4.7737708200000002 O
atom 7.2059023800000004 3.8801567900000000 2.0449648800000002 O
atom 7.2980019900000004 3.8512065000000000 7.3050135999999997 O
