lattice_vector 10.1074630499999998 0.0048334100000000 0.7713204700000000 
lattice_vector 0.0156341800000000 10.2671731899999994 -0.0085449000000000 
lattice_vector 0.8671852000000000 -0.0306315900000000 10.4798296299999993 
atom 1.3487712300000001 -0.0193757500000000 2.2608227900000002 Si
atom 1.9691151700000000 0.1936619300000000 6.8340821099999998 Hf
atom 1.5552583499999999 5.3059177999999996 1.6135333199999999 Hf
atom 1.9891391700000001 5.3429143799999999 6.8712418900000003 Hf
atom 6.6159420000000004 0.1764752800000000 2.0187324300000000 Hf
atom 6.9846350399999997 0.2036606700000000 7.3004981000000004 Hf
atom 6.5455934899999999 5.4181778899999999 2.0163572300000001 Hf
atom 7.0359324900000004 5.3475968800000002 7.2634088800000001 Hf
atom 1.7233425600000001 2.3676251900000000 4.2817070499999996 Hf
atom 2.2383297000000000 2.3818267799999999 9.3207813799999997 Hf
atom 1.7025789499999999 7.4287276400000000 4.2577032800000003 Hf
atom 2.2487442799999999 7.4762774199999997 9.5055877500000001 Hf
atom 6.7928587599999997 2.3470253500000000 4.6398596999999997 Hf
atom 7.2849999900000002 2.3283371399999999 9.8268577700000002 Hf
atom 6.8210392400000002 7.4600650599999998 4.6535072199999998 Hf
atom 7.2638738500000004 7.4846420000000000 9.8815772600000003 Hf
atom 3.7351890299999999 2.5857089900000001 1.3814644000000000 La
atom 4.2040748700000004 2.7885152700000000 6.5593422900000000 Hf
atom 3.7250791500000000 7.9543488800000004 1.3121114800000000 Hf
atom 4.1928481499999997 7.9018043699999998 6.5911870900000000 Hf
atom 8.6329328600000004 2.8320354800000000 1.7515083800000000 Hf
atom 9.2295511200000000 2.7760628399999998 7.0061867600000003 Hf
atom 8.8707882599999994 7.9080697600000001 1.7532689299999999 Hf
atom 9.2343414599999996 7.8996105999999999 7.0189967299999996 Hf
atom 3.9656443800000001 4.9397801799999996 3.9618391800000001 Hf
atom 4.4414326800000001 4.8939387800000000 9.2149619600000001 Hf
atom 3.9777354699999998 10.0333535800000000 3.9921719100000002 Hf
atom 4.3472623099999996 10.0208154199999999 9.2170743999999996 Hf
atom 9.0056293299999997 4.8957664799999998 4.3598879999999998 Hf
atom 9.5115794999999999 4.9012432300000004 9.6327364099999997 Hf
atom 8.9163930400000009 10.0154874599999992 4.4441918200000003 Hf
atom 9.5267772799999992 10.0240596600000007 9.6125016500000005 Hf
atom 0.8460592100000000 1.6889444700000000 6.0685805700000000 O
atom 0.4486773200000000 6.8038428399999997 0.8338966300000000 O
atom 0.8443920000000000 6.8026436600000002 6.0719133100000002 O
atom 5.8354940199999996 1.8014996500000000 1.2403244499999999 O
atom 5.9283971299999996 1.7257130500000000 6.4649264200000003 O
atom 5.5251325400000004 6.9619474700000001 1.2430020700000000 O
atom 5.9461224300000000 6.8730488300000001 6.4854188800000001 O
atom 0.5259926600000000 0.8023620400000000 3.5150468099999999 O
atom 1.0950615400000001 0.8482866600000000 8.6603996399999996 O
atom 0.6043400400000000 5.9653858800000004 3.4341965499999998 O
atom 1.1243737300000001 5.9416748500000001 8.7086783099999998 O
atom 5.6823023700000004 0.8329236500000000 3.8494145999999998 O
atom 6.1250013100000000 0.8205220700000000 9.1244398699999998 O
atom 5.7289728100000001 5.9772835000000004 3.8981778199999999 O
atom 6.1666454399999999 5.9830550200000001 9.0866018000000004 O
atom 4.8120453799999998 4.4878984400000004 2.1414707499999999 O
atom 5.2928468600000000 4.3256140199999997 7.3203538400000001 O
atom 4.7942961700000000 9.5058187299999997 2.1257502100000001 O
atom 5.2724109900000000 9.4224429099999991 7.3675404200000001 O
atom 9.9352234199999998 4.1442767600000003 2.5713252899999999 O
atom 10.4024713200000001 4.2167755299999996 7.8323670099999996 O
atom 10.0265093800000002 9.4064294299999993 2.6468485400000001 O
atom 10.3714727000000000 9.3799752099999996 7.7775085500000003 O
atom 5.0468618699999999 3.3795635700000002 4.7030820799999997 O
atom 5.6006556600000001 3.4081933100000001 9.8478568600000003 O
atom 5.0776616800000003 8.5151406099999996 4.7455030699999998 O
atom 5.5535515400000000 8.5628162200000002 10.0019943900000001 O
atom 10.0950037100000003 3.4054304000000002 5.1923070300000003 O
atom 10.5671766399999996 3.3319122100000000 10.5097315499999997 O
atom 10.0925699099999999 8.5384374399999992 5.1879398200000004 O
atom 10.6083570900000002 8.5278449799999994 10.4313843700000000 O
atom 2.6981277100000001 1.0577009799999999 2.8027569899999998 O
atom 3.4417619199999998 1.3134509800000000 7.8349080700000000 O
atom 2.9762184700000001 6.5055080500000004 2.7322658500000001 O
atom 3.4665911000000000 6.4513984300000002 7.9592977100000004 O
atom 8.0644968099999996 1.3149485299999999 3.1350662699999998 O
atom 8.4967894899999994 1.3042419300000001 8.3520191700000002 O
atom 8.0834155600000006 6.4584389900000003 3.1167179500000000 O
atom 8.5379097000000002 6.4345762400000002 8.3698069700000008 O
atom 3.2278383000000002 1.2487649800000000 5.2990327500000003 O
atom 3.4830484899999998 1.2251560100000001 10.3375915500000009 O
atom 3.2128122499999998 6.3717352199999997 5.3437515099999997 O
atom 3.7139886999999998 6.3353864800000004 10.5964223600000000 O
atom 8.2483357300000009 1.2230557700000000 5.7595800900000000 O
atom 8.9055833599999996 1.2021674499999999 10.9722030400000001 O
atom 8.2870467800000007 6.3511384800000004 5.7427070499999999 O
atom 8.7523961299999993 6.3790629000000001 10.9784889799999998 O
atom 2.1711698300000002 3.9496619800000001 0.1444141000000000 O
atom 2.7029913099999998 3.8798459900000002 5.5061198400000002 O
atom 2.3343470100000001 8.9712057099999996 0.2088939500000000 O
atom 2.7178341100000001 9.0088611299999997 5.4663702000000001 O
atom 7.3358642100000004 3.9562316300000000 0.6490474800000000 O
atom 7.7529935800000001 3.8750217400000002 5.8919584699999996 O
atom 7.3909057400000000 9.0373533199999994 0.6716843600000000 O
atom 7.7368996599999997 9.0050889900000008 5.9329391899999999 O
atom 2.4095266099999999 3.8440568700000002 2.9776456599999999 O
atom 2.9855090899999999 3.8012462000000000 8.0580981099999995 O
atom 2.3233432899999999 8.9459827000000001 2.8633940299999998 O
atom 2.9148160800000000 8.9195211899999993 8.0824292300000007 O
atom 7.5018515900000002 3.8187507400000000 3.2665471099999999 O
atom 8.0384465200000008 3.8118320200000002 8.5079286300000003 O
atom 7.5839161900000001 8.9251975800000007 3.2805888699999999 O
atom 8.0102238999999997 8.9329360300000005 8.5283844299999991 O
