lattice_vector 10.1243762799999999 -0.0109296900000000 0.8420485200000000 
lattice_vector 0.0069804800000000 10.3072524699999999 0.0017862000000000 
lattice_vector 0.8572926199999999 -0.0042356800000000 10.4193656899999993 
atom 1.4828868600000000 0.1126178700000000 1.5892468200000001 La
atom 1.9458247500000001 0.2212003300000000 6.8599638599999997 Hf
atom 1.5099847500000001 5.3465499599999999 1.6312164199999999 Hf
atom 1.9545082300000001 5.3664298400000003 6.8425311100000004 Hf
atom 6.7112689799999998 0.2382474900000000 2.0674575399999999 Hf
atom 7.0271751800000004 0.2153745800000000 7.2728394500000002 Hf
atom 6.5857564799999997 5.3355532800000001 2.0708179499999999 Hf
atom 7.0202146399999998 5.3737406600000002 7.2647404800000004 Hf
atom 1.7233597000000000 2.3479462999999998 4.2601510400000002 Hf
atom 2.1674906100000002 2.3858250999999999 9.4345000300000006 Hf
atom 1.7806641500000000 7.4875592099999997 4.2362523100000002 Hf
atom 2.1734006500000000 7.5031707399999998 9.4194911099999992 Hf
atom 6.7895529999999997 2.3558570900000002 4.6658488800000004 Hf
atom 7.2424869799999998 2.3404172600000002 9.8772926299999995 Hf
atom 6.7679505999999998 7.4853579300000002 4.6621217000000001 Hf
atom 7.2713291199999999 7.5191296200000002 9.8659479799999996 Hf
atom 3.7395300300000001 2.7585340500000002 1.3861086300000001 Hf
atom 4.1697085500000002 2.7876931500000000 6.6041002100000004 Hf
atom 3.7529431999999998 7.8076136900000002 1.3221504399999999 Hf
atom 4.1652039199999997 7.9448701599999998 6.5933455199999997 Hf
atom 8.8149970799999995 2.8290568299999999 1.7917319100000000 Hf
atom 9.2367857900000008 2.7951598500000001 7.0246414000000001 Hf
atom 8.7722984600000000 7.8955842100000000 1.8141674100000000 Hf
atom 9.2597447699999993 7.9362501200000004 7.0060921900000004 Hf
atom 3.9416399000000002 4.8987607600000000 3.9808493199999999 Hf
atom 4.4172812400000003 4.9045278600000000 9.1982578200000003 Hf
atom 3.9729711200000000 10.1437751600000006 4.0781282399999998 Hf
atom 4.4266239799999996 10.0851227500000000 9.1832641400000004 Hf
atom 9.0176315500000008 4.9340546900000000 4.4273871900000001 Hf
atom 9.4391229400000007 4.9284646900000002 9.6028283499999993 Hf
atom 8.9804249499999997 10.0697956000000008 4.4685031400000002 Hf
atom 9.4723269499999994 10.0748590300000007 9.6304646700000003 Hf
atom 0.4490806000000000 1.9722718699999999 0.8471362900000000 O
atom 0.8789270600000000 1.8088935300000000 6.1559213000000002 O
atom 0.4813245100000000 6.9776686699999999 0.9023791799999999 O
atom 0.8896152800000000 6.9198967600000003 6.0734662699999999 O
atom 5.4733541900000002 1.6336325800000000 1.2605054000000000 O
atom 5.8840954200000004 1.6941607100000000 6.4639417899999998 O
atom 5.5385033699999999 6.9200493200000004 1.3228534999999999 O
atom 5.8975347400000002 6.8689829800000002 6.4910466400000004 O
atom 0.5688777300000000 0.8261876000000000 3.6580957900000000 O
atom 1.1051102100000001 0.7870260600000000 8.7371159899999995 O
atom 0.6547807100000000 5.9720865500000002 3.4875129500000002 O
atom 1.0760741700000001 5.9602562700000004 8.6820754200000003 O
atom 5.7205399000000003 0.7940693500000000 3.8408370600000001 O
atom 6.1468534200000002 0.8556605200000000 9.0565740399999992 O
atom 5.6793477299999999 5.9638534700000001 3.8855593399999999 O
atom 6.1295445600000003 6.0224536999999998 9.1000890699999992 O
atom 4.8501448299999996 4.2785458299999997 2.1667255399999998 O
atom 5.2959666399999996 4.2898092400000003 7.3864245500000001 O
atom 5.3081147399999997 9.4254304599999994 7.3954892499999998 O
atom 9.8445183800000002 4.4057919999999999 2.5510285399999999 O
atom 10.3080871900000002 4.3602628399999999 7.7515866700000000 O
atom 9.5767243000000004 9.5255562800000000 2.5841285799999998 O
atom 10.3282902700000001 9.4817640099999991 7.7821802099999999 O
atom 5.0438143400000000 3.3847382300000000 4.7657661500000001 O
atom 5.5351788400000004 3.4297219499999998 10.0031713700000005 O
atom 5.0570536199999996 8.5786791299999994 4.7840308699999996 O
atom 5.6313403099999997 8.6718934799999996 10.0921063699999998 O
atom 10.1015010800000002 3.3986878300000001 5.1811165299999997 O
atom 10.5112914699999997 3.3970156100000000 10.3221860499999991 O
atom 10.1491243600000001 8.5337720899999994 5.1418331400000001 O
atom 10.5559633799999997 8.5310317700000002 10.3940414299999997 O
atom 3.0997258300000001 1.3763718300000001 2.8440957000000000 O
atom 3.4272103999999999 1.3266108700000001 7.9300016700000002 O
atom 2.9921220200000000 6.4005304199999999 2.7178011299999998 O
atom 3.4322796699999998 6.4788109499999997 7.9450161899999996 O
atom 8.0588617100000004 1.3631510400000000 3.1767074100000001 O
atom 8.5089486200000000 1.3212303800000000 8.3790732499999994 O
atom 8.0440131600000004 6.4696763099999997 3.1685111699999999 O
atom 8.4989889299999994 6.4848763800000002 8.3506844699999991 O
atom 3.1953340200000002 1.2419985400000000 5.3867235000000004 O
atom 3.7303674299999998 1.3070641199999999 10.4486868099999999 O
atom 3.2230318499999999 6.3877221100000003 5.3331506600000003 O
atom 3.6653228200000001 6.3572432699999997 10.5530752999999997 O
atom 8.2396069500000007 1.2499312600000001 5.7873261899999999 O
atom 8.7378706899999994 1.2463486600000000 10.9815235900000001 O
atom 8.2725895999999999 6.3944736300000002 5.7646239000000001 O
atom 8.7011328799999994 6.3770329300000004 10.9635596900000003 O
atom 2.2927515700000001 3.9161346199999998 0.2696274800000000 O
atom 2.6997213900000001 3.9052340700000001 5.4952280900000003 O
atom 2.4267184400000001 8.9048379799999999 0.1374316100000000 O
atom 2.6823719900000000 9.0655240399999997 5.4984976799999998 O
atom 7.3193853500000001 3.9041457199999998 0.7017538800000001 O
atom 7.7442356500000002 3.9018748200000002 5.9161575099999997 O
atom 7.3513426199999996 9.0602345399999997 0.7090605900000000 O
atom 7.7794974699999999 9.0392316499999996 5.9307404400000001 O
atom 2.4491387499999999 3.8060934000000000 2.8732220200000000 O
atom 2.9253046100000000 3.8334967299999998 8.0900677900000009 O
atom 2.8338840300000001 8.8509553299999997 2.9047998300000000 O
atom 2.9179265299999999 8.9758356500000005 8.0668191700000005 O
atom 7.5358861399999997 3.8282121999999998 3.3240029199999999 O
atom 7.9727109699999996 3.8117160000000001 8.5150372099999991 O
atom 7.3834662599999996 8.9438852099999995 3.3328858900000000 O
atom 8.0055615499999995 8.9667010000000005 8.5207987000000003 O
