lattice_vector 10.0092424599999994 0.0004452900000000 -0.0273252300000000 
lattice_vector 0.0100409700000000 10.4037430900000007 -0.0314567400000000 
lattice_vector -0.0402856700000000 -0.0345594700000000 10.0212620599999997 
atom 1.2505101500000000 0.0497866700000000 1.2441444900000000 La
atom 1.2946994900000000 0.1438350900000000 6.2413472299999997 Hf
atom 1.3108384500000001 5.3519398200000001 1.2108254199999999 Hf
atom 1.3174214300000000 5.3525663400000001 6.2532887099999996 Hf
atom 6.3269892900000002 0.1516607700000000 1.2480612200000001 Hf
atom 6.3217527599999999 0.1559188100000000 6.2680606499999998 Hf
atom 6.3531649899999998 5.3767708299999999 1.2193356300000000 Hf
atom 6.3150953599999999 5.3485206800000000 6.2436211000000004 Hf
atom 1.2533065800000001 2.4586898900000000 3.7977003100000002 Hf
atom 1.3237390700000000 2.4278777400000000 8.7117695899999994 Hf
atom 1.3254382400000000 7.5857263200000000 3.7452236700000001 Hf
atom 1.3309879099999999 7.6139999300000003 8.7529798000000003 Hf
atom 6.3303344700000004 2.4149788900000000 3.7496694800000001 Hf
atom 6.3501869800000001 2.3985201100000002 8.7488778499999995 Hf
atom 6.3290094999999997 7.5957956700000002 3.7571156499999998 Hf
atom 6.3410931200000000 7.6039269899999997 8.7310910600000007 Hf
atom 3.7342472299999998 2.8374115700000000 1.1464777900000001 Hf
atom 3.6511498300000000 2.7401453600000001 6.2148896300000001 Hf
atom 3.7041871199999998 7.9269154100000003 1.1945500499999999 Hf
atom 3.6301583300000000 7.9467774899999997 6.2488810700000004 Hf
atom 8.6558670699999993 2.7881486799999999 1.2477545500000000 Hf
atom 8.6414674100000006 2.7680241099999998 6.2483622099999998 Hf
atom 8.6163518099999994 7.9659718200000000 1.2551837200000000 Hf
atom 8.6609538100000005 7.9416083999999998 6.2229068400000003 Hf
atom 3.6495029600000000 4.9914494500000002 3.7310715800000001 Hf
atom 3.6469039200000002 5.0240002700000002 8.7248352400000009 Hf
atom 3.7111210699999999 10.1440389199999998 3.7614841000000001 Hf
atom 3.6705557299999998 10.2128369600000006 8.7107226699999991 Hf
atom 8.6365023399999998 5.0305570199999998 3.7430565800000002 Hf
atom 8.6463574100000002 5.0050843100000000 8.7476786600000001 Hf
atom 8.6009365199999994 10.2058542499999998 3.7619310800000001 Hf
atom 8.6362011499999998 10.1960601499999992 8.7096333500000007 Hf
atom 0.3075874600000000 2.0280000100000000 2.0371088400000001 O
atom 0.3916188600000000 1.9533658599999999 6.8176282800000001 O
atom 0.3616423500000000 7.1424472400000001 1.9172526900000000 O
atom 0.3438369800000000 7.0979055400000002 6.9456728200000004 O
atom 5.2967838599999997 1.8863773300000000 1.9648358900000000 O
atom 5.3438232599999997 1.8943929900000001 6.9433682000000001 O
atom 5.3569751400000003 7.0936462899999997 1.9436851500000001 O
atom 5.3384043900000000 7.0865059199999996 6.9321117100000000 O
atom 0.3301025500000000 0.6536074900000000 4.4098940500000001 O
atom 0.3113891500000000 0.7367745300000000 9.1826877699999994 O
atom 0.3346347200000000 5.8609073699999996 4.4561665699999997 O
atom 0.3209942200000000 5.8980532500000002 9.4470331299999994 O
atom 5.3702664899999997 0.6602723900000000 4.4544316700000000 O
atom 5.3572783199999998 0.6793252400000001 9.4355658200000008 O
atom 5.3374033499999998 5.8607863000000000 4.4313866099999997 O
atom 5.3328105099999998 5.8815123600000003 9.4445781100000001 O
atom 4.6679576000000003 4.5319523300000002 1.9175216600000000 O
atom 4.6229179299999998 4.4845609499999997 6.9135592900000002 O
atom 4.5750862100000003 9.7778488600000006 1.8755142800000000 O
atom 4.6409472699999998 9.6856805900000005 6.9141453999999998 O
atom 9.6304457600000006 4.5599124399999997 1.9343141800000001 O
atom 9.6408708900000004 4.4992715499999996 6.9512764499999999 O
atom 9.3828028700000008 9.6779644600000001 1.9910440500000000 O
atom 9.6195622800000002 9.6975274700000007 6.8742923899999999 O
atom 4.6354362299999998 3.2675534800000001 4.4344929600000000 O
atom 4.6649662999999997 3.3089890799999999 9.4107202799999996 O
atom 4.6449260099999998 8.4665986600000007 4.4537750500000000 O
atom 4.7104463799999996 8.4947464099999994 9.4457963899999999 O
atom 9.5926005100000005 3.3012514300000002 4.4460331100000001 O
atom 9.6518550699999999 3.2923970900000001 9.4648506999999995 O
atom 9.6298108700000000 8.4569012200000007 4.4159666000000000 O
atom 9.7060900199999995 8.5463061699999994 9.5209823599999996 O
atom 2.6998886899999999 1.1968351300000000 7.4323258499999998 O
atom 2.6571797300000002 6.3091604999999999 2.4639054599999999 O
atom 2.6858968399999998 6.4100529399999999 7.4789908399999998 O
atom 7.6508604199999999 1.2231273400000000 2.5002959200000001 O
atom 7.6987952300000000 1.2126632100000001 7.4941975799999998 O
atom 7.6960220200000000 6.4256884000000003 2.4755263200000002 O
atom 7.6978400000000002 6.3942625199999998 7.4691904800000000 O
atom 2.7156467399999999 1.3475831199999999 4.8497819900000003 O
atom 2.7341029899999998 1.4048160800000000 9.9617054700000001 O
atom 2.6960399800000001 6.5547314200000004 4.9763166099999996 O
atom 2.6798937600000001 6.5258689499999996 9.9814261599999998 O
atom 7.6784324100000001 1.3722532199999999 5.0088745200000000 O
atom 7.6978437099999999 1.3397967799999999 10.0109630500000009 O
atom 7.6909572900000001 6.5489733899999996 4.9768764000000001 O
atom 7.6805470400000004 6.5422467900000001 9.9733390699999998 O
atom 2.2743542300000001 3.9715694099999999 4.9787750500000003 O
atom 2.2859779699999998 3.9863711099999999 9.9644953500000000 O
atom 2.2844571999999999 9.1557307399999992 4.9792793299999998 O
atom 2.4143286200000000 9.0410880599999999 9.8773424799999994 O
atom 7.2774552400000001 3.9642940200000001 4.9860866899999996 O
atom 7.2818256500000000 3.9520792800000000 9.9894840400000007 O
atom 7.2740631000000002 9.1406799400000001 4.9971484100000003 O
atom 7.2953949299999996 9.1375045099999994 9.9874296600000001 O
atom 2.3551397900000000 3.6735415800000002 2.4721495099999999 O
atom 2.3020417300000000 3.8090565000000001 7.4633301400000001 O
atom 2.4398555900000001 8.8555892200000006 2.5459635600000001 O
atom 2.2723202300000001 9.0099339199999999 7.4498329900000000 O
atom 7.2854019799999996 3.8214551600000002 2.4794155099999999 O
atom 7.2838792899999998 3.8075738499999998 7.4913193400000004 O
atom 7.1432289999999998 9.0079078100000007 2.4883913600000001 O
atom 7.3025474600000004 8.9983617299999992 7.4784926199999999 O
