lattice_vector 9.9716474300000009 -0.0112925700000000 0.0391085800000000 
lattice_vector 0.0056001200000000 10.4187289300000003 -0.0618524000000000 
lattice_vector 0.0657091800000000 -0.0498141400000000 10.0415687699999996 
atom 1.2291471199999999 0.0022129300000000 1.0956853400000000 Si
atom 1.4261001300000000 0.1420798200000000 6.3782452699999999 Hf
atom 1.2931135300000001 5.3344237899999998 1.1930133500000000 Hf
atom 1.3932230000000001 5.3260210700000004 6.2439557800000003 Hf
atom 6.3069983699999996 0.1613655700000000 1.2311772599999999 Hf
atom 6.3059554000000002 0.1007181700000000 6.2138700099999999 Hf
atom 6.3526366100000002 5.4386611000000000 1.2339220099999999 Hf
atom 6.3842384799999996 5.3275410499999998 6.2222721099999996 Hf
atom 1.3748698100000001 2.4324397900000001 3.7564382599999999 Hf
atom 1.4438905399999999 2.4298061099999999 8.8854645699999999 Hf
atom 1.3773443700000001 7.5231154199999999 3.7395456399999998 Hf
atom 1.3510904800000001 7.5908660599999997 8.7262105800000000 Hf
atom 6.3065342500000003 2.4308998499999999 3.7545630700000001 Hf
atom 6.4116361299999998 2.3807237799999998 8.6772937500000005 Hf
atom 6.3862235299999996 7.6518736499999997 3.7510326699999998 Hf
atom 6.3870026600000003 7.6598306100000002 8.7388595900000006 Hf
atom 3.7811093100000002 2.8562399400000000 1.0960800300000000 Hf
atom 3.6986642600000001 2.7414226099999999 6.2444087300000000 Hf
atom 3.6935994600000002 7.9163475300000004 1.2186826900000001 Hf
atom 3.7111047199999998 7.9776335200000004 6.2561491900000004 Hf
atom 8.5422846099999994 2.8275542900000001 1.2148925699999999 Hf
atom 8.8208764899999998 2.5999428899999999 6.2276349000000000 Hf
atom 8.6900479300000004 7.9764404400000002 1.1696909499999999 Hf
atom 8.6866339900000007 7.9240262699999997 6.2675121200000001 Hf
atom 3.7119518999999999 5.0081263900000001 3.7292542300000000 Hf
atom 3.7480076800000002 5.0761949499999997 8.7113973399999995 Hf
atom 3.6319670199999998 10.1635482100000001 3.6571758299999999 Hf
atom 3.7180160199999999 10.2511653000000003 8.8119580400000004 Hf
atom 8.6564039899999994 5.0224059199999997 3.7680335700000001 Hf
atom 8.7140090600000004 4.9783753300000004 8.7204184500000004 Hf
atom 8.8466524700000004 10.3345742800000000 3.6981638700000001 La
atom 8.7752252599999991 10.2960435500000003 8.6971842800000001 Hf
atom 0.1852151400000000 1.6678569599999999 7.4860270699999996 O
atom 0.3236842400000000 7.0301695300000002 1.9578972699999999 O
atom 0.3655658100000000 6.9937564700000001 7.0015827100000001 O
atom 5.1780005999999998 1.8383272100000001 2.0384600300000000 O
atom 5.3331164299999996 1.8642668800000000 6.9724632900000003 O
atom 5.3393844000000001 7.1133497099999996 1.9847575799999999 O
atom 5.3790344399999999 7.0906403700000000 6.9687817000000001 O
atom 0.2993585500000000 1.1240990900000001 5.0430057699999997 O
atom 0.4395504700000000 0.7582092900000000 9.9395224100000004 O
atom 0.3909380200000000 5.8129251200000001 4.4812199100000001 O
atom 0.3584907000000000 5.8993748799999999 9.4963401500000000 O
atom 5.3441737800000002 0.6455255900000000 4.4200113099999996 O
atom 5.4012401299999997 0.7084257200000000 9.5149974000000004 O
atom 5.3748018499999999 5.9065885400000004 4.4424826499999996 O
atom 5.3696852399999999 5.9446573999999996 9.5089908899999998 O
atom 4.6972169499999996 4.5291646700000001 1.9332096599999999 O
atom 4.6887956800000001 4.4863058400000000 6.9323393299999996 O
atom 4.6412122499999997 9.7251501900000008 1.8776102900000000 O
atom 4.6754628800000004 9.7008213600000008 6.9948428299999996 O
atom 9.6951103399999994 4.3667870200000003 2.0426017000000001 O
atom 9.7394203299999997 4.3530854100000003 6.9985784000000004 O
atom 9.9511644199999996 9.5881764799999996 1.7479505900000001 O
atom 9.7547259700000009 9.6018396500000005 6.9908522399999997 O
atom 4.6714215399999999 3.3086812700000001 4.4817705999999999 O
atom 4.7836273599999997 3.3527883900000002 9.4129196200000003 O
atom 4.6785536299999997 8.5305822599999992 4.4761241600000004 O
atom 4.6824294599999998 8.5256069399999994 9.4696971500000000 O
atom 9.6448194399999991 3.3099588000000000 4.4447185999999999 O
atom 9.7764477099999993 3.3494814700000002 9.6280200499999999 O
atom 9.7692890600000002 8.3870473600000004 4.5792147900000000 O
atom 9.6888020099999999 8.5146946200000002 9.4057150499999995 O
atom 1.9460697300000001 0.8074528600000001 2.4030752999999998 O
atom 2.7315526200000000 1.2093654000000000 7.5293744800000004 O
atom 2.6701007099999998 6.2190772399999998 2.4270163500000002 O
atom 2.7400060599999998 6.3959826499999997 7.4639881900000002 O
atom 7.6046279200000004 1.3280166300000000 2.3592771899999998 O
atom 7.6567764000000000 1.0827486200000001 7.4605972400000002 O
atom 7.7183562700000001 6.4211764300000000 2.4651322000000002 O
atom 7.7072810599999997 6.3494402299999999 7.4949621400000002 O
atom 2.7833801199999999 1.3528613400000000 4.8920823699999998 O
atom 2.8416044800000000 1.4105483200000000 10.0283646700000002 O
atom 2.7638089899999998 6.5536023200000004 4.9741827399999998 O
atom 2.7110729800000000 6.6274448599999998 9.9696184300000006 O
atom 7.5494856600000002 1.4749875400000001 5.0546456500000003 O
atom 7.7671429999999999 1.4035659000000000 9.9283566600000004 O
atom 7.7241825999999998 6.5572321200000001 4.9865414599999998 O
atom 7.7321284500000003 6.6025456000000000 9.9812434999999997 O
atom 2.3184891200000002 3.9478950400000001 4.9594058600000004 O
atom 2.4396348600000000 4.0459912899999999 9.9681002599999999 O
atom 2.3143857099999998 9.2022510600000000 5.0454560700000002 O
atom 2.2954198600000000 9.3234190199999993 10.1996552600000001 O
atom 7.3234103499999996 3.9870442399999999 4.9697279600000002 O
atom 7.3736174400000003 3.9908408500000001 9.9922801799999998 O
atom 7.2789967700000000 9.0813910500000006 5.0196865400000004 O
atom 7.3934358400000004 9.2352584499999999 9.9451982599999997 O
atom 2.3737473800000002 3.6100214300000002 2.4127174899999999 O
atom 2.3451519699999999 3.7598840299999998 7.4922300399999999 O
atom 2.5292236099999998 8.7206693400000006 2.6150108400000001 O
atom 2.3850783899999999 8.9906686400000009 7.6050168100000004 O
atom 7.2459828999999996 3.8608304100000002 2.4605897099999998 O
atom 7.4002927999999999 3.7206848699999999 7.4622293800000001 O
atom 7.3154445399999997 8.9846428199999995 2.3616713699999998 O
atom 7.3851918699999999 8.9905120499999995 7.5007949600000003 O
