lattice_vector 10.1502789199999999 0.0100841500000000 0.8179503700000000 
lattice_vector 0.0446539000000000 10.3351647199999999 0.0237258000000000 
lattice_vector 0.8615754500000000 -0.0143755900000000 10.4524645799999991 
atom 1.5585822400000000 -0.0347871300000000 1.7545271400000000 Hf
atom 1.9655859099999999 0.2129511800000000 6.8729699000000002 Hf
atom 1.5916598900000001 5.4022900800000002 1.6629936999999999 Hf
atom 1.9811822100000001 5.3979009700000002 6.8601225100000001 Hf
atom 6.5842192900000001 0.1387351800000000 2.0349063799999998 Hf
atom 7.0299689399999998 0.2304646300000000 7.3084924000000004 Hf
atom 6.6799085500000004 5.3406556299999997 2.0752448399999999 Hf
atom 7.0821621099999996 5.3958487100000001 7.2899970300000003 Hf
atom 1.7088520599999999 2.3857553199999999 4.2670353199999997 Hf
atom 2.2588343900000001 2.4655071799999999 9.2683136899999994 Hf
atom 1.7741945900000000 7.5128113799999996 4.3027525899999999 Hf
atom 2.2368775099999998 7.4925091699999999 9.5012114000000008 Hf
atom 6.7981327100000000 2.3601726500000000 4.6717820999999997 Hf
atom 7.3412938900000002 2.3619121700000001 9.8845629699999993 Hf
atom 6.8550335699999998 7.5267301499999997 4.6949800499999998 Hf
atom 7.3346927500000003 7.5072141800000001 9.9040196100000006 Hf
atom 3.7777814900000002 2.6789046200000000 1.4350113300000000 La
atom 4.2255083300000003 2.8223965799999999 6.5697873600000003 Hf
atom 3.8625775299999998 7.9001761699999999 1.3935772099999999 Hf
atom 4.2361551500000001 7.9560667000000000 6.6447891900000000 Hf
atom 9.0414011799999994 2.6150632400000000 1.9382169300000001 La
atom 9.2527145199999996 2.8234155799999998 7.0184786499999996 Hf
atom 8.8679557399999993 7.9283618200000001 1.8078347299999999 Hf
atom 9.2920177899999992 7.9981511500000000 7.0378844400000000 Hf
atom 4.0101986199999997 4.9868563600000000 4.0094428600000001 Hf
atom 4.4805373499999996 4.9404797499999997 9.2079044700000008 Hf
atom 4.0066869599999997 10.1154117299999999 4.0803537299999997 Hf
atom 4.4475941600000004 10.0625806799999999 9.2406051900000001 Hf
atom 9.0745602400000003 4.9996357400000004 4.4342000099999996 Hf
atom 9.5278492799999999 4.9217297499999999 9.6498722000000008 Hf
atom 9.0300721700000004 10.1520272200000008 4.4337415599999996 Hf
atom 9.5630576499999993 10.0677582099999992 9.6442423200000000 Hf
atom 0.8053935800000001 1.6544364199999999 5.9998362800000002 O
atom 0.5253781500000000 6.9758941099999996 0.9047960600000000 O
atom 0.8756419700000000 6.9192423900000000 6.1061686599999998 O
atom 5.7813960900000003 1.7636954899999999 1.2655392599999999 O
atom 5.9427965100000000 1.7387560799999999 6.5037958700000003 O
atom 5.6203999800000002 6.9365190500000002 1.3009493100000000 O
atom 5.9986060600000002 6.9545502499999996 6.5551269899999998 O
atom 0.3849397000000000 1.1604750600000000 3.0865475199999999 O
atom 1.0773059100000000 0.8714259000000000 8.6777103100000001 O
atom 0.6685939900000000 6.0696570200000002 3.5209833000000001 O
atom 1.1358441100000001 5.9807522200000003 8.7165835699999992 O
atom 5.5941601500000004 0.8820924500000000 3.8727708000000001 O
atom 6.1065766999999997 0.8341634900000000 9.1605715799999992 O
atom 5.7790102499999998 6.0130498399999999 3.9655378099999998 O
atom 6.2151965799999997 5.9964959799999997 9.1305061900000002 O
atom 4.8920302800000002 4.5000499200000004 2.2062149600000001 O
atom 5.3258556700000002 4.3808084000000003 7.3222431500000003 O
atom 4.8243692300000003 9.5344324199999999 2.1683467799999998 O
atom 5.3207924599999998 9.4940830100000007 7.4488682800000001 O
atom 9.9884831700000003 4.5027304600000004 2.6259242399999998 O
atom 10.4202774900000001 4.3112043599999996 7.7901548700000003 O
atom 9.9001282199999991 9.5899396699999997 2.5169851200000002 O
atom 10.4364308599999998 9.4810873000000004 7.8126990699999999 O
atom 5.0556679600000001 3.4017045800000001 4.7454629199999996 O
atom 5.5803957500000001 3.4031961000000002 9.8409408799999998 O
atom 5.1160663599999996 8.5795205800000005 4.8151269399999999 O
atom 5.5808324699999998 8.5633115400000008 10.0070384000000008 O
atom 10.1400882100000000 3.4718943900000001 5.2145079799999996 O
atom 10.6801550600000006 3.3853743600000001 10.3038968900000008 O
atom 10.2353663400000006 8.7070828900000006 5.2030253200000001 O
atom 10.6524702599999994 8.5691202900000008 10.4326152099999998 O
atom 2.8068745900000001 1.1430135800000001 2.9230853899999998 O
atom 3.4883985100000001 1.3339730900000000 7.9595044599999998 O
atom 3.0567235799999999 6.5122489500000000 2.7783510900000001 O
atom 3.4796395800000002 6.5002694400000003 7.9780876599999999 O
atom 7.8760859999999999 1.1878860600000001 3.2696517400000000 O
atom 8.4961917299999996 1.3329597799999999 8.3661384600000002 O
atom 8.1193372499999992 6.5061209000000000 3.1733713300000002 O
atom 8.5799175999999999 6.5111496700000000 8.3951444800000008 O
atom 3.2090462000000000 1.2644395200000000 5.4045336700000002 O
atom 3.0616449600000002 1.1768868299999999 10.6596139799999996 O
atom 3.2550981800000001 6.4321057599999998 5.3888682899999996 O
atom 3.7454164400000001 6.3929394300000002 10.5984434800000002 O
atom 8.2955889900000006 1.2670944000000000 5.7833586700000001 O
atom 8.7878355100000007 1.0926771500000001 10.9358866500000005 O
atom 8.3441275299999997 6.4535676899999999 5.7917361999999999 O
atom 8.8248128900000005 6.4019601699999997 11.0060916399999993 O
atom 2.1715572200000000 3.9738458500000000 0.1568157700000000 O
atom 2.7121711300000002 3.9222561400000000 5.5096223200000001 O
atom 2.3986981699999999 9.0202020500000000 0.3118244300000000 O
atom 2.7595970400000001 9.0899562700000001 5.5601791699999996 O
atom 7.3904454900000003 3.9458187599999999 0.6493344200000000 O
atom 7.7917547500000000 3.9318917299999998 5.9471242699999998 O
atom 7.4090696300000003 9.0193176299999998 0.7246850400000000 O
atom 7.8211309699999996 9.1185151100000006 5.9600080000000002 O
atom 2.4276276399999999 3.8981170700000001 2.9914114500000002 O
atom 3.0202081199999999 3.8568932600000001 8.0246863299999998 O
atom 2.5256737399999998 8.9239789300000005 2.9295787799999999 O
atom 2.9704674400000002 8.9920831400000001 8.1609493999999998 O
atom 7.5726763100000003 3.8538498500000000 3.3969418800000000 O
atom 8.0689152199999992 3.8469510800000002 8.5213488200000000 O
atom 7.6341753900000002 8.9611773100000001 3.3520730500000000 O
atom 8.0599251600000006 9.0007241300000000 8.5566593500000003 O
