lattice_vector 10.0610827199999999 -0.0486405300000000 -0.0607443900000000 
lattice_vector -0.0111919700000000 10.1571428000000008 0.0090887100000000 
lattice_vector -0.1989340600000000 0.0504366500000000 10.0603712800000000 
atom 1.1102753999999999 -0.1071059900000000 1.3731867200000001 La
atom 1.1479880000000000 0.0413256300000000 6.2421715000000004 Hf
atom 1.2600779099999999 5.1359854499999997 1.2223717400000000 Hf
atom 1.0379702200000001 5.0901942900000003 6.2786340899999997 Hf
atom 6.3047264800000002 -0.0081597400000000 1.2088083000000001 Hf
atom 6.0578988400000000 0.0888084800000000 6.3559034399999996 Hf
atom 6.2637170400000004 5.0397204499999999 1.3163847000000000 Hf
atom 6.0926314499999998 5.0043176799999998 6.3211451199999997 Hf
atom 1.1349571400000000 2.6093702799999998 3.7563395300000000 Hf
atom 1.0260609700000001 2.5406888599999999 8.8302848399999991 Hf
atom 1.3624195900000000 7.5953940900000001 3.7812285000000001 Hf
atom 1.0753906600000001 7.6839895599999997 8.7157639899999992 Hf
atom 6.1819290999999996 2.4984651100000002 3.7860303300000000 Hf
atom 6.0664787400000000 2.5895621400000000 8.8690474300000002 Hf
atom 6.2067083700000003 7.4962751200000000 3.8470985299999998 Hf
atom 6.0114649099999999 7.5609483600000003 8.7993135900000006 Hf
atom 3.7127334400000001 2.4897138800000000 1.2923569300000000 Hf
atom 3.5449077500000001 2.5891848899999999 6.3122520000000000 Hf
atom 3.8291402899999998 7.6356314400000000 1.2460359500000000 Hf
atom 3.6139009700000000 7.5619402600000001 6.3653264099999998 Hf
atom 8.7889971800000009 2.5578129999999999 1.2516650400000000 Hf
atom 8.6294469599999992 2.4962891599999999 6.2665959400000002 Hf
atom 8.7627141099999992 7.5466750100000004 1.0252376100000000 Hf
atom 8.5677321800000001 7.4972640600000000 6.2399299700000004 Hf
atom 3.6944779900000002 0.0885240500000000 3.8950007000000002 Hf
atom 3.5069358099999999 0.0582523200000000 8.8734857900000002 Hf
atom 3.6583171700000001 5.0760443999999998 3.7495411399999998 Hf
atom 3.5355030699999999 5.0475066000000002 8.8433397300000003 Hf
atom 8.6997672200000000 0.1143386600000000 3.7490373899999998 Hf
atom 8.4868032299999996 0.0877634600000000 8.7524206899999992 Hf
atom 8.8197646899999995 5.2553405599999996 3.6307508700000000 Hf
atom 8.6292958300000002 5.0783901000000000 8.7899444199999994 Hf
atom -0.1113577800000000 1.4807613900000001 -0.0072435300000000 O
atom -0.1200545900000000 1.4798157700000001 5.1378018200000000 O
atom 0.0971909500000000 6.4545115199999996 -0.0177820300000000 O
atom -0.0472349500000000 6.6164303999999996 5.0287444499999996 O
atom 5.0716105499999999 1.4223733100000000 0.1167376800000000 O
atom 4.8953555900000003 1.5001027000000000 5.1292965199999996 O
atom 5.1300330599999997 6.4755867800000004 0.1103447300000000 O
atom 4.9614940100000000 6.5553848900000000 5.1636436600000000 O
atom -0.1687095500000000 1.4265369500000000 2.6353256300000001 O
atom -0.2182693100000000 1.0206019900000001 7.5717403000000001 O
atom -0.0354508700000000 6.4487087399999998 2.5030961999999999 O
atom -0.3000982400000000 6.1648763999999998 7.5374839900000001 O
atom 4.9581222399999998 0.9695413100000000 2.5581912800000000 O
atom 4.7787816300000001 1.0824978700000001 7.6208328800000000 O
atom 4.9884385099999999 6.1147505100000004 2.6380385500000001 O
atom 4.7547383400000003 6.1295170600000004 7.6409985400000000 O
atom -0.0326236200000000 3.8981570900000002 2.4933347900000000 O
atom -0.1709783600000000 3.6332895299999999 7.5325921700000000 O
atom 0.0891357000000000 8.5906936999999992 6.9927380399999999 O
atom 4.9893517400000000 3.5829515600000001 2.5067596200000000 O
atom 4.8461989599999997 3.6059429700000001 7.5491027099999997 O
atom 5.5361622400000003 8.5402757900000008 2.2539739800000000 O
atom 4.9833736300000000 8.6845194800000005 7.4145027499999996 O
atom -0.0933630000000000 3.9499923300000002 0.0149396500000000 O
atom -0.3322224400000000 4.0375110000000003 5.0417220800000004 O
atom -0.1247345100000000 8.9025159100000000 -0.3887409000000000 O
atom 0.3582185800000000 9.3264926500000005 4.1512541799999996 O
atom 4.9333547199999996 3.9507389399999999 0.0271019000000000 O
atom 4.7295613799999998 4.0120211699999997 5.0686307299999998 O
atom 4.9529774199999999 9.0433533900000000 -0.0739528300000000 O
atom 5.1697254499999996 9.1181880300000007 4.8368665999999996 O
atom 2.4739676300000002 1.4820031000000000 2.6121577899999999 O
atom 2.2234010199999998 1.4723876199999999 7.4874004400000000 O
atom 2.4868895000000002 6.4543090699999999 2.3984291099999999 O
atom 2.2276090300000000 6.5265108200000004 7.4247569100000002 O
atom 7.3909999400000004 1.4346580000000000 2.4884147400000001 O
atom 7.2701919300000002 1.5007738399999999 7.5335059800000002 O
atom 7.4996733000000004 6.5685599100000003 2.4180482400000001 O
atom 7.2351108599999998 6.5567676900000000 7.4684047199999997 O
atom 2.5458999699999998 1.1730269400000000 -0.0460023600000000 O
atom 2.4144385800000001 1.1691363200000000 5.0280438600000004 O
atom 2.5752405600000001 6.1853088800000000 -0.0809490400000000 O
atom 2.4285544500000000 6.1757331300000002 4.9675867199999999 O
atom 7.5322772599999999 1.1175031400000000 -0.0461392000000000 O
atom 7.4006925399999997 0.9971590900000000 5.0282095399999998 O
atom 7.5905899400000001 6.1246335299999997 -0.0564038300000000 O
atom 7.4344675699999998 6.0180186000000004 4.9976398099999999 O
atom 2.3879405199999999 3.6400635800000001 0.1136883200000000 O
atom 2.1973661400000002 3.6713469000000001 5.1676121799999999 O
atom 2.5052532300000001 8.6412579399999991 -0.0029053900000000 O
atom 2.5395542999999998 8.7639867900000006 5.1526205599999999 O
atom 7.3923202300000002 3.6199851700000001 0.1754612200000000 O
atom 7.1393621600000001 3.4636745499999999 5.2912933400000002 O
atom 7.4122545600000000 8.7119996900000007 -0.1736445800000000 O
atom 7.8079089300000000 8.5437862700000000 4.6277550099999996 O
atom 2.4435804399999999 3.9517047700000001 2.5972619300000002 O
atom 2.3057754500000001 4.0009283599999996 7.6299501400000000 O
atom 2.8526129800000000 8.9023279300000002 2.6327806900000001 O
atom 2.4080857400000002 9.0931065100000001 7.6112348000000001 O
atom 7.4749048800000004 3.9924061800000001 2.7092958500000002 O
atom 7.3225470899999996 4.0134839299999996 7.7056619700000004 O
atom 8.3750833199999999 9.2803283800000003 2.0219368400000000 O
atom 7.5638491900000000 9.1202091200000002 7.2608636000000004 O
