lattice_vector 10.1285936299999992 -0.0234071900000000 0.8501532300000000 
lattice_vector -0.0016590500000000 10.3099503200000004 -0.0051983300000000 
lattice_vector 0.8595914900000000 -0.0021891800000000 10.4254942100000001 
atom 1.4655182000000000 0.1181870600000000 1.5783188699999999 La
atom 1.9694124700000000 0.2147818600000000 6.8546321700000004 Hf
atom 1.5286839500000000 5.3643041499999997 1.6200286699999999 Hf
atom 1.9635689900000000 5.3684555300000003 6.8465530499999998 Hf
atom 6.6124367499999996 0.1951559000000000 2.0716016000000002 Hf
atom 7.0366219299999999 0.2134141600000000 7.2904945999999997 Hf
atom 6.5885567099999998 5.3296127499999999 2.0673518700000000 Hf
atom 7.0261717499999996 5.3534524499999998 7.2683080699999998 Hf
atom 1.7427264600000001 2.3439438300000002 4.2568716599999998 Hf
atom 2.1673660799999999 2.3919202500000001 9.4369081700000006 Hf
atom 1.7529047799999999 7.4872550899999997 4.2448408999999998 Hf
atom 2.1953595600000000 7.5005899899999999 9.4381890599999991 Hf
atom 6.7973130499999996 2.3545234700000002 4.6736355500000002 Hf
atom 7.2540007400000004 2.3431133100000001 9.8913726799999999 Hf
atom 6.7815117400000000 7.4759922500000000 4.6753901600000001 Hf
atom 7.2720391600000003 7.4966466599999997 9.8616989499999992 Hf
atom 3.7375856600000001 2.7641786399999999 1.3884709500000001 Hf
atom 4.1699712499999997 2.7800534500000000 6.5990478299999999 Hf
atom 3.8043630700000000 7.9009029399999999 1.3815461800000000 Hf
atom 4.1652702200000000 7.9450328299999997 6.5970667100000000 Hf
atom 8.7965073700000005 2.7986275900000002 1.8049629000000000 Hf
atom 9.2437649900000007 2.7837569300000000 7.0332876400000002 Hf
atom 8.7683447799999996 7.8783195499999996 1.8073475600000000 Hf
atom 9.2521390399999994 7.9337946800000001 7.0211288400000003 Hf
atom 3.9355941099999998 4.9100166099999996 3.9805669799999999 Hf
atom 4.4043588099999997 4.9181416499999999 9.2092888300000002 Hf
atom 3.9694773300000001 10.0859284200000001 4.0006631500000003 Hf
atom 4.4191481100000001 10.0785807100000007 9.1824632299999998 Hf
atom 9.0267419499999999 4.9180238799999998 4.4241529999999996 Hf
atom 9.4520302300000001 4.9191187200000002 9.6170606400000000 Hf
atom 8.9529188699999995 10.0727543599999994 4.4747787199999998 Hf
atom 9.4714981799999993 10.0675601300000004 9.6464121800000004 Hf
atom 0.4404583200000000 1.9817691799999999 0.8445830500000000 O
atom 0.8779826500000000 1.7884537100000000 6.1426705600000000 O
atom 0.4653353000000000 6.9712135999999996 0.8953239700000000 O
atom 0.8679753000000000 6.9096266399999999 6.0919037500000002 O
atom 5.5011020600000000 1.7207710000000001 1.2855002099999999 O
atom 5.9048691699999996 1.7153040600000000 6.5030735300000000 O
atom 5.5234914899999996 6.8578315300000003 1.2699691099999999 O
atom 5.9025563900000000 6.8605474400000004 6.5022947200000001 O
atom 0.5566821199999999 0.8391896800000000 3.6506759999999998 O
atom 1.1110747700000001 0.7947905199999999 8.7356465700000001 O
atom 0.6473059700000000 5.9807995399999996 3.4717532200000001 O
atom 1.0838339600000000 5.9645398299999997 8.6890703499999997 O
atom 5.7203482899999996 0.8156692300000000 3.9066321099999999 O
atom 6.1611439199999998 0.8330226200000000 9.0955850300000005 O
atom 5.6777968899999998 5.9755254999999998 3.8815559400000001 O
atom 6.1417402799999996 5.9868087799999996 9.0948406399999993 O
atom 4.8496171900000000 4.2803277599999996 2.1734695199999998 O
atom 5.2910858100000002 4.2889549999999996 7.3818394899999999 O
atom 4.8583649500000003 9.4724184000000005 2.1480982499999999 O
atom 5.3003945799999999 9.4445419800000003 7.3781349299999999 O
atom 9.8563763400000006 4.3825366399999997 2.5528286300000000 O
atom 10.3295551999999997 4.3335707699999997 7.7689320700000000 O
atom 9.5767118599999996 9.5041234600000006 2.5967717700000001 O
atom 10.3425753900000004 9.4651434600000002 7.7979180499999998 O
atom 5.0555355899999999 3.4014879200000001 4.7730221999999998 O
atom 5.5305744700000004 3.4273068100000001 9.9946819599999994 O
atom 5.0619973199999997 8.5582569199999998 4.7952792799999999 O
atom 5.6031684799999999 8.5962331100000000 9.9861770900000000 O
atom 10.1205305100000000 3.3988878400000000 5.1966201300000003 O
atom 10.5098328900000002 3.3768482500000001 10.3284070400000001 O
atom 10.1231264599999999 8.5340070400000005 5.1735909600000003 O
atom 10.5795183700000006 8.5402258300000007 10.4175344200000008 O
atom 3.0790720700000000 1.3836073700000000 2.8342962900000002 O
atom 3.4350406599999999 1.3228471900000001 7.9313055600000002 O
atom 3.0106511500000002 6.4218367499999998 2.7182644100000002 O
atom 3.4386742400000001 6.4768210000000002 7.9465167399999999 O
atom 8.0508088499999992 1.3427542699999999 3.1900768899999998 O
atom 8.5201568299999995 1.3146655500000000 8.3929645900000001 O
atom 8.0437959400000008 6.4593621499999996 3.1718947200000001 O
atom 8.5024246800000007 6.4699495999999996 8.3595150000000000 O
atom 3.2095764800000000 1.2306302000000000 5.3699361999999997 O
atom 3.7320885600000002 1.3076839000000000 10.4521862300000006 O
atom 3.2133937800000001 6.3873520199999998 5.3412862900000002 O
atom 3.6551636200000002 6.3593008600000003 10.5513893900000006 O
atom 8.2477925100000000 1.2455511500000001 5.8049266099999999 O
atom 8.7213354800000005 1.2216634900000001 10.9960280299999997 O
atom 8.2761284699999997 6.3836316599999998 5.7692722099999996 O
atom 8.7184915200000006 6.3629302900000004 10.9739347200000008 O
atom 2.2903317400000001 3.9126544800000000 0.2681397800000000 O
atom 2.6995510299999999 3.9020037099999998 5.4944352900000002 O
atom 2.4389638900000001 8.9141910499999994 0.1470490200000000 O
atom 2.7000052299999999 9.0591965299999995 5.5050087799999998 O
atom 7.3257218999999996 3.8978509899999998 0.7035875900000000 O
atom 7.7628348100000002 3.8931541500000000 5.9250613599999999 O
atom 7.3508904900000003 9.0331648999999992 0.7039171200000000 O
atom 7.7622605199999999 9.0394474900000006 5.9456697099999998 O
atom 2.4526906099999999 3.8203158099999999 2.8751391700000002 O
atom 2.9247423800000001 3.8321754100000001 8.0904777299999999 O
atom 2.6222611900000001 8.8453547399999994 2.9481103000000002 O
atom 2.9189690499999998 8.9742688600000005 8.0723934199999992 O
atom 7.5398647800000003 3.8199494700000001 3.3293163200000002 O
atom 7.9838360399999999 3.8054180600000000 8.5213694199999992 O
atom 7.4174326300000004 8.9394841100000004 3.3533940499999999 O
atom 8.0117308800000000 8.9628982500000003 8.5258685599999993 O
