lattice_vector 9.9840476900000006 -0.0357064100000000 0.0130619800000000 
lattice_vector -0.0698541400000000 10.2265531700000007 -0.1795963900000000 
lattice_vector 0.0322747000000000 -0.1666325800000000 9.9611979700000006 
atom 1.4127869799999999 -0.3892469900000000 1.4088909100000000 Si
atom 1.2603532799999999 -0.1776610700000000 6.2774620600000004 Hf
atom 1.2085211700000000 5.1558332299999998 1.1067999600000000 Hf
atom 1.2789522900000001 4.9649112700000000 6.1379633100000000 Hf
atom 6.3112795000000004 -0.1363757400000000 1.3256899900000001 Hf
atom 6.1611446000000001 -0.0799094000000000 6.1733716699999999 Hf
atom 6.1995228500000001 5.0706285700000002 1.0984375300000000 Hf
atom 6.3115986499999996 4.9561707600000000 6.1275057300000002 Hf
atom 1.2613432800000000 2.5639515099999999 3.5951777699999998 Hf
atom 1.0492094400000000 2.5213391199999999 8.6145224500000008 Hf
atom 1.1196159999999999 7.4721488799999998 3.6785081700000002 Hf
atom 1.2635491299999999 7.5038078600000002 8.5562331399999998 Hf
atom 6.2359283000000003 2.3969070900000000 3.6984248499999999 Hf
atom 6.0364277599999996 2.2500420100000000 8.7359723799999998 Hf
atom 6.0960942999999999 7.5776029200000004 3.5630693700000000 Hf
atom 6.1917927600000002 7.6357013199999999 8.4528146799999995 Hf
atom 3.5557940299999999 2.5795571700000002 1.2503037900000000 Hf
atom 3.6567543200000001 2.3015176199999998 6.3216970699999999 Hf
atom 3.7476195200000002 7.5232556900000001 1.0978650100000000 Hf
atom 3.6429177400000001 7.6080554899999999 5.9833495599999997 Hf
atom 8.5650825299999997 2.6553614500000000 1.0383460000000000 Hf
atom 8.6420557599999999 2.2917003500000002 6.1631609500000000 Hf
atom 8.6571152100000006 7.5839972600000003 1.1813319099999999 Hf
atom 8.5502515999999993 7.6837121100000001 6.0301066399999996 Hf
atom 3.7115112500000000 0.1797921600000000 3.7026973900000000 Si
atom 3.5823947000000000 -0.1132254900000000 9.0120460999999992 Hf
atom 3.7989615099999998 4.9357626500000000 3.7034470900000001 Hf
atom 3.8560572000000000 4.9942445199999996 8.5183304199999998 Hf
atom 9.0249864800000008 0.0554256300000000 3.5644238499999998 Hf
atom 8.8489605999999998 -0.1996919800000000 8.8559387500000000 Hf
atom 8.7017075399999992 4.9590123999999998 3.6822582700000002 Hf
atom 8.7008794399999996 5.0223284000000001 8.5415034999999992 Hf
atom -0.2492795500000000 1.6669755600000000 -0.2160807400000000 O
atom 0.1630507800000000 1.4274593300000000 4.8889824900000001 O
atom 0.0797280400000000 6.7571752700000003 -0.0035930900000000 O
atom -0.1029183200000000 6.4989577900000004 4.9812109500000004 O
atom 4.8493419900000001 1.4363871300000000 0.1833206000000000 O
atom 5.2060174400000001 1.5550660900000000 5.2308313799999997 O
atom 5.0441554499999999 6.5749309499999997 -0.1888229900000000 O
atom 4.8653524600000004 6.5374346499999998 4.7821910000000001 O
atom 0.5549633899999999 0.8506318800000000 2.3644605699999999 O
atom -0.1920787600000000 0.8923796899999999 7.3329972100000003 O
atom -0.1141573700000000 6.1074353900000000 2.4254282100000002 O
atom 0.1754850100000000 5.9950102799999998 7.5145588300000004 O
atom 5.1769133600000004 0.6786880100000000 2.8419923499999999 O
atom 4.7960004200000004 0.8448410500000000 7.6317285699999999 O
atom 4.8270963299999998 6.0085246200000002 2.3102099400000000 O
atom 5.0948557399999999 6.0478735900000000 7.3194658099999996 O
atom -0.0391280300000000 3.4825586099999999 2.3076010000000000 O
atom 0.0064517100000000 3.4940638100000001 7.2340740200000004 O
atom 0.2812409300000000 8.6836709899999995 2.2193674600000000 O
atom -0.0471192500000000 8.5697930600000003 7.3608151399999997 O
atom 5.0106284299999997 3.4302219599999999 2.4051278200000001 O
atom 5.0099352799999997 3.4700097699999999 7.3910307299999998 O
atom 5.2595551599999997 8.4628879599999998 1.9892946600000001 O
atom 5.0641965600000001 8.5573077000000008 7.0216682199999996 O
atom -0.1559590900000000 4.1934625800000003 -0.1352384900000000 O
atom 0.1503999900000000 4.0173258100000000 4.7328396699999997 O
atom 0.1216594600000000 9.4331043300000008 -0.0360103900000000 O
atom -0.2803023300000000 9.0853766500000006 4.7915398500000004 O
atom 4.7851578000000003 3.9972767000000000 -0.0509901000000000 O
atom 5.1550035100000002 3.9936352799999999 4.8123657800000004 O
atom 4.9409805599999999 9.1532145299999996 -0.3398559600000000 O
atom 4.5656806100000003 9.2337173099999994 4.4877801499999999 O
atom 3.0107348900000002 1.6525165200000000 2.9837941899999998 O
atom 2.3329685699999998 1.3068744000000001 7.6050408699999998 O
atom 2.3509932400000002 6.6738293799999999 2.2846356000000001 O
atom 2.5933767400000001 6.4727859499999996 7.3128114499999999 O
atom 7.6453914999999997 1.4112876999999999 2.3877659699999998 O
atom 7.2159240599999999 1.4356876400000000 7.2882014300000000 O
atom 7.3705968700000000 6.5352334100000000 2.3836265700000001 O
atom 7.5791930399999998 6.5096044500000003 7.3983511699999998 O
atom 2.3439904600000001 0.8507000700000000 0.5127917900000000 O
atom 2.7921068099999999 0.6731735599999999 5.1384500099999997 O
atom 2.5262158600000002 6.1012823200000001 -0.1680028800000000 O
atom 2.4146130900000000 6.0020795900000001 4.7680870100000003 O
atom 7.3133640700000004 1.0309766800000000 -0.1141344800000000 O
atom 7.6268282899999997 0.8494929900000000 4.8763782800000000 O
atom 7.5574357499999998 6.1446840600000003 -0.0311466100000000 O
atom 7.4275101499999998 6.0717129800000000 4.8610687099999996 O
atom 2.2354016200000002 3.5018082000000001 0.0384387300000000 O
atom 2.5907211499999998 3.4312302699999999 4.9854239400000004 O
atom 2.3499425199999999 8.6846493099999993 0.1449712000000000 O
atom 2.0755230099999999 8.4598234899999998 5.1110156599999996 O
atom 7.2919486800000000 3.6377579600000001 -0.1806721100000000 O
atom 7.6198168199999996 3.4476651100000000 4.8077787599999997 O
atom 7.5023249900000000 8.6975489899999996 -0.1276678900000000 O
atom 7.0699699999999996 8.5657905599999999 4.9851043600000002 O
atom 2.4230305300000001 4.0772811000000004 2.4395507699999999 O
atom 2.4914636300000002 3.8873902600000001 7.4586582000000003 O
atom 2.6808303000000002 9.4175975500000000 2.4903315099999999 O
atom 2.4483121400000001 9.0194298600000007 7.5073924500000002 O
atom 7.4523531900000002 4.0151164799999997 2.3369738099999999 O
atom 7.5870800300000001 3.9360372799999999 7.2658674400000001 O
atom 7.6581979799999997 9.0902349600000001 2.3823572000000000 O
atom 7.4428903799999997 9.1185450100000001 7.3543765299999997 O
