lattice_vector 10.0798636699999999 0.0052102900000000 0.0553475700000000 
lattice_vector 0.0023363000000000 10.3208096600000001 0.0676804500000000 
lattice_vector 0.0220965600000000 0.0488526500000000 10.4117853900000004 
atom 1.1570202000000001 0.3175866200000000 1.9093690900000000 Si
atom 1.3962784500000001 0.2738396800000000 6.9678651800000004 Hf
atom 1.4361411799999999 5.3397836099999996 1.6458597600000000 La
atom 1.3870048399999999 5.3764120499999999 6.9797608799999997 Hf
atom 1.4249288499999999 2.4253878499999999 4.3667537899999997 Hf
atom 1.3665065000000001 2.2732019000000001 9.6568234299999993 Hf
atom 1.3910981400000000 7.5788485600000000 4.3865496999999998 Hf
atom 1.2614790499999999 7.6288074999999997 9.4603456700000006 Hf
atom 3.8100561800000001 2.8809698400000001 2.0079132799999999 Hf
atom 3.6337395699999999 2.8403325599999998 7.0303433399999999 Hf
atom 3.7320526799999998 8.0254662000000003 1.9378845800000000 Hf
atom 3.6472605100000002 8.0190461600000003 6.9987358700000000 Hf
atom 3.6727995500000001 5.0372785599999998 4.4716067700000002 Hf
atom 3.6712968899999998 5.1053915300000003 9.6081204899999992 La
atom 3.6107968700000002 10.2066087099999994 4.3905280700000002 Hf
atom 3.7058043700000001 10.1314840200000003 9.6310147599999993 Hf
atom 6.4305697899999998 0.2496466000000000 0.8593936900000000 Hf
atom 6.4020775499999996 0.2682143700000000 6.0386267100000000 Hf
atom 6.5100221100000004 5.4337377099999999 0.9812097600000000 Hf
atom 6.4434842400000001 5.4384741500000002 6.1494132099999996 Hf
atom 6.5114177199999999 2.4187215499999999 3.5375059400000000 Hf
atom 6.4479091500000001 2.4413705399999999 8.6573273999999998 Hf
atom 6.4740900999999997 7.5938149499999996 3.5563806599999999 Hf
atom 6.4937042500000004 7.6157600199999997 8.7278925199999993 Hf
atom 8.6786513200000002 2.7907200200000002 0.9426343500000000 Hf
atom 8.7137529699999998 2.8590601800000002 6.1051052900000000 Hf
atom 8.7061403199999994 8.0572788800000001 0.9094464100000000 Hf
atom 8.7060578700000004 8.0161046500000008 6.1227574200000001 Hf
atom 8.6878202699999996 5.0179412799999996 3.5476298100000001 Hf
atom 8.6725638899999993 4.9961577600000000 8.7715128500000006 Hf
atom 8.6997097300000004 10.1649861999999995 3.5399185300000000 Hf
atom 8.6360276200000001 10.2201786800000001 8.6859606399999993 Hf
atom 0.3884182800000000 1.7328136999999999 1.0827981600000001 O
atom 0.3567999700000000 1.7737644500000000 6.0556546500000001 O
atom 0.3572624900000000 7.1484758399999997 0.8548153800000000 O
atom 0.3565428900000000 6.9593158300000004 6.1514173000000003 O
atom 0.4273009600000000 0.8407707600000000 3.4290912400000000 O
atom 0.2903093800000000 0.9141383400000000 8.6146134700000001 O
atom 0.3163058300000000 6.0700990700000004 3.5968186400000000 O
atom 0.3777097800000000 5.9643864799999999 8.8134972900000008 O
atom 4.7088865000000002 4.5484947000000000 1.2610751800000000 O
atom 4.6642009099999999 4.4466455600000003 6.2463217899999997 O
atom 4.6298569299999999 9.5681900599999992 0.9825373700000000 O
atom 4.6535786000000003 9.5910580799999998 6.1831421100000004 O
atom 4.7783848000000004 3.4360032199999999 3.7368438500000001 O
atom 4.7261160999999996 3.3712522400000000 8.7032227300000002 O
atom 4.7091225300000001 8.6638536700000000 3.6623072500000000 O
atom 4.6958099899999999 8.6031480899999995 8.7616122300000008 O
atom 2.7226821299999999 1.3249634400000001 2.9426938900000001 O
atom 2.8187236499999999 1.3092754700000000 8.3417746600000005 O
atom 2.8669626899999998 6.5738485600000001 3.1526965100000002 O
atom 2.6057013900000001 6.6154975599999997 8.1418981000000006 O
atom 2.1349489500000001 0.2264640600000000 0.4668644800000000 O
atom 2.7933046099999999 1.3600811200000000 5.6492034799999997 O
atom 2.7856620699999999 6.5252856200000000 5.6701134599999996 O
atom 2.3860982399999999 3.8927350299999999 3.2144790799999998 O
atom 2.1343229199999998 3.7899871400000000 8.2329013199999999 O
atom 2.1782506100000001 9.2054687499999996 2.9082075800000000 O
atom 2.2685812900000002 9.1294522800000006 8.3472678800000004 O
atom 2.5312430099999998 3.3045386500000000 0.5029498300000000 O
atom 2.2675887299999999 3.9312513099999999 5.6984535000000003 O
atom 2.8118755499999999 7.2302526599999997 0.3276403800000000 O
atom 2.2503292400000001 9.1063400600000008 5.6594966299999996 O
atom 5.4404033900000002 1.7835929399999999 1.7596902699999999 O
atom 5.4067126600000002 1.7996857900000001 6.9060468400000001 O
atom 5.4741859499999999 7.0391756799999996 1.8013784300000000 O
atom 5.3991928600000003 6.9767543600000002 6.9953216300000003 O
atom 5.3979696700000002 0.8687573500000000 4.2993013900000001 O
atom 5.3822891999999998 0.9040351500000000 9.5455687999999999 O
atom 5.4369408100000003 6.0541464600000001 4.3901580999999998 O
atom 5.6790447100000003 6.0403517500000001 9.6065705500000007 O
atom 9.5459645299999991 4.3683004299999997 1.7964239700000000 O
atom 9.6965679300000005 4.3795892099999998 7.0141016299999999 O
atom 9.8486504799999999 9.6375288500000007 1.7998634800000000 O
atom 9.7511702400000004 9.5453908199999997 6.9825983899999997 O
atom 9.7539170899999998 3.4613839500000001 4.3657054100000003 O
atom 9.7920215099999997 3.4496356200000000 9.6654670300000003 O
atom 9.7298241799999996 8.6393544799999997 4.3940726400000001 O
atom 9.6722215699999996 8.7276762699999999 9.5404492800000007 O
atom 7.8158789200000003 1.3451873800000000 10.0029094399999998 O
atom 7.8599120800000000 1.3256123399999999 4.7906562900000003 O
atom 7.9879258300000000 6.5528509399999999 10.0922485900000005 O
atom 7.8233774000000000 6.5115271999999997 4.8762625300000000 O
atom 7.8288326899999996 1.3302384000000000 2.2021552999999998 O
atom 7.8141411800000000 1.3806478600000001 7.3611286600000003 O
atom 7.8539134099999997 6.5418265800000004 2.2790837599999998 O
atom 7.8478033800000002 6.5245714299999999 7.4724328299999998 O
atom 7.3326781900000002 3.9210386399999999 10.0724889199999996 O
atom 7.3293360200000004 3.9160474500000002 4.8719303399999996 O
atom 7.2689519499999999 9.1140568700000006 10.0453725299999999 O
atom 7.3105395800000004 9.0838030599999993 4.8365076699999996 O
atom 7.2483230900000004 3.9065439799999999 2.2745833000000002 O
atom 7.3022339799999996 3.9546416299999998 7.4542395800000003 O
atom 7.3627387799999999 9.1233009999999997 2.2456732700000002 O
atom 7.3080470000000002 9.1209181800000003 7.4155530199999999 O
