lattice_vector 10.0765712799999996 -0.0296492700000000 -0.0593289300000000 
lattice_vector -0.0300640800000000 5.2062221700000002 0.0325005400000000 
lattice_vector -0.0440276200000000 -0.0061949000000000 10.0554110199999993 
atom 1.2194460199999999 0.0548158500000000 1.1926964900000001 La
atom 1.3432526199999999 0.1628885200000000 6.2933996600000004 Hf
atom 6.3953031700000000 0.1445424500000000 1.2461112400000001 Hf
atom 6.3847323999999999 0.1522722700000000 6.2448803699999997 Hf
atom 1.2991603800000000 2.4311172100000000 3.8028385800000000 Hf
atom 1.1934577200000001 2.5392847000000001 8.6738073100000008 Hf
atom 6.3176373699999999 2.3997583900000001 3.7832586400000001 Hf
atom 6.3714339500000001 2.3847551299999998 8.7760505799999997 Hf
atom 3.7375720600000002 2.7852066199999999 1.3148314400000001 Hf
atom 3.6636544500000001 2.7198692800000002 6.2557285800000004 Hf
atom 8.6081158700000007 2.7709799300000002 1.3110442700000000 Hf
atom 8.6889544099999991 2.7604313999999999 6.2277672400000004 Hf
atom 3.6162429700000001 5.0296115800000001 3.7733599899999999 Hf
atom 3.7414782500000001 4.8833431699999998 8.7268315500000000 Hf
atom 8.6426500799999992 5.0231807000000002 3.7974888400000002 Hf
atom 8.6374569399999999 5.0012835500000001 8.7814306500000008 Hf
atom 0.2637552700000000 2.1013881500000000 2.0584172000000001 O
atom 0.3707409400000000 1.9531653300000000 6.8241672099999997 O
atom 5.4062053299999997 1.8683787599999999 1.9410731900000000 O
atom 5.3699743499999997 1.8598599899999999 6.9650642999999999 O
atom 0.3442975500000000 0.6580285900000000 4.4479701599999997 O
atom 0.2889088500000000 0.8278137200000000 9.2212741999999999 O
atom 5.3604764899999999 0.6476269600000000 4.4709434100000003 O
atom 5.3307615699999999 0.6557311100000000 9.4873604000000000 O
atom 4.6329638700000002 4.5107873700000001 1.9356112700000001 O
atom 4.6797454399999996 4.4408312900000002 6.9705487699999997 O
atom 9.3474165300000003 4.5605929600000001 1.9742645000000001 O
atom 9.7084593699999999 4.4493391400000002 7.0062763700000001 O
atom 4.6289519800000001 3.2651696499999998 4.4716702599999998 O
atom 4.7080711400000004 3.2040936000000002 9.5018147200000005 O
atom 9.6591908100000001 3.2821415799999998 4.4406621599999996 O
atom 9.7219601099999995 3.3913132500000001 9.6024665200000001 O
atom 2.8010270700000000 1.2678857299999999 2.4850266500000000 O
atom 2.6978597000000000 1.2145933400000000 7.6493442600000003 O
atom 7.6916956000000001 1.2351424200000001 2.5204491299999998 O
atom 7.7515762900000000 1.1997002100000000 7.4873745500000002 O
atom 2.6926292699999999 1.3426682700000001 5.0431112400000000 O
atom 7.7111692700000001 1.3601691700000000 5.0032736900000003 O
atom 7.7200671099999996 1.3377879500000001 10.0194453100000000 O
atom 2.2691483099999998 3.9838634100000001 5.0321555499999997 O
atom 2.4069467599999999 3.7867676600000002 9.9363967500000001 O
atom 7.3057924600000002 3.9523587800000000 5.0387532700000000 O
atom 7.2734466600000003 3.9433374799999998 10.0393723399999999 O
atom 2.3992533900000002 3.7308597899999998 2.5941439100000001 O
atom 2.3144677400000000 3.8220749500000002 7.4543146100000000 O
atom 7.1677793699999999 3.8139435399999999 2.5404141199999999 O
atom 7.3351773199999997 3.7983532000000002 7.5289547700000004 O
