lattice_vector 9.9494576099999996 -0.0390201700000000 0.0067855300000000 
lattice_vector 0.0075513200000000 10.4043912600000006 -0.0444474000000000 
lattice_vector 0.0723826800000000 -0.0499333000000000 10.0283821399999997 
atom 1.2073220300000000 0.3689789900000000 1.0892704000000000 Si
atom 1.3787367300000000 0.1552950000000000 6.3284410900000001 Hf
atom 1.3291502600000000 5.3354322900000000 1.1985726800000001 Hf
atom 1.3827610400000001 5.3238577800000000 6.2294751100000001 Hf
atom 6.3508016400000002 0.1476216900000000 1.2769556000000000 Hf
atom 6.2930704500000001 0.0978264800000000 6.2444509300000002 Hf
atom 6.3478073200000003 5.3320727699999999 1.2083209800000001 Hf
atom 6.4260276799999998 5.2968300900000003 6.3564121000000000 Hf
atom 1.3306050300000001 2.3174436400000000 3.6864399400000001 Hf
atom 1.3789218900000000 2.4360835600000001 8.7724718700000004 Hf
atom 1.3915028700000001 7.5576412599999996 3.7721667200000000 Hf
atom 1.3585649900000001 7.5885367099999996 8.7362714199999996 Hf
atom 6.3434486100000003 2.3841069699999999 3.7822726300000000 Hf
atom 6.3715059600000004 2.3424684999999998 8.7576982300000008 Hf
atom 6.2511750900000003 7.7330077499999996 3.6474488100000002 La
atom 6.3491146900000004 7.6011772400000002 8.7552108799999999 Hf
atom 3.7251056899999999 2.7279077300000001 1.1660491100000001 Hf
atom 3.6953385100000000 2.7341059599999999 6.2472456599999999 Hf
atom 3.6160597299999999 7.9474359899999998 1.2038023799999999 Hf
atom 3.6698016199999999 7.9919608699999998 6.3488937999999999 Hf
atom 8.6253978599999996 2.7390593600000002 1.2354576399999999 Hf
atom 8.6662000900000002 2.6888646199999999 6.2333664200000003 Hf
atom 8.7667253499999998 7.9424516399999998 1.1722252300000000 Hf
atom 8.6681915099999998 7.9206512499999997 6.1914933000000003 Hf
atom 3.5670384700000000 4.8936792599999999 3.6928519600000000 Hf
atom 3.7142411100000001 5.0136424699999997 8.7132874699999991 Hf
atom 3.6023226899999998 10.1757757400000006 3.7248684900000000 Hf
atom 3.6360672599999999 10.2351315500000002 8.8555350399999995 Hf
atom 8.6217101599999992 4.9793469500000000 3.7478330099999999 Hf
atom 8.6690195699999997 4.9761813300000002 8.7590460199999995 Hf
atom 8.7587435300000003 10.2281510000000004 3.6680758899999999 Hf
atom 8.6746924300000003 10.1695430000000009 8.7103636099999999 Hf
atom 0.3895961600000000 1.8455472500000001 1.8066582400000000 O
atom 0.3556096900000000 1.8706405399999999 7.0323964900000000 O
atom 0.4307618000000000 7.1004213600000003 1.9136780799999999 O
atom 0.4202585200000000 7.0887074099999996 6.9162056200000004 O
atom 5.2704422800000001 1.8162535600000000 2.0388161299999998 O
atom 5.3721853599999996 1.8775634000000001 6.9700059599999999 O
atom 5.2878151899999999 6.9867930400000002 1.6657772900000001 O
atom 5.3875263300000000 7.0469195500000001 6.8852893399999999 O
atom 0.3881526400000000 0.6859192500000000 4.5559367100000001 O
atom 0.4135450800000000 0.6331307200000000 9.5733996900000005 O
atom 0.4056120100000000 5.8187179000000002 4.4402083799999996 O
atom 0.3922200800000000 5.8660679099999999 9.4651501200000006 O
atom 5.3378797100000002 0.6912814500000000 4.4804564400000002 O
atom 5.3046819899999997 0.7090971600000000 9.6079013399999997 O
atom 5.4528249700000000 5.7869618100000002 9.3181175399999994 O
atom 4.6717916199999996 4.4297783400000004 1.9287582700000001 O
atom 4.6508877000000002 4.4800997799999998 6.9027665999999996 O
atom 4.8302589500000002 9.5529777300000003 2.0813638000000001 O
atom 4.6745027300000004 9.6955272099999998 7.0944155499999999 O
atom 9.6655507400000005 4.4034224399999999 1.9645748199999999 O
atom 9.6424012200000000 4.4451953399999997 6.9400504600000001 O
atom 9.9725623999999993 9.7525596599999993 1.8292172799999999 O
atom 9.6748162700000009 9.6296209000000008 6.9522853700000002 O
atom 4.6942884400000002 3.3476361600000000 4.4821426899999999 O
atom 4.6802527500000002 3.2434510099999998 9.4231630699999993 O
atom 4.5808544800000002 8.6602584900000004 4.7208914100000001 O
atom 4.6048590400000000 8.4727188299999998 9.4254389500000002 O
atom 9.6066159199999994 3.1854387300000000 4.3998152900000003 O
atom 9.6596039999999999 3.2432641300000000 9.4625920800000003 O
atom 9.6193083799999997 8.4020193200000008 4.3492092800000002 O
atom 9.6414309899999999 8.4270231599999992 9.3851023500000004 O
atom 2.4177168899999999 0.8556699300000000 2.3937292200000000 O
atom 2.7463746599999999 1.2091425899999999 7.5391336100000004 O
atom 2.6903397500000001 6.2464691300000004 2.4324338399999998 O
atom 2.7106421300000001 6.3821184999999998 7.4901892200000004 O
atom 7.7032934099999997 1.2159337600000000 2.4851829200000002 O
atom 7.6758025900000000 1.1265224899999999 7.4922287900000004 O
atom 7.7795261199999999 6.3183362000000001 2.3872748300000000 O
atom 7.7411110399999998 6.3814548499999999 7.5229062899999999 O
atom 2.7429356999999999 1.3519708800000001 4.9539750299999996 O
atom 2.6091049599999998 1.3766409799999999 10.0785120300000006 O
atom 2.8378239399999998 6.4914051099999996 4.9708012200000002 O
atom 2.7319653100000001 6.5765877200000000 9.9587219299999994 O
atom 7.7005536499999998 1.3646254600000001 4.9804748099999996 O
atom 7.7253724899999998 1.3108955600000001 9.9959737999999998 O
atom 7.6896471799999997 6.4298062399999996 5.0386720900000004 O
atom 7.7429126699999999 6.5470293699999997 9.9790347799999992 O
atom 2.2617087499999999 3.8817232300000000 4.9565699399999996 O
atom 2.3813197499999998 3.9694167500000002 9.9706841100000005 O
atom 2.2125908299999999 9.1159422499999998 5.0947171700000000 O
atom 2.2767769800000002 9.3621916699999996 10.2726056799999999 O
atom 7.2747591099999998 3.9326599600000001 5.0080768200000003 O
atom 7.3382354400000001 3.8871539700000000 9.9899105800000001 O
atom 7.4707551499999996 9.2861433299999998 4.9997296799999997 O
atom 7.2969536300000000 9.1409537899999993 9.9223016899999994 O
atom 2.3707089500000000 3.6503218400000002 2.4528287999999998 O
atom 2.3339640500000001 3.7837556900000000 7.4736521700000003 O
atom 2.5846657500000001 8.7202588900000002 2.7025136100000000 O
atom 2.3165168500000002 9.0340169499999998 7.6288908800000002 O
atom 7.2806755200000000 3.7691183700000002 2.4834497299999998 O
atom 7.3236179699999999 3.7475195499999998 7.5086145100000001 O
atom 7.5587643499999997 9.1002527600000001 2.3273362899999999 O
atom 7.3132131100000004 8.9304406600000004 7.4448363400000002 O
