lattice_vector 5.1344992899999999 -0.0027793600000000 -0.1232584200000000 
lattice_vector 0.0080781800000000 10.2817725699999993 -0.0275794600000000 
lattice_vector -0.1054561500000000 0.0216957100000000 10.1495648400000000 
atom 1.2760817600000001 0.0285192400000000 1.2353598200000000 La
atom 1.2198780199999999 -0.0952307000000000 6.3114057099999998 Hf
atom 1.2806310400000001 5.1164256699999999 1.2207950299999999 Hf
atom 1.2254107599999999 5.2166870599999999 6.2962953500000003 Hf
atom 1.2226578900000000 2.5271193200000002 3.7959642499999999 Hf
atom 1.2240341500000000 2.5401836800000002 8.8108213200000005 Hf
atom 1.2470508199999999 7.6375007100000003 3.6986270299999999 Hf
atom 1.2078118499999999 7.6502877700000003 8.8795661799999994 Hf
atom 3.8463976299999998 2.6819066500000002 1.1645315100000000 Hf
atom 3.7900301000000001 2.5580217799999998 6.2409165700000004 La
atom 3.8486565599999998 7.6508877000000002 1.1525593300000001 Hf
atom 3.7935003400000000 7.7517209899999999 6.2279207500000000 Hf
atom 3.8445149299999999 0.0596741200000000 3.6791308900000002 Hf
atom 3.7356261000000002 0.0687834000000000 8.8153022599999993 Hf
atom 3.8273325300000001 5.2290597800000000 3.7501001199999999 Hf
atom 3.7601447900000000 5.2389325700000002 8.7189023799999994 Hf
atom 0.0632260300000000 1.5988306999999999 -0.0612207600000000 O
atom 0.1716102800000000 1.3110676200000000 5.0289238300000001 O
atom 0.1741855600000000 6.5703016600000002 0.0238896000000000 O
atom 0.1074405100000000 6.6133290599999999 5.0720368499999999 O
atom -0.2384006200000000 1.2785273100000001 2.5695912600000002 O
atom -0.1321897400000000 0.9911763500000000 7.6611709899999996 O
atom -0.1678352100000000 6.2586800699999996 2.4999005300000001 O
atom -0.2344718100000000 6.3007720400000000 7.5489014799999996 O
atom 0.3283637600000000 3.6999557300000001 2.4250844300000001 O
atom 0.1138166700000000 3.8520762099999999 7.7021058499999997 O
atom 0.0330298400000000 8.8023002100000003 2.5758127499999999 O
atom 0.2767072200000000 8.7409536899999996 7.4681984999999997 O
atom -0.3362734800000000 4.1309650299999996 0.1048071400000000 O
atom -0.0930025300000000 4.0698135300000002 4.9985804700000003 O
atom -0.1769264700000000 9.0192629600000007 -0.1285012600000000 O
atom -0.3911474800000000 9.1732569599999998 5.1491137499999997 O
atom 2.4929175799999999 1.6045422000000000 2.5237477799999999 O
atom 2.2726389500000002 1.3172860900000001 7.5830970400000002 O
atom 2.3875641299999999 6.5743682500000000 2.4115506999999998 O
atom 2.3448854099999998 6.6173040199999997 7.5122782299999997 O
atom 2.7924374699999999 1.2698830699999999 -0.1062167300000000 O
atom 2.5743082300000002 0.9813132300000000 4.9530924699999996 O
atom 2.7295810000000000 6.2518248500000002 -0.0628480100000000 O
atom 2.6867754800000001 6.2935708600000000 5.0371934200000004 O
atom 2.2335644000000001 3.6949612900000002 0.0209912100000000 O
atom 2.3368199900000000 3.8451788599999999 4.8930759100000003 O
atom 2.5293963700000002 8.7929681800000008 -0.1498022100000000 O
atom 2.1737641299999999 8.7314620499999993 5.1099357300000001 O
atom 2.8987125800000002 4.1364658099999998 2.3382810400000000 O
atom 2.5429880499999999 4.0766161700000003 7.5964997600000004 O
atom 2.7387591200000001 9.0228091500000005 2.5545001400000000 O
atom 2.8416263399999999 9.1748282600000000 7.4259207500000004 O
