lattice_vector 9.9776062999999997 0.0241750600000000 -0.0226457300000000 
lattice_vector 0.0731723100000000 10.1627116799999992 0.0643798200000000 
lattice_vector -0.0256531200000000 0.0168052100000000 10.4134070500000000 
atom 1.0740276300000000 0.2543242400000000 2.1927245300000000 Si
atom 1.3593382400000000 0.2156783500000000 6.9244813299999999 Hf
atom 1.4326854700000000 5.3140121000000002 1.8236443800000000 Hf
atom 1.3776932700000000 5.2961139299999997 7.0377119300000004 Hf
atom 1.3806091899999999 2.3998759800000000 4.3696401600000003 Hf
atom 1.4270165500000001 2.2360104399999998 9.6628784700000008 Hf
atom 1.3857809699999999 7.4386034900000002 4.4041152900000000 Hf
atom 1.4496956299999999 7.4512586900000004 9.6225994099999994 Hf
atom 3.6043704100000000 2.7515567600000002 1.7353502400000000 Hf
atom 3.5739369700000001 2.7584606300000001 6.9717645099999999 Hf
atom 3.6672748500000001 7.8469466900000002 1.7015400199999999 Hf
atom 3.6488387699999998 7.8409639200000001 6.9887896999999999 Hf
atom 3.6218479700000001 4.9175343099999997 4.3994836900000003 Hf
atom 3.5787992800000001 4.8490520000000004 9.5892975699999994 Hf
atom 3.6499680200000002 9.9696032100000007 4.3265926400000003 Hf
atom 3.6626242100000002 9.9692357299999994 9.6105665100000000 Hf
atom 6.3926877900000001 0.2626749400000000 0.7836450000000000 Hf
atom 6.3296416300000002 0.2259493500000000 6.0207015400000001 Hf
atom 6.2018431100000004 5.1919577400000003 0.6506287100000000 Si
atom 6.3769124100000001 5.3139638800000002 6.0953242899999998 Hf
atom 6.3471719899999997 2.3989883399999998 3.4217354300000000 Hf
atom 6.3626807000000003 2.3559251300000001 8.6251890400000004 Hf
atom 6.4403446200000003 7.3688650700000000 3.4065095500000000 Hf
atom 6.4123642199999997 7.4232704500000004 8.7629124399999991 Hf
atom 8.5648227899999991 2.8456513100000000 0.8676412900000000 Hf
atom 8.5878969299999994 2.7944412600000001 6.0380990399999996 Hf
atom 8.6838137500000006 7.8774785999999999 0.9106183100000000 Hf
atom 8.5979604900000002 7.8573907700000003 6.0997853099999997 Hf
atom 8.5937024300000004 4.9540999000000001 3.4231623199999999 Hf
atom 8.6107422400000004 4.8966501500000001 8.7319577800000001 Hf
atom 8.5554378799999995 9.9699615599999998 3.5225230800000000 Hf
atom 8.6526673800000005 9.9897520600000007 8.6812788300000001 Hf
atom 0.6148089799999999 1.4821481599999999 1.0686768200000001 O
atom 0.3438763600000000 1.7415232000000000 6.0978907099999997 O
atom 0.4446044400000000 6.8250934100000000 0.9549879000000000 O
atom 0.3665162900000000 6.8047327700000002 6.1516569600000004 O
atom 0.3007076900000000 0.8083134600000000 3.5828301699999998 O
atom 0.3394610500000000 0.8367009300000000 8.6944221699999993 O
atom 0.4229387200000000 5.8766304700000003 3.5838396100000001 O
atom 0.3648619800000000 5.8983928499999996 8.7926205599999996 O
atom 4.7693609400000003 4.2363318400000001 0.8472695500000000 O
atom 4.6521253400000004 4.2461356400000003 6.0826785499999998 O
atom 4.8140412499999998 9.2715112200000007 0.8658212000000000 O
atom 4.6845020499999999 9.3101912500000008 6.0497427600000000 O
atom 4.6339548400000004 3.4091127200000000 3.4795855000000002 O
atom 4.6434345500000003 3.3995672799999999 8.6566640100000001 O
atom 4.6697231400000003 8.4666575700000006 3.4003352499999999 O
atom 4.6939100399999996 8.4565056599999995 8.7068894700000001 O
atom 2.5610396000000000 1.2238747900000000 2.8824841999999999 O
atom 2.7338489600000000 1.2283747100000000 8.1781424200000004 O
atom 2.8020174600000001 6.4285576799999999 3.0718650599999999 O
atom 2.7937907800000001 6.3253959499999999 8.2905441700000004 O
atom 3.0691094600000000 1.4486741299999999 0.2509474600000000 O
atom 2.7671493100000002 1.3117901100000000 5.5623145799999998 O
atom 2.8477958299999999 6.3321490899999997 0.4825676100000000 O
atom 2.7713228200000000 6.3879656400000000 5.6945159900000002 O
atom 2.2663448700000002 3.8300051000000002 3.0899924699999999 O
atom 2.2054680599999998 3.7604432200000000 8.3052887399999999 O
atom 2.1442455499999999 9.0332158800000002 2.9323872400000002 O
atom 2.2694150099999999 8.8666267500000000 8.2354631600000001 O
atom 2.2528603500000002 3.8559543100000000 0.4902417700000000 O
atom 2.2124688400000001 3.8554851999999999 5.6825041100000000 O
atom 2.4086621300000002 8.8629148999999998 0.3983071300000000 O
atom 2.2734852399999999 8.9408333500000001 5.6156677999999998 O
atom 5.3613414600000002 1.7263094500000000 1.7034642099999999 O
atom 5.3091498200000000 1.7163285900000000 6.8978121999999997 O
atom 5.6037637100000000 6.5488755599999999 1.6475081000000000 O
atom 5.3645327900000002 6.7630996500000000 7.0258189599999996 O
atom 5.3009784399999997 0.8828781400000000 4.2625660099999996 O
atom 5.3883160400000003 0.8091178500000000 9.4449418200000004 O
atom 5.3375361500000000 5.9844767399999999 4.3784561999999996 O
atom 5.3929758300000001 5.8520322499999997 9.6159173399999993 O
atom 9.6957347100000000 4.2206628400000001 1.7795584400000000 O
atom 9.6289804799999992 4.2624253699999999 6.9934567500000000 O
atom 9.7878540399999991 9.4262105900000002 1.8405942300000000 O
atom 9.6629323500000002 9.3712570999999993 6.9470993200000004 O
atom 9.6241749599999995 3.4233918800000001 4.3362619100000002 O
atom 9.6371262899999994 3.3650643599999999 9.6426171699999994 O
atom 9.6402207000000004 8.4983637400000003 4.3828582599999999 O
atom 9.6799991599999995 8.4710629199999996 9.5477391399999991 O
atom 7.7836594600000000 1.3252959600000001 9.9690668299999992 O
atom 7.7118380100000001 1.2755156100000000 4.7608277299999999 O
atom 7.6609413899999996 6.2575047300000000 10.2492166400000002 O
atom 7.7538913300000001 6.3369030999999998 4.8715298200000001 O
atom 7.7921956999999997 1.4278796199999999 2.1784417800000000 O
atom 7.7343818300000002 1.3155497100000000 7.3391164099999999 O
atom 8.0980336299999998 6.6635150999999997 2.4232206999999999 O
atom 7.7944991500000000 6.4059255500000001 7.5029753100000001 O
atom 7.1102516099999997 3.8738009999999998 10.0286367700000003 O
atom 7.2126378400000002 3.8289411499999999 4.7237543200000003 O
atom 7.2978340499999996 8.9043369800000001 10.0011116500000004 O
atom 7.2163110000000001 8.8775817600000000 4.7847004000000002 O
atom 7.1394963100000002 4.1544804600000003 2.0106727300000000 O
atom 7.2301409100000003 3.8598727600000000 7.3842138799999999 O
atom 7.2754147099999997 9.0221018999999991 2.1809283800000001 O
atom 7.2358300199999999 8.9283916199999993 7.4096538900000004 O
