lattice_vector 10.1360547499999996 -0.0652817900000000 -0.0470955000000000 
lattice_vector 0.0984985000000000 10.2134876699999992 -0.0191752900000000 
lattice_vector 0.1192526300000000 -0.0199723100000000 10.0662427200000000 
atom 1.1387159300000000 0.1064225800000000 1.2751919800000000 Si
atom 1.1567399100000000 -0.0402680900000000 6.1837212299999997 Hf
atom 1.4101336900000001 5.1930923399999998 1.2482055800000000 Hf
atom 1.4495308200000001 5.2520813899999998 6.4375877499999996 La
atom 6.2639443400000001 0.0522423700000000 1.2021481400000000 Hf
atom 6.4747915000000003 -0.1995978400000000 6.2485490300000004 Hf
atom 6.2875325200000001 4.9445838000000002 1.2526373399999999 Hf
atom 6.5369282899999996 4.8654058800000000 6.1598851699999999 Hf
atom 1.4009015199999999 2.7310044000000002 3.9902661400000001 Hf
atom 1.4299761600000001 2.5222236499999999 8.9896465400000007 Hf
atom 1.2916316999999999 7.7686278599999996 3.6274545900000001 Hf
atom 1.4529996199999999 7.7087165200000003 8.8195082599999992 La
atom 6.3251793000000003 2.4334044399999999 3.7563966299999998 Hf
atom 6.4885400100000004 2.4415956400000001 8.7097112400000007 Hf
atom 6.2038484599999997 7.7274662599999999 3.6077989700000002 Hf
atom 6.6221730599999997 7.6322983200000003 8.8575510299999998 Hf
atom 3.7973360100000000 2.4482868099999999 1.2121760200000000 Hf
atom 3.8042444099999999 2.4213189200000000 6.4838591100000000 Hf
atom 3.9050459000000002 7.5848714900000003 1.0938580300000000 Hf
atom 3.8897724800000000 7.8322000500000000 6.0027004699999997 Hf
atom 8.9523406500000000 2.5188217900000001 1.3053588300000001 Hf
atom 9.1341511000000004 2.5514148300000001 6.3839841300000000 Hf
atom 8.8140779800000004 7.3814069599999996 1.3269490300000000 Hf
atom 9.0434869700000000 7.6534632599999997 6.0693297599999996 Hf
atom 3.6661283700000000 0.1763023000000000 3.7428439199999999 Hf
atom 4.0221692700000000 -0.1877651300000000 8.6647849800000003 Hf
atom 3.9453475400000002 5.0812690700000003 3.8444061000000000 Hf
atom 4.2355843499999999 5.1424936900000002 8.6514513199999996 Hf
atom 8.7900620499999995 -0.0858311700000000 3.5800070800000001 Hf
atom 9.0312741100000000 -0.0376201800000000 8.7775300699999992 Hf
atom 8.9402046599999991 4.9276164299999996 3.7881661499999999 Hf
atom 9.0486724800000005 4.8827290000000003 8.9770798999999997 Hf
atom -0.4341562500000000 1.6607233100000001 -0.2939397500000000 O
atom -0.1547120300000000 1.4266166199999999 4.8689422300000000 O
atom -0.0124626800000000 6.4593800500000000 0.1210046700000000 O
atom 0.2050057300000000 6.6690880100000003 4.9636725100000003 O
atom 4.8073202899999998 1.2860320100000000 -0.1019333100000000 O
atom 4.8415352599999997 1.5613161700000000 4.9059347300000002 O
atom 5.1396484700000000 6.4403402800000000 -0.0157659500000000 O
atom 5.3329085300000001 6.5557632300000002 5.1061161500000001 O
atom -0.0053481400000000 0.9115938800000000 2.1891740600000000 O
atom 0.3326337700000000 1.2598766100000001 7.4639510099999997 O
atom -0.0509290600000000 6.0416113500000002 2.5436302099999999 O
atom 5.1102909399999996 1.0752098000000001 2.4619035500000002 O
atom 5.3266586699999996 1.0257843900000001 7.4331904900000003 O
atom 5.0270919200000002 6.2100965500000003 2.4804873800000000 O
atom 5.9931018399999996 6.0181466500000003 7.7319259499999999 O
atom -0.0840591100000000 3.4542923600000002 2.7633478700000000 O
atom 0.1253954400000000 3.7038298400000000 7.7958737100000004 O
atom -0.2860213600000000 8.5907403400000000 2.6158161000000000 O
atom 0.0303253800000000 8.9672720800000008 7.4461718499999998 O
atom 4.9905245400000000 3.6418802299999999 2.3846824099999999 O
atom 5.2322181499999996 3.5948144800000001 7.3752693200000001 O
atom 4.7734889200000001 8.7810108000000007 2.5297838800000001 O
atom 5.1959686899999999 8.6369116399999992 7.5191372100000002 O
atom 0.0429746300000000 3.9996607599999998 0.2332268900000000 O
atom 0.0766133400000000 3.9718247700000000 5.1635923799999999 O
atom 0.4050894000000000 9.4535792399999998 0.1139960700000000 O
atom 0.0214354100000000 9.1482450600000007 4.9606859900000000 O
atom 5.1650556300000003 3.8332066600000001 -0.1432834500000000 O
atom 5.3621314399999997 4.0326035200000003 4.7849254300000004 O
atom 5.4661407200000003 8.9384760599999993 -0.0524483500000000 O
atom 5.1460298499999997 9.1897677800000004 4.9570184900000003 O
atom 2.7560658700000000 1.8008674600000001 2.8333999099999998 O
atom 2.8713202700000000 1.3989562700000000 7.9684142199999997 O
atom 2.3408117399999999 6.9169324699999999 2.1551890399999998 O
atom 3.2815780499999998 6.5082916600000003 7.4222647100000003 O
atom 7.6303699399999996 1.3588371600000000 2.3380190999999999 O
atom 7.8705186999999999 1.1988281100000000 7.3359237700000000 O
atom 7.5377225599999997 6.4325060699999996 2.6211624599999999 O
atom 9.5797644599999998 6.2761257600000002 7.5653136800000000 O
atom 2.0923224800000000 1.1361359400000000 0.4109104100000000 O
atom 2.4153811300000001 1.2424542500000000 5.2578775300000000 O
atom 2.7035422300000000 6.0550902700000000 -0.1056579100000000 O
atom 2.7867708200000001 6.4791101900000001 4.7711309999999996 O
atom 7.2739271399999996 0.8824342700000000 -0.3096738700000000 O
atom 7.2990690300000001 0.8069203300000000 4.7124594000000002 O
atom 7.5620769599999997 6.0929638500000003 -0.0411160000000000 O
atom 7.9724878700000001 5.9605179899999996 5.3389705999999997 O
atom 2.4766671300000000 3.5981187200000000 0.3197625400000000 O
atom 2.8137258699999999 3.7244950399999999 5.1939398299999997 O
atom 3.0078888400000001 8.8215067200000004 -0.1712863900000000 O
atom 2.5939793099999999 8.9300513400000003 4.7688968999999997 O
atom 7.6142849000000004 3.5045187900000001 0.0261117200000000 O
atom 7.7189580500000003 3.3528493099999999 5.0539639699999999 O
atom 8.1273971500000002 8.5722622699999995 -0.2374801600000000 O
atom 7.6758687800000001 8.5508214999999996 4.8221162599999996 O
atom 2.3314054799999999 4.3631207500000002 2.8621349100000000 O
atom 2.7609014699999999 3.8718209099999998 7.8563703100000000 O
atom 2.1619177700000001 9.5410433399999999 2.3772960300000001 O
atom 2.7265339100000001 9.1751118399999996 7.2440951499999997 O
atom 7.5669379899999996 3.9348334600000001 2.5405256800000000 O
atom 7.7590645399999998 3.8513115099999999 7.5878084699999997 O
atom 7.4115206599999999 8.9930085900000005 2.3288187400000000 O
atom 7.6714409300000002 8.7248304700000006 7.3824349099999997 O
