lattice_vector 10.1551045099999993 -0.0401566800000000 0.8502759200000000 
lattice_vector -0.0358090600000000 10.3940445700000001 0.0134052000000000 
lattice_vector 0.3972743000000000 0.0349575300000000 5.1907382899999996 
atom 1.4663614300000001 0.1609396500000000 1.5510806500000001 La
atom 1.4861900100000001 5.4162261999999997 1.6287612800000000 Hf
atom 6.6457190500000003 0.1971002400000000 2.0689966800000001 Hf
atom 6.6100037100000000 5.3956299200000002 2.0727209599999998 Hf
atom 1.6159075700000001 2.4846707200000000 4.1930970800000003 Hf
atom 1.7048644200000000 7.5742323499999999 4.2088369099999996 Hf
atom 6.7719730599999997 2.3756253200000002 4.6716958499999999 Hf
atom 6.7897450900000003 7.5535252799999997 4.6549314600000002 Hf
atom 3.7946622200000002 2.8727808200000000 1.4654161000000001 Hf
atom 3.7581669000000000 7.9418367099999996 1.3439620400000001 Hf
atom 8.8074238200000003 2.8277016599999998 1.8231579200000001 Hf
atom 8.7923244599999997 7.9701898000000000 1.8191509400000001 Hf
atom 3.9319221700000000 4.9874358100000000 4.0050118799999996 Hf
atom 4.0009221600000000 10.0790015799999999 3.8692202400000002 Hf
atom 8.9807652999999998 4.9966211100000004 4.4028481099999999 Hf
atom 8.9499795700000000 10.1690403400000005 4.4759775599999996 Hf
atom 0.4868028000000000 2.0904181799999999 0.9058836500000000 O
atom 0.4677635300000000 7.0752326800000001 0.9335260200000000 O
atom 5.4806899800000002 1.7356333399999999 1.3140206299999999 O
atom 5.5082215300000001 6.9201465899999999 1.3189727899999999 O
atom 0.5831428300000000 0.8286296300000000 3.7031103200000000 O
atom 0.6214445000000000 6.0060423099999998 3.4950314699999998 O
atom 5.7275003699999996 0.8067562600000000 3.8985406199999999 O
atom 5.7073140499999999 5.9872568700000004 3.9184940699999999 O
atom 4.8502503600000004 4.3597189800000002 2.1878966599999998 O
atom 4.8360539800000000 9.5495479000000003 2.0801984899999999 O
atom 9.8217678399999997 4.4713284000000000 2.5090779900000002 O
atom 9.5970368399999995 9.6090315799999999 2.5956091400000001 O
atom 5.0090061700000001 3.4064028899999999 4.7725463100000001 O
atom 5.0827387499999999 8.5801995899999994 4.7205018799999996 O
atom 10.0140002799999994 3.4077796800000000 5.0782800500000000 O
atom 10.0987820100000008 8.5914993000000006 5.1562338399999996 O
atom 3.0873479399999999 1.4245029700000000 2.8886426599999999 O
atom 2.9877021500000001 6.4791273699999996 2.7192673799999998 O
atom 8.0685809699999993 1.3625751100000001 3.1935078200000002 O
atom 8.0469365499999999 6.5330076999999998 3.1668481399999999 O
atom 3.1581689599999998 6.4386391900000000 5.3242017600000002 O
atom 8.2352754299999997 1.2752187600000000 5.7939751499999996 O
atom 8.2626454799999998 6.4438563300000000 5.7686069299999998 O
atom 2.3025237800000000 3.9131212700000000 0.2925789000000000 O
atom 2.4085968000000002 9.0543025400000001 0.1286760900000000 O
atom 7.3190413200000002 3.9251938700000002 0.7184151300000000 O
atom 7.3367504800000001 9.0990818499999992 0.7288196400000000 O
atom 2.4464945500000002 3.9083448900000000 2.8755085000000000 O
atom 2.5661972999999998 8.9043566100000007 2.8473619000000001 O
atom 7.5274374399999999 3.8462602800000001 3.3190674300000000 O
atom 7.4181888799999998 9.0168885999999997 3.3385110500000001 O
