lattice_vector 10.1696360000000006 -0.0333020000000000 0.8108070000000001 
lattice_vector -0.0312190000000000 10.3366179999999996 -0.0108500000000000 
lattice_vector 0.8268480000000000 0.0007270000000000 10.4202929999999991 
atom 1.4143520000000001 0.0861510000000000 1.5277350000000001 La
atom 1.9558780000000000 0.2156010000000000 6.8386129999999996 Hf
atom 1.3984770000000000 5.2538640000000001 1.5221870000000000 La
atom 1.9402150000000000 5.3836649999999997 6.8332129999999998 Hf
atom 6.6374290000000000 0.1583400000000000 2.0534050000000001 Hf
atom 7.0446489999999997 0.1991050000000000 7.2639829999999996 Hf
atom 6.6219619999999999 5.3266650000000002 2.0479069999999999 Hf
atom 7.0289910000000004 5.3672639999999996 7.2584559999999998 Hf
atom 1.7310440000000000 2.3270569999999999 4.2365899999999996 Hf
atom 2.1688850000000000 2.4012699999999998 9.4070190000000000 Hf
atom 1.7156130000000001 7.4952790000000000 4.2310230000000004 Hf
atom 2.1534810000000002 7.5695100000000002 9.4013130000000000 Hf
atom 6.7661100000000003 2.3341690000000002 4.6667730000000001 Hf
atom 7.2827999999999999 2.3456299999999999 9.8464569999999991 Hf
atom 6.7506209999999998 7.5026650000000004 4.6611130000000003 Hf
atom 7.2672860000000004 7.5140050000000000 9.8408569999999997 Hf
atom 3.8033070000000002 2.7152669999999999 1.3609030000000000 Hf
atom 4.1463700000000001 2.7885520000000001 6.5705130000000000 Hf
atom 3.7876430000000001 7.8834510000000000 1.3552299999999999 Hf
atom 4.1309589999999998 7.9567990000000002 6.5650009999999996 Hf
atom 8.7954390000000000 2.7375020000000001 1.7749509999999999 Hf
atom 9.2746069999999996 2.7848619999999999 6.9964219999999999 Hf
atom 8.7802500000000006 7.9057029999999999 1.7690990000000000 Hf
atom 9.2592809999999997 7.9532360000000004 6.9908739999999998 Hf
atom 3.9315690000000001 4.9265319999999999 3.9575179999999999 Hf
atom 4.4167230000000002 4.9286180000000002 9.1593719999999994 Hf
atom 3.9158130000000000 10.0946809999999996 3.9520879999999998 Hf
atom 4.4008620000000001 10.0968049999999998 9.1538789999999999 Hf
atom 8.9513859999999994 4.9375260000000001 4.4538859999999998 Hf
atom 9.4708120000000005 4.9237099999999998 9.5991859999999996 Hf
atom 8.9358079999999998 10.1055740000000007 4.4484260000000004 Hf
atom 9.4552510000000005 10.0919200000000000 9.5937570000000001 Hf
atom 0.5032180000000001 2.1363300000000001 0.9285670000000000 O
atom 0.8735840000000000 1.8138749999999999 6.1495780000000000 O
atom 0.4877410000000000 7.3039899999999998 0.9226460000000000 O
atom 0.8580480000000000 6.9819589999999998 6.1440780000000004 O
atom 5.5537549999999998 1.6954070000000001 1.2567919999999999 O
atom 5.8901389999999996 1.7045399999999999 6.4955679999999996 O
atom 5.5381190000000000 6.8636429999999997 1.2513150000000000 O
atom 5.8747160000000003 6.8727760000000000 6.4900580000000003 O
atom 0.5363350000000000 0.8293620000000000 3.6309279999999999 O
atom 1.1097379999999999 0.7673790000000000 8.7686130000000002 O
atom 0.5208570000000000 5.9977070000000001 3.6251310000000001 O
atom 1.0942559999999999 5.9357749999999996 8.7626830000000009 O
atom 5.7043340000000002 0.8003550000000000 3.8789069999999999 O
atom 6.1780879999999998 0.8189240000000000 9.0756910000000008 O
atom 5.6889849999999997 5.9688210000000002 3.8732080000000000 O
atom 6.1625889999999997 5.9873589999999997 9.0701239999999999 O
atom 4.8678640000000000 4.2934539999999997 2.1290369999999998 O
atom 5.2893980000000003 4.2940220000000000 7.3457260000000000 O
atom 4.8521330000000003 9.4619890000000009 2.1232920000000002 O
atom 5.2738579999999997 9.4625000000000004 7.3400819999999998 O
atom 9.4694299999999991 4.4951999999999996 2.4830679999999998 O
atom 10.3349049999999991 4.3611969999999998 7.7264609999999996 O
atom 9.4543940000000006 9.6625259999999997 2.4782739999999999 O
atom 10.3195320000000006 9.5296319999999994 7.7210619999999999 O
atom 5.0380510000000003 3.3938280000000001 4.7620790000000000 O
atom 5.6082159999999996 3.4413230000000001 9.9531539999999996 O
atom 5.0222889999999998 8.5619549999999993 4.7565640000000000 O
atom 5.5926010000000002 8.6094969999999993 9.9474760000000000 O
atom 10.1242959999999993 3.3820459999999999 5.1127229999999999 O
atom 10.5281839999999995 3.3510059999999999 10.2864909999999998 O
atom 10.1087229999999995 8.5501360000000002 5.1075499999999998 O
atom 10.5125130000000002 8.5191090000000003 10.2810819999999996 O
atom 3.0594800000000002 1.3018140000000000 2.7809029999999999 O
atom 3.4220709999999999 1.3291900000000001 7.9102319999999997 O
atom 3.0438049999999999 6.4699840000000002 2.7752210000000002 O
atom 3.4064800000000002 6.4974200000000000 7.9046120000000002 O
atom 8.0384239999999991 1.3545579999999999 3.1842440000000001 O
atom 8.5374599999999994 1.3178650000000001 8.3511729999999993 O
atom 8.0227480000000000 6.5229970000000002 3.1785160000000001 O
atom 8.5216999999999992 6.4860749999999996 8.3453510000000009 O
atom 3.1921629999999999 1.2301970000000000 5.3405430000000003 O
atom 3.7065039999999998 1.2607820000000001 10.4359620000000000 O
atom 3.1765020000000002 6.3985230000000000 5.3350840000000002 O
atom 3.6907869999999998 6.4289759999999996 10.4305070000000004 O
atom 8.2516250000000007 1.2383240000000000 5.7813679999999996 O
atom 8.7338260000000005 1.2019820000000001 10.9641289999999998 O
atom 8.2360299999999995 6.4065490000000000 5.7757589999999999 O
atom 8.7179950000000002 6.3701580000000000 10.9585760000000008 O
atom 2.4777320000000000 3.7882590000000000 0.1120900000000000 O
atom 2.6759689999999998 3.9196170000000001 5.4781930000000001 O
atom 2.4619399999999998 8.9564950000000003 0.1066180000000000 O
atom 2.6602749999999999 9.0879410000000007 5.4728490000000001 O
atom 7.3651059999999999 3.8813920000000000 0.6720720000000000 O
atom 7.7669600000000001 3.8899119999999998 5.9237149999999996 O
atom 7.3494830000000002 9.0497709999999998 0.6666780000000000 O
atom 7.7513560000000004 9.0581689999999995 5.9183159999999999 O
atom 2.5790030000000002 3.6992660000000002 2.9047239999999999 O
atom 2.8987270000000001 3.8389000000000002 8.0400419999999997 O
atom 2.5632579999999998 8.8673739999999999 2.8990510000000000 O
atom 2.8830559999999998 9.0071480000000008 8.0342260000000003 O
atom 7.4189100000000003 3.8093010000000000 3.3546060000000000 O
atom 8.0157249999999998 3.8101850000000002 8.4886730000000004 O
atom 7.4027130000000003 8.9778450000000003 3.3491740000000001 O
atom 8.0001149999999992 8.9784790000000001 8.4829860000000004 O
