lattice_vector 9.9861882299999998 -0.0322526400000000 -0.0649305200000000 
lattice_vector -0.0100163000000000 10.4061957599999992 0.0373293300000000 
lattice_vector -0.0822669300000000 -0.0092495400000000 5.0335069199999998 
atom 1.1342876300000000 0.0384035200000000 1.2779129100000000 La
atom 1.2991849900000001 5.3853551499999996 1.1625256700000000 Hf
atom 6.2882838100000003 0.1877825200000000 1.2254449199999999 Hf
atom 6.2815918200000000 5.3488267900000004 1.2605722500000001 Hf
atom 1.2923817099999999 2.4402882199999998 3.7321205900000001 Hf
atom 1.3357247299999999 7.6066470400000004 3.6566082199999999 Hf
atom 6.2376609299999997 2.4451545900000000 3.7370086499999999 Hf
atom 6.2761756699999998 7.6045296599999999 3.8393299000000001 Hf
atom 3.5893622700000001 2.7454281800000002 1.2469299500000000 Hf
atom 3.6732957300000000 7.9489491100000000 1.2003836100000000 Hf
atom 8.6040836899999995 2.8311020299999998 1.2222074900000000 Hf
atom 8.5190310399999998 7.9003681300000004 1.4637258900000001 Hf
atom 3.5823059000000002 5.0047406099999998 3.7518057699999998 Hf
atom 3.5892584799999998 10.2301585799999994 3.7719784299999999 Hf
atom 8.5853423600000003 4.9894371399999997 3.7736250299999998 Hf
atom 8.4439311999999997 10.2640396400000000 3.8277394400000002 Hf
atom 0.3138672100000000 2.1076882000000001 1.8977540600000000 O
atom 0.4421957100000000 7.2944887300000003 1.5619469800000001 O
atom 5.3499072099999996 1.9300257100000000 1.8862698200000001 O
atom 5.3368257200000002 7.1020221599999998 1.9736291699999999 O
atom 0.2657892100000000 0.6781676000000000 4.0887847800000001 O
atom 0.3126773300000000 5.9301020800000002 4.3147126499999997 O
atom 5.3390870300000000 0.6551137000000000 4.3866142999999997 O
atom 5.2899926900000001 5.8843237999999998 4.4798849100000000 O
atom 4.6047039700000001 4.5015486300000003 1.9454117099999999 O
atom 4.5915074899999997 9.7530728700000004 1.9053569299999999 O
atom 9.5337305200000007 4.6475941599999997 1.8467147799999999 O
atom 9.5380722400000000 8.5894517599999993 3.3737761300000000 O
atom 4.5540055700000002 3.2738667900000000 4.4435168999999997 O
atom 4.6369098199999996 8.5143431300000003 4.4978781999999997 O
atom 9.5585059099999992 3.2914712800000001 4.4172514400000003 O
atom 2.7486129199999998 1.3091454100000000 2.5458525500000002 O
atom 2.6162721800000002 6.3906953000000000 2.4571480100000000 O
atom 7.6769893199999997 1.2413780200000000 2.4760395200000000 O
atom 7.6188688700000000 6.4267084700000003 2.5796426200000000 O
atom 2.6226468000000001 1.3569271500000000 4.9949000699999999 O
atom 2.6822798400000001 6.5132637700000000 4.9753320199999997 O
atom 7.5961395200000004 1.4028764400000000 5.0146290799999997 O
atom 7.6760966899999996 6.5546474500000000 5.0894117799999998 O
atom 2.2095258699999998 3.9705297599999998 4.9933078399999999 O
atom 2.2299976199999998 9.0491183900000003 4.9188464700000001 O
atom 7.1714030400000004 3.9817787500000001 4.9964074700000003 O
atom 7.2868013999999999 9.0708953500000007 5.1129909900000001 O
atom 2.2337877300000000 3.8531325500000002 2.4688309500000001 O
atom 2.4350939399999998 8.9213377400000002 2.5189359900000001 O
atom 7.2456545999999999 3.8394283699999998 2.4948890200000000 O
atom 7.1443550399999998 9.0932654399999997 2.5658218100000001 O
