lattice_vector 9.9774653900000008 -0.0059725900000000 0.0079910700000000 
lattice_vector 0.0195839800000000 10.4177028499999995 -0.0902445300000000 
lattice_vector -0.0008874200000000 -0.0716769100000000 9.9959402500000003 
atom 1.1467985599999999 0.3432968400000000 1.1198202600000000 Si
atom 1.3887863899999999 0.1718797300000000 6.2545013100000002 Hf
atom 1.3029499899999999 5.3543363099999999 1.1880329500000000 Hf
atom 1.3566430800000000 5.3393467000000001 6.2226040700000000 Hf
atom 6.3283734300000001 0.1766157300000000 1.2633320900000000 Hf
atom 6.3114222199999999 0.1007988400000000 6.2185376999999997 Hf
atom 6.3560827499999997 5.3780367299999998 1.2563569999999999 Hf
atom 6.2060550699999997 5.2211203599999996 6.0752555600000004 Hf
atom 1.3346778900000000 2.3276219500000002 3.6631930399999999 Hf
atom 1.3311767800000001 2.4226975400000001 8.7477693399999996 Hf
atom 1.4066023800000000 7.5514917700000002 3.7072666000000001 Hf
atom 1.3529840500000001 7.6405972999999996 8.7307870399999992 Hf
atom 6.3388848400000004 2.3783896699999998 3.7646733499999998 Hf
atom 6.3070048600000002 2.3804943100000000 8.6955736100000003 Hf
atom 6.3940335299999997 7.6323773900000003 3.7179508900000000 Hf
atom 6.2050679400000002 7.7115430600000003 8.6609065899999997 La
atom 3.7116534300000001 2.7579493799999999 1.1646289400000001 Hf
atom 3.6332403200000001 2.7367211100000000 6.2429677300000002 Hf
atom 3.6705478100000000 7.9098109699999997 1.2500679500000000 Hf
atom 3.6775523200000002 7.9845697199999996 6.2058914100000004 Hf
atom 8.6094670600000001 2.7642315700000002 1.2247163500000000 Hf
atom 8.6596212799999996 2.7306945400000000 6.2172281399999996 Hf
atom 8.7455685699999997 8.0006876200000008 1.1338056100000000 Hf
atom 8.7919127400000008 8.0526330000000002 6.0682353999999998 Hf
atom 3.6648024200000000 4.9467383199999997 3.6980130199999999 Hf
atom 3.6131414899999998 5.0105054500000001 8.7395432700000004 Hf
atom 3.6514433999999998 10.1774394099999999 3.6070770699999999 Hf
atom 3.5387173500000002 10.2410948000000008 8.8136931999999995 Hf
atom 8.6656138600000006 4.9992858000000000 3.7364840099999999 Hf
atom 8.6518097300000001 4.9386090700000000 8.7441712999999996 Hf
atom 8.7336306799999992 10.2615754399999997 3.5928477000000001 Hf
atom 8.6905501199999993 10.2458696699999994 8.6352748399999992 Hf
atom 0.3545592200000000 1.8466230500000000 1.8087385700000000 O
atom 0.3387231200000000 1.8846855000000000 6.9932728800000001 O
atom 0.3866961000000000 7.1075446099999997 1.8977867399999999 O
atom 0.3495394400000000 7.0814352600000001 6.9179974399999997 O
atom 5.2703639700000000 1.8602034100000000 2.0273247699999999 O
atom 5.3377770800000004 1.8474231299999999 6.9028345299999998 O
atom 5.4088631899999999 7.1431723500000004 1.8970540499999999 O
atom 5.3591418800000001 6.9672158000000000 6.6315443399999996 O
atom 0.3560483700000000 0.6749556400000000 4.5047494600000002 O
atom 0.3383879700000000 0.6630166600000000 9.5683439499999992 O
atom 0.3680547200000000 5.8520461800000003 4.4336803600000003 O
atom 0.3730762200000000 5.8420237899999998 9.3680211599999996 O
atom 5.3544085800000003 0.6472751100000000 4.4347095300000001 O
atom 5.2886391599999998 0.6403352800000000 9.5035351000000006 O
atom 5.4208926399999999 5.8200483199999997 4.2287827499999997 O
atom 5.2357932199999997 5.7534635500000002 9.5549879099999995 O
atom 4.6691073699999999 4.4595095100000002 1.9077015700000000 O
atom 4.5803638400000004 4.4581701400000000 6.9541115099999997 O
atom 4.7208549199999998 9.6792258499999999 1.8759012600000000 O
atom 4.7480746700000003 9.6036485700000007 7.0366829199999996 O
atom 9.6405230999999993 4.4622639099999999 1.9421610700000000 O
atom 9.5904250799999993 4.5125545000000002 6.8939403400000003 O
atom 9.8953125899999996 9.8015683500000002 1.7944703900000001 O
atom 9.7565324800000006 9.7207575300000002 6.8759532800000001 O
atom 4.7191818000000003 3.3064299099999999 4.5298402299999996 O
atom 4.5803617399999998 3.1949684700000001 9.3669800300000006 O
atom 4.7186089500000001 8.5063529500000001 4.4486608099999998 O
atom 4.2525718599999998 8.4663554300000001 9.4171137900000002 O
atom 9.6512098500000008 3.2219023500000001 4.3926162099999999 O
atom 9.6048758999999997 3.2578413700000000 9.4232717099999999 O
atom 9.6977377300000001 8.5070155300000003 4.3062492900000002 O
atom 9.6081825100000007 8.4467227099999995 9.3097442200000007 O
atom 2.3636886499999998 0.8290052400000000 2.3917390500000000 O
atom 2.7129815800000001 1.2134582199999999 7.4966426799999999 O
atom 2.6755187899999999 6.2416549999999997 2.4426783400000001 O
atom 2.7124474599999999 6.4259809700000003 7.4640745900000001 O
atom 7.6997099000000002 1.2117675800000001 2.4569865300000000 O
atom 7.6722425200000002 1.1914383200000001 7.4590424799999999 O
atom 7.7440012700000000 6.4132654499999999 2.5003240500000001 O
atom 2.7457444400000002 1.3597819900000001 4.9057050799999997 O
atom 2.5808135700000001 1.3705052600000001 10.0297714700000000 O
atom 2.7593616200000000 6.5235159899999999 4.9557101200000000 O
atom 2.6180111699999999 6.5559750000000001 9.9819923300000006 O
atom 7.7124168800000001 1.3389232700000000 4.9613667599999998 O
atom 7.6452884100000000 1.3729803899999999 9.9452219500000005 O
atom 7.7068091499999998 6.5427835099999996 5.0844250500000001 O
atom 7.7999519299999998 6.4434430599999999 9.9529446499999992 O
atom 2.2968193499999998 3.9237872700000000 4.9547380900000002 O
atom 2.2894496300000000 3.9437744700000001 9.9589608399999996 O
atom 2.3394551899999998 9.1598502600000007 4.9973935300000001 O
atom 2.0858534199999998 9.3784343600000000 10.2048989399999996 O
atom 7.3424374300000004 3.9126884600000000 4.9342123100000004 O
atom 7.2538344199999996 3.9033617600000001 9.9575301300000003 O
atom 7.3750490600000003 9.2014470399999997 4.8325085899999998 O
atom 7.4341681900000003 9.2822850799999994 9.9557501899999998 O
atom 2.3719669799999998 3.6507448199999999 2.4527159699999999 O
atom 2.2420312800000000 3.7974808000000002 7.4636995099999996 O
atom 2.5464891399999998 8.7362861100000000 2.6254403399999999 O
atom 2.3006755399999999 9.0491714900000009 7.5156623400000004 O
atom 7.2795675299999996 3.7883777300000001 2.4686895299999998 O
atom 7.2621872800000000 3.8107580400000001 7.4403677500000001 O
atom 7.4209588999999996 9.0036921200000002 2.3846845900000000 O
atom 7.4654484800000001 9.0468832900000002 7.2815425500000002 O
