lattice_vector 10.0073853300000000 0.0113034300000000 -0.0089744500000000 
lattice_vector -0.0069959000000000 5.1960774599999997 -0.0013134000000000 
lattice_vector -0.0032433000000000 -0.0206174500000000 10.0542764400000006 
atom 1.1216120900000000 0.0284018300000000 1.2972435200000001 La
atom 1.3387291500000000 0.1666752800000000 6.2773818500000003 Hf
atom 6.3383799500000002 0.1413485400000000 1.2454326400000000 Hf
atom 6.3023693099999996 0.1611571300000000 6.2927945400000000 Hf
atom 1.3572160099999999 2.4377163099999999 3.8037852299999999 Hf
atom 1.3652016800000000 2.4226995200000001 8.7913263900000000 Hf
atom 6.3185889800000004 2.4183483400000001 3.7677411200000002 Hf
atom 6.3068494900000003 2.4069618300000002 8.7736898900000000 Hf
atom 3.6694645499999998 2.7003630799999998 1.2610640700000000 Hf
atom 3.6386851999999998 2.7653478699999998 6.2909189999999997 Hf
atom 8.5709204600000000 2.7234636299999999 1.2029187100000001 Hf
atom 8.6638308599999991 2.7707195699999998 6.2715327199999997 Hf
atom 3.6582192400000002 5.0181830900000000 3.7633685200000002 Hf
atom 3.6456458199999999 5.0031353799999998 8.8170685399999993 Hf
atom 8.5801512300000002 5.0244379700000001 3.8697329599999999 Hf
atom 8.6146440500000008 5.0140419300000003 8.7538663099999994 Hf
atom 0.3241684000000000 2.2605053300000000 1.9875114300000001 O
atom 0.3826219500000000 1.9373665700000000 6.8764563000000001 O
atom 5.4306775199999997 1.9094152200000001 1.9348245399999999 O
atom 5.3325126100000002 1.8906592700000000 6.9783709500000004 O
atom 0.3828309200000000 0.6339875400000000 4.3146039600000003 O
atom 0.2338794000000000 0.8252431200000000 9.3188851100000001 O
atom 5.3852806700000002 0.6741564400000000 4.4558138600000001 O
atom 5.3553859099999999 0.6650333700000000 9.5056970300000003 O
atom 4.7018287499999998 4.4699270799999997 1.9802717200000000 O
atom 4.6303879500000003 4.4938224699999996 6.9942930199999997 O
atom 9.6124698700000000 4.5275212800000002 6.9390815200000002 O
atom 4.6617875700000004 3.2684890400000000 4.5040930100000001 O
atom 4.6780188400000000 3.2753837200000002 9.4934534599999996 O
atom 9.6306329000000002 3.3115092599999998 4.4669677700000001 O
atom 9.7236748399999993 3.4339221400000000 9.6134760700000008 O
atom 2.7705303300000002 1.2390848600000000 2.5509435800000002 O
atom 2.6922497800000000 1.2191645700000000 7.5326356700000003 O
atom 7.7563802900000001 1.1592390800000001 2.4755763399999999 O
atom 7.6889187400000001 1.2184430799999999 7.4957538599999998 O
atom 2.7004079999999999 1.3564058699999999 5.0461102899999997 O
atom 2.7060863999999998 1.3331198099999999 10.0115136299999996 O
atom 7.7035418900000003 1.3761819099999999 5.0077042900000004 O
atom 7.6829982799999996 1.3491837400000000 10.0065717500000009 O
atom 2.2986902699999998 3.9740840300000002 5.0334778699999996 O
atom 2.3854144399999999 3.8555188800000000 10.0093322199999992 O
atom 7.2494175299999997 3.9487284300000001 5.0445610600000004 O
atom 7.2753756899999997 3.9357783799999999 10.0331061800000008 O
atom 2.4400606499999999 3.7261749100000001 2.5895175500000001 O
atom 2.2679336000000001 3.8438708699999999 7.5166933100000000 O
atom 7.3976857599999999 3.8034333700000000 2.5271446700000002 O
atom 7.2874706900000001 3.8032028000000002 7.5280808800000001 O
