lattice_vector 10.1363179999999993 -0.0252660000000000 -0.0527420000000000 
lattice_vector -0.0223110000000000 10.3059429999999992 0.0185710000000000 
lattice_vector -0.0203320000000000 -0.0195480000000000 10.4692830000000008 
atom 1.3308310000000001 0.0886520000000000 1.6853480000000001 La
atom 1.4008440000000000 0.1884330000000000 7.0242990000000001 Hf
atom 1.4000370000000000 5.3514179999999998 1.7990580000000000 Hf
atom 1.3094100000000000 5.2319789999999999 6.9292150000000001 La
atom 1.4170499999999999 2.3161390000000002 4.4029129999999999 Hf
atom 1.3889790000000000 2.3657699999999999 9.6233699999999995 Hf
atom 1.3881460000000001 7.5286569999999999 4.3980680000000003 Hf
atom 1.3955350000000000 7.4592429999999998 9.6468600000000002 Hf
atom 3.6268650000000000 2.7557740000000002 1.7675440000000000 Hf
atom 3.6991900000000002 2.7138100000000001 7.0052510000000003 Hf
atom 3.6984379999999999 7.8766870000000004 1.7798989999999999 Hf
atom 3.6052680000000001 7.8991030000000002 7.0115689999999997 Hf
atom 3.6758839999999999 4.9140389999999998 4.3661459999999996 Hf
atom 3.6398790000000001 4.8983819999999998 9.6423640000000006 Hf
atom 3.6391060000000000 10.0612999999999992 4.4168110000000000 Hf
atom 3.6543610000000002 10.0573599999999992 9.6101430000000008 Hf
atom 6.4929800000000002 0.1917690000000000 0.8012190000000000 Hf
atom 6.4550879999999999 0.1632670000000000 6.0436600000000000 Hf
atom 6.4543100000000004 5.3261589999999996 0.8181460000000000 Hf
atom 6.4713260000000004 5.3351259999999998 6.0451189999999997 Hf
atom 6.4425640000000000 2.3510580000000001 3.4040400000000002 Hf
atom 6.4781259999999996 2.3145240000000000 8.6620799999999996 Hf
atom 6.4773860000000001 7.4772460000000001 3.4366010000000000 Hf
atom 6.4209889999999996 7.4942110000000000 8.6479730000000004 Hf
atom 8.7202719999999996 2.7977530000000002 0.7734529999999999 Hf
atom 8.6874830000000003 2.7161849999999998 6.0135850000000000 Hf
atom 8.6866310000000002 7.8792299999999997 0.7880980000000000 Hf
atom 8.6986749999999997 7.9409109999999998 6.0174050000000001 Hf
atom 8.7263149999999996 4.9113040000000003 3.4277510000000002 Hf
atom 8.6170439999999999 4.9293899999999997 8.6784800000000004 Hf
atom 8.6162279999999996 10.0921789999999998 3.4531489999999998 Hf
atom 8.7047249999999998 10.0546179999999996 8.6716639999999998 Hf
atom 0.3462000000000000 1.9575780000000000 0.8771160000000000 O
atom 0.3779260000000000 1.8372269999999999 6.2385210000000004 O
atom 0.3771320000000000 7.0001420000000003 1.0129960000000000 O
atom 0.3245230000000000 7.1006369999999999 6.1207859999999998 O
atom 0.2218590000000000 0.8521240000000000 3.6688369999999999 O
atom 0.3598930000000000 0.7936910000000000 8.8108699999999995 O
atom 0.3591640000000000 5.9567170000000003 3.5850870000000001 O
atom 0.2002720000000000 5.9952810000000003 8.9126259999999995 O
atom 4.7346500000000002 4.2306580000000000 0.8471710000000000 O
atom 4.7580980000000004 4.2518380000000002 6.0940930000000000 O
atom 4.7572760000000001 9.4145920000000007 0.8688709999999999 O
atom 4.7131480000000003 9.3740959999999998 6.0911590000000002 O
atom 4.7435950000000000 3.4566919999999999 3.4323139999999999 O
atom 4.7792040000000000 3.4251140000000002 8.7011649999999996 O
atom 4.7782999999999998 8.5878530000000008 3.4758220000000000 O
atom 4.7220019999999998 8.5997439999999994 8.6762850000000000 O
atom 2.8408319999999998 1.3030079999999999 3.1490429999999998 O
atom 2.7969710000000001 1.2096990000000001 8.2735760000000003 O
atom 2.7961879999999999 6.3726390000000004 3.0484209999999998 O
atom 2.8192170000000001 6.4462339999999996 8.3929419999999997 O
atom 2.8858969999999999 1.3613420000000001 0.3451470000000000 O
atom 2.7696660000000000 1.2066030000000001 5.7116819999999997 O
atom 2.7689020000000002 6.3692960000000003 0.4863160000000000 O
atom 2.8643850000000000 6.5047210000000000 5.5892830000000000 O
atom 2.2423890000000002 3.8255150000000002 3.0439460000000000 O
atom 2.3796560000000002 3.7201719999999998 8.3642990000000008 O
atom 2.3788429999999998 8.8831100000000003 3.1390570000000002 O
atom 2.2207029999999999 8.9686970000000006 8.2879050000000003 O
atom 2.2552669999999999 3.8865379999999998 0.4633480000000000 O
atom 2.4643500000000000 3.6986490000000001 5.5756839999999999 O
atom 2.4634220000000000 8.8614569999999997 0.3501850000000000 O
atom 2.2337620000000000 9.0298590000000001 5.7074080000000000 O
atom 5.3833469999999997 1.6697169999999999 1.7175630000000000 O
atom 5.4011680000000002 1.6281140000000001 6.9708319999999997 O
atom 5.4001710000000003 6.7907789999999997 1.7455879999999999 O
atom 5.3617509999999999 6.8127769999999996 6.9616369999999996 O
atom 5.3843269999999999 0.8569340000000000 4.3512190000000004 O
atom 5.4196479999999996 0.8207500000000000 9.5620569999999994 O
atom 5.4187799999999999 5.9835050000000001 4.3368919999999997 O
atom 5.3627750000000001 6.0002969999999998 9.5952380000000002 O
atom 9.7328860000000006 4.3606660000000002 1.6582349999999999 O
atom 9.3872870000000006 4.3856400000000004 6.8416759999999996 O
atom 9.3863579999999995 9.5486640000000005 1.6161310000000000 O
atom 9.7112599999999993 9.5038070000000001 6.9021910000000002 O
atom 9.8091880000000007 3.4102130000000002 4.3232239999999997 O
atom 9.7390609999999995 3.3964870000000000 9.4275079999999996 O
atom 9.7382589999999993 8.5593850000000007 4.2017800000000003 O
atom 9.7874680000000005 8.5532590000000006 9.5673659999999998 O
atom 7.8673130000000002 1.2440279999999999 9.9749590000000001 O
atom 7.7960349999999998 1.2542690000000001 4.7488250000000001 O
atom 7.7746440000000003 6.3975070000000001 9.9927430000000008 O
atom 7.8662859999999997 6.4068389999999997 4.7494259999999997 O
atom 7.8291789999999999 1.3220479999999999 2.1313480000000000 O
atom 7.8585419999999999 1.2698160000000001 7.3632109999999997 O
atom 7.8576259999999998 6.4324919999999999 2.1376800000000000 O
atom 7.8077550000000002 6.4653619999999998 7.3750260000000001 O
atom 7.3031470000000001 3.8224119999999999 9.9884799999999991 O
atom 7.3350270000000002 3.8262320000000001 4.7293490000000000 O
atom 7.3133229999999996 8.9695370000000008 9.9734490000000005 O
atom 7.3023319999999998 8.9851329999999994 4.7630559999999997 O
atom 7.3272300000000001 3.8654600000000001 2.1328209999999999 O
atom 7.1879790000000003 3.8286639999999998 7.3805550000000002 O
atom 7.1870450000000003 8.9914480000000001 2.1553100000000001 O
atom 7.3055529999999997 9.0087480000000006 7.3767540000000000 O
