lattice_vector 10.0553129999999999 0.0010330000000000 -0.0290390000000000 
lattice_vector 0.0028470000000000 10.4077000000000002 -0.0054870000000000 
lattice_vector -0.0474030000000000 -0.0326930000000000 10.0966120000000004 
atom 1.2312360000000000 0.0649770000000000 1.2147420000000000 La
atom 1.3201360000000000 0.1419460000000000 6.3066000000000004 Hf
atom 1.3401179999999999 5.3593000000000002 1.2629130000000000 Hf
atom 1.3138259999999999 5.3414020000000004 6.3180839999999998 Hf
atom 6.3713910000000000 0.1587560000000000 1.2437900000000000 Hf
atom 6.2351690000000000 0.0491160000000000 6.2483769999999996 La
atom 6.3651119999999999 5.3582660000000004 1.2553770000000000 Hf
atom 6.3439819999999996 5.3433929999999998 6.2967219999999999 Hf
atom 1.3556560000000000 2.4288639999999999 3.8044959999999999 Hf
atom 1.3023490000000000 2.4320569999999999 8.7722560000000005 Hf
atom 1.3641890000000001 7.5982550000000000 3.7875630000000000 Hf
atom 1.3100390000000000 7.5880669999999997 8.8647419999999997 Hf
atom 6.3537200000000000 2.4491130000000001 3.7094420000000001 Hf
atom 6.3595079999999999 2.4129830000000001 8.8383909999999997 Hf
atom 6.3614680000000003 7.6049509999999998 3.8019970000000001 Hf
atom 6.3680089999999998 7.5824999999999996 8.8213209999999993 Hf
atom 3.6621100000000002 2.7742860000000000 1.2564299999999999 Hf
atom 3.6229209999999998 2.7649020000000002 6.3055539999999999 Hf
atom 3.7282540000000002 7.9193080000000000 1.2357020000000001 Hf
atom 3.5981980000000000 7.9340789999999997 6.3252360000000003 Hf
atom 8.6743220000000001 2.7818390000000002 1.2427170000000001 Hf
atom 8.6660640000000004 2.7584860000000000 6.2902100000000001 Hf
atom 8.6495259999999998 7.9508580000000002 1.2623290000000000 Hf
atom 8.7322919999999993 7.9035710000000003 6.2694479999999997 Hf
atom 3.6637360000000001 5.0070889999999997 3.7855360000000000 Hf
atom 3.6432730000000002 5.0009020000000000 8.8444570000000002 Hf
atom 3.6495310000000001 10.2260960000000001 3.7256879999999999 Hf
atom 3.6378759999999999 10.2289759999999994 8.8689450000000001 Hf
atom 8.6945999999999994 5.0178760000000002 3.7816610000000002 Hf
atom 8.6676509999999993 4.9912099999999997 8.8193009999999994 Hf
atom 8.6892739999999993 10.2460419999999992 3.8060040000000002 Hf
atom 8.6532800000000005 10.2102670000000000 8.7595510000000001 Hf
atom 0.2669630000000000 2.0337760000000000 2.0744539999999998 O
atom 0.3830540000000000 1.9489500000000000 6.8761830000000002 O
atom 0.3545970000000000 7.1277030000000003 1.9756020000000001 O
atom 0.3302570000000000 7.0568109999999997 7.0591910000000002 O
atom 5.4343599999999999 1.9659120000000001 1.8134220000000001 O
atom 5.2706160000000004 2.0177730000000000 7.1085500000000001 O
atom 5.3816389999999998 7.0737530000000000 1.9965189999999999 O
atom 5.3584209999999999 7.1116250000000001 7.0094149999999997 O
atom 0.3760050000000000 0.6622540000000000 4.4359909999999996 O
atom 0.2937990000000000 0.7327260000000000 9.2414410000000000 O
atom 0.3211000000000000 5.8909079999999996 4.5311659999999998 O
atom 0.2904280000000000 5.8842600000000003 9.5583399999999994 O
atom 5.3454530000000000 0.7494470000000000 4.1784720000000002 O
atom 5.3797319999999997 0.6463989999999999 9.4700939999999996 O
atom 5.3419299999999996 5.9010540000000002 4.4954369999999999 O
atom 5.3249370000000003 5.8749620000000000 9.5650139999999997 O
atom 4.6862370000000002 4.4977440000000000 1.9947610000000000 O
atom 4.6261120000000000 4.5374359999999996 7.0099790000000004 O
atom 4.6308670000000003 9.7315670000000001 1.8804730000000001 O
atom 4.3972660000000001 9.6196459999999995 7.1231429999999998 O
atom 9.6774570000000004 4.5543790000000000 1.9471810000000001 O
atom 9.6900530000000007 4.4819160000000000 7.0283239999999996 O
atom 9.4480269999999997 9.6370009999999997 2.0597720000000002 O
atom 9.6346650000000000 9.7158409999999993 6.9140759999999997 O
atom 4.6640220000000001 3.2952650000000001 4.5079700000000003 O
atom 4.6560220000000001 3.3089659999999999 9.5445089999999997 O
atom 4.7591989999999997 8.5785839999999993 4.6128749999999998 O
atom 4.7330150000000000 8.4761690000000005 9.5701450000000001 O
atom 9.7073640000000001 3.3259379999999998 4.4817419999999997 O
atom 9.6679800000000000 3.2794089999999998 9.5416279999999993 O
atom 9.7843760000000000 8.4931990000000006 4.5070439999999996 O
atom 9.7630850000000002 8.5627049999999993 9.6464580000000009 O
atom 2.8023210000000001 1.3210050000000000 2.5624479999999998 O
atom 2.6648280000000000 1.1942550000000001 7.5535639999999997 O
atom 2.7081510000000000 6.3591129999999998 2.4975470000000000 O
atom 2.6823769999999998 6.3984480000000001 7.5637780000000001 O
atom 7.7162040000000003 1.2113449999999999 2.4907680000000001 O
atom 7.8062339999999999 1.3049759999999999 7.5962540000000001 O
atom 7.7338540000000000 6.4152500000000003 2.5008819999999998 O
atom 7.7120550000000003 6.3429840000000004 7.5313150000000002 O
atom 2.7177470000000001 1.3441609999999999 5.0536640000000004 O
atom 2.7114410000000002 1.4253210000000001 10.0096729999999994 O
atom 2.6935030000000002 6.5484179999999999 5.0266450000000003 O
atom 2.6754560000000001 6.5112100000000002 10.0851380000000006 O
atom 7.7629590000000004 1.4422660000000000 4.9467879999999997 O
atom 7.7216180000000003 1.3284330000000000 10.0874799999999993 O
atom 7.7270009999999996 6.5282830000000001 5.0218319999999999 O
atom 7.6973839999999996 6.5327570000000001 10.0603750000000005 O
atom 2.2913969999999999 3.9771209999999999 5.0321899999999999 O
atom 2.2688259999999998 3.9644640000000000 10.0774969999999993 O
atom 2.3192480000000000 9.1577839999999995 5.0353760000000003 O
atom 2.4138229999999998 9.0208549999999992 9.9979840000000006 O
atom 7.3201749999999999 3.9813630000000000 5.0145869999999997 O
atom 7.2953279999999996 3.9612870000000000 10.0660930000000004 O
atom 7.4653320000000001 9.0377899999999993 4.9351060000000002 O
atom 7.3231539999999997 9.1419309999999996 10.0691140000000008 O
atom 2.2889170000000001 3.8308819999999999 2.5097440000000000 O
atom 2.2920720000000001 3.8225300000000000 7.5482019999999999 O
atom 2.4507070000000000 8.8739650000000001 2.5699619999999999 O
atom 2.1358370000000000 8.9798279999999995 7.5377869999999998 O
atom 7.3435160000000002 3.8394759999999999 2.4854259999999999 O
atom 7.2927280000000003 3.8149739999999999 7.5435749999999997 O
atom 7.1870909999999997 8.9966980000000003 2.4750320000000001 O
atom 7.4545000000000003 8.8580760000000005 7.6037970000000001 O
