lattice_vector 10.1012219699999992 0.0211252500000000 0.7866455999999999 
lattice_vector 0.0206052400000000 10.2445102299999995 -0.0404558900000000 
lattice_vector 0.8772466600000000 -0.0263880900000000 10.4781269500000001 
atom 1.3625407500000000 0.0876735500000000 1.8469962900000001 Si
atom 1.9455789299999999 0.2188209600000000 6.8711770300000001 Hf
atom 1.5127552700000000 5.3616663100000004 1.6317578200000000 Hf
atom 1.9312332900000000 5.3837746299999996 6.7735441400000003 Hf
atom 6.5847927200000003 0.2201133600000000 2.0464009000000001 Hf
atom 7.0295157200000000 0.2169362300000000 7.2673193100000004 Hf
atom 6.5497029099999997 5.3509940699999996 1.9837347599999999 Hf
atom 7.0589061700000002 5.3420535700000000 7.2171634999999998 Hf
atom 1.7260637500000000 2.2973909300000002 4.1750708100000002 Hf
atom 2.1874911300000002 2.1748159100000000 9.6148227899999998 Hf
atom 1.7543744200000000 7.4688370199999996 4.2142748900000004 Hf
atom 2.1225199400000001 7.4968679900000001 9.4422607500000009 Hf
atom 6.8344301099999996 2.3288122200000001 4.6107352400000003 Hf
atom 7.2856576400000002 2.3361118699999999 9.9200182100000003 Hf
atom 6.7940104999999997 7.4566249500000001 4.6153929600000003 Hf
atom 7.2534594900000000 7.4880271100000000 9.8893048100000005 Hf
atom 3.7368746300000000 2.7253085800000001 1.3586343800000000 Hf
atom 4.2406197399999996 2.7403616600000000 6.4872354400000001 Hf
atom 3.6757347500000002 7.9924304399999997 1.3650255200000001 Hf
atom 4.1977011099999997 7.9429590200000000 6.5783118399999996 Hf
atom 8.8545032999999993 2.7407634200000000 1.7975687899999999 Hf
atom 9.2528998999999992 2.7681983200000002 7.0005801500000002 Hf
atom 8.8057811400000006 7.9180426700000002 1.7610066000000000 Hf
atom 9.2172613299999995 7.9010271500000000 6.9940285700000002 Hf
atom 3.9732242900000001 4.8981347800000004 3.9666401400000000 Hf
atom 4.3950112299999997 4.9519354599999996 9.2456418500000002 La
atom 3.9634834900000002 10.0207304599999993 3.9157722900000000 Hf
atom 4.4502428399999996 10.0850649899999993 9.2345320599999994 Hf
atom 9.0088511800000006 4.8958455900000004 4.3622377099999996 Hf
atom 9.4896377600000008 4.8767939900000004 9.6403455900000008 Hf
atom 9.0192232699999995 10.0009153000000008 4.3755843099999998 Hf
atom 9.4478806300000002 10.0303474599999998 9.5856804899999997 Hf
atom 0.5906849400000000 1.4212234300000000 0.9082204699999999 O
atom 0.8386614000000000 1.6283208800000000 5.9863614900000002 O
atom 0.3154999700000000 6.7445695700000003 0.7759156500000000 O
atom 0.8373774200000000 6.8077802900000002 6.0104160899999997 O
atom 5.5183626800000001 1.6984004399999999 1.2875033899999999 O
atom 5.9481618000000003 1.6812233500000000 6.4186017299999998 O
atom 5.4246518000000004 6.8470317500000002 1.1874844400000000 O
atom 5.9118995500000002 6.8420660099999999 6.4329882600000001 O
atom 0.6564320800000000 0.7597680800000000 3.3599635999999999 O
atom 1.0427539400000001 0.8227354600000000 8.6730896600000005 O
atom 0.6261333600000000 5.9765902500000001 3.4335743800000000 O
atom 1.1416980800000001 5.9081046199999996 8.6880588299999992 O
atom 5.6883144600000000 0.8345489400000000 3.8584651600000002 O
atom 6.2083545800000000 0.8238703000000001 9.0928918400000001 O
atom 5.7064421000000003 5.9572283400000003 3.8283762800000001 O
atom 6.3117931299999999 6.0363336700000003 8.9783807299999996 O
atom 4.8266000599999996 4.3066991799999998 2.1311154100000000 O
atom 5.3394503499999999 4.2272858299999996 7.2251542500000001 O
atom 4.8803054699999997 9.3876847300000001 2.1585081399999999 O
atom 5.2830544399999999 9.4455136500000005 7.3626774599999996 O
atom 9.9523670899999992 4.2038400400000002 2.6106657700000002 O
atom 10.4190372700000005 4.1939048300000001 7.8456160099999996 O
atom 10.0333818200000007 9.3671869399999999 2.5705875200000001 O
atom 10.3701538299999996 9.3540558600000008 7.7918358100000003 O
atom 5.0814650700000001 3.3600733100000002 4.6663600900000004 O
atom 5.6585855399999998 3.3709968600000000 10.1429496500000003 O
atom 5.0596266999999999 8.5278065600000001 4.7242704700000004 O
atom 5.4417110299999996 8.5357480799999994 10.0180061400000007 O
atom 10.1446243400000000 3.4215316800000002 5.1799206299999998 O
atom 10.6346816400000002 3.3800652900000001 10.5062135699999999 O
atom 10.1207178199999994 8.5430985300000000 5.1819033799999996 O
atom 10.5279918499999994 8.5451533299999998 10.4174416300000008 O
atom 2.8097295299999998 1.1555695900000000 2.5085994199999999 O
atom 3.3429848000000000 1.4671761000000001 7.8890020099999996 O
atom 2.9972055499999999 6.4665866200000002 2.7152898799999998 O
atom 3.2991522700000000 6.5700564300000002 7.8343003800000002 O
atom 8.0771725799999992 1.2982387399999999 3.1340983499999999 O
atom 8.5309687699999994 1.3083190499999999 8.3426267400000000 O
atom 8.0439266800000002 6.4359056199999998 3.0955037500000002 O
atom 8.6346608499999995 6.4220226900000004 8.3330216299999993 O
atom 3.2172994500000001 1.2466942100000000 5.2341318899999996 O
atom 3.9153885200000000 1.4482002100000000 10.3564095500000004 O
atom 3.2183778900000002 6.3695054300000002 5.2847671900000002 O
atom 3.5097314499999999 6.5921129299999999 10.6572596799999992 O
atom 8.3053368699999996 1.2245730600000000 5.7339535499999998 O
atom 8.7608862199999997 1.2179168400000000 11.0089305000000000 O
atom 8.2690821099999994 6.3574198300000004 5.7127820800000002 O
atom 8.6935837700000000 6.3580838300000000 10.9586368200000006 O
atom 2.1824083200000000 3.8475350300000000 0.3699581500000000 O
atom 2.7217331599999999 3.8692538399999998 5.5529712699999996 O
atom 2.2271056900000001 9.4003603899999995 0.4767508600000000 O
atom 2.7169402900000001 9.0066171399999995 5.4945581600000004 O
atom 7.4142294099999999 3.8785183299999999 0.7001401000000000 O
atom 7.7983530099999996 3.8556810000000001 5.8815348299999997 O
atom 7.3263749499999999 9.0292084700000004 0.6609172200000000 O
atom 7.7512997700000001 8.9903882100000008 5.8880922000000000 O
atom 2.5262497700000002 3.7547685400000002 2.9298347300000001 O
atom 2.3822318700000000 8.9694164599999997 2.8678447600000001 O
atom 2.9496149300000001 9.0041061500000001 8.1869380899999999 O
atom 7.5653601999999998 3.7806438400000002 3.2611930400000002 O
atom 8.0267778599999993 3.7976292599999999 8.5275970900000004 O
atom 7.6009514600000001 8.9198392299999991 3.2757402799999999 O
atom 7.9798984900000001 8.9140028200000003 8.5031864600000002 O
