lattice_vector 10.1613492099999991 0.0087805600000000 0.8221365700000000 
lattice_vector 0.0014195800000000 10.3576871399999995 0.0158867400000000 
lattice_vector 0.4033793500000000 -0.0065585300000000 5.2087524900000002 
atom 1.4582602600000001 0.1289711200000000 1.5935161799999999 La
atom 1.4920941299999999 5.3600182900000002 1.6284417200000001 Hf
atom 6.7385712299999998 0.2594949600000000 2.0618126399999999 Hf
atom 6.5920425700000003 5.3836433699999997 2.0596447400000000 Hf
atom 1.7023330999999999 2.3972833100000002 4.2429938500000004 Hf
atom 1.7578650100000000 7.5131223699999996 4.2098246499999998 Hf
atom 6.8024865400000003 2.3722067400000002 4.6612400599999999 Hf
atom 6.7927191799999997 7.5541822200000004 4.6532039699999999 Hf
atom 3.7460385000000000 2.7731965600000001 1.3901134300000000 Hf
atom 3.7269767900000002 7.8488669199999999 1.3181293599999999 Hf
atom 8.8414599200000001 2.8686315599999999 1.7856819600000000 Hf
atom 8.8144415600000006 7.9393642199999999 1.7954149399999999 Hf
atom 3.9614560999999999 4.9072724799999996 3.9722306999999999 Hf
atom 3.9975060199999999 10.2052552500000004 4.0685932400000002 Hf
atom 9.0126363000000005 4.9815970900000002 4.3952863899999999 Hf
atom 9.0116898899999995 10.1278314999999992 4.4772991900000001 Hf
atom 0.4717805700000000 2.0621480800000000 0.9290558500000000 O
atom 0.4924230500000000 7.0169835400000000 0.9024978700000000 O
atom 5.4710442300000004 1.6300564500000001 1.2305617000000000 O
atom 5.5166808200000004 6.9455553500000002 1.3116197999999999 O
atom 0.5979894000000000 0.7736154000000000 3.7400845299999999 O
atom 0.6301067600000000 5.9697165300000004 3.4973961999999998 O
atom 5.7391242599999996 0.8325822300000000 3.7961780799999998 O
atom 5.6696810299999996 6.0447733799999996 3.8834355199999999 O
atom 4.8691858400000001 4.2989835500000000 2.1701485800000002 O
atom 9.8315098800000005 4.4990520900000002 2.4979336299999999 O
atom 9.5959162899999999 9.5800781900000000 2.5834043200000001 O
atom 5.0845947400000000 3.4315453599999999 4.7798275700000001 O
atom 5.1717504800000000 8.7427027499999994 4.9047274700000001 O
atom 10.0731024999999992 3.4226078200000001 5.0897379500000000 O
atom 10.1545519100000003 8.5607804499999993 5.1345682100000003 O
atom 3.0926246700000002 1.3909404200000000 2.8093058200000001 O
atom 2.9684000199999998 6.4333848500000004 2.7153347999999999 O
atom 8.0936000799999999 1.3817345800000000 3.1761295399999998 O
atom 8.0502175000000005 6.5273766999999996 3.1464496099999999 O
atom 3.2699151600000000 1.3238717300000000 5.2847419599999998 O
atom 3.2105722100000000 6.3814929899999999 5.3290532500000003 O
atom 8.2801977999999998 1.2798191100000000 5.7807056499999998 O
atom 8.2536036700000004 6.4264807099999999 5.7471605400000003 O
atom 2.3001121200000001 3.9432489199999998 0.2637369300000000 O
atom 2.3874588399999999 8.9566708399999992 0.1637058600000000 O
atom 7.3284154800000003 3.9443709299999998 0.6899845200000000 O
atom 7.3823332500000003 9.1083469400000006 0.7188121600000000 O
atom 2.4544233700000002 3.8405668300000002 2.8624377100000000 O
atom 2.8430252700000000 8.9065683199999999 2.8780593500000000 O
atom 7.5431492699999998 3.8560295500000001 3.3051031700000002 O
atom 7.4104603100000004 9.0046263199999999 3.3312545999999998 O
