lattice_vector 9.9533578499999997 -0.0309172800000000 0.0377239600000000 
lattice_vector -0.0001022800000000 10.4252169800000001 -0.0728514200000000 
lattice_vector 0.1050541000000000 -0.1273500400000000 10.0300681300000001 
atom 1.1648609400000001 0.3377466200000000 1.1005679399999999 Si
atom 1.5400997000000001 0.0545205300000000 6.4762990000000000 Hf
atom 1.3187378800000000 5.3715989500000001 1.1752713699999999 Hf
atom 1.4331759700000000 5.3196169400000004 6.2461568999999999 Hf
atom 6.2893986100000001 0.1690880600000000 1.2548143300000001 Hf
atom 6.2692662099999996 0.0125686000000000 6.2336921099999998 Hf
atom 6.3598202099999996 5.3804317499999996 1.2488520500000000 Hf
atom 6.3923154899999997 5.2984192900000000 6.2535318000000002 Hf
atom 1.4070053700000000 2.3288623099999999 3.5681044499999999 Hf
atom 1.4595014799999999 2.3651791400000000 8.8459541300000009 Hf
atom 1.3778295599999999 7.5263060800000003 3.7772336700000002 Hf
atom 1.3889893400000000 7.5697504000000002 8.7778769499999996 Hf
atom 6.3268782799999999 2.3466018499999999 3.7805537800000000 Hf
atom 6.4195571800000000 2.3267988399999999 8.7091273299999994 Hf
atom 6.3549526800000002 7.5639871400000001 3.7669723199999998 Hf
atom 6.4038970600000003 7.5570719799999999 8.7549357800000003 Hf
atom 3.8112134900000001 2.8195038299999999 1.0878887699999999 Hf
atom 3.6913546400000001 2.6885761499999998 6.2370792899999996 Hf
atom 3.6952287699999999 7.9086920000000003 1.2444377700000000 Hf
atom 3.7279978499999999 7.9230679899999998 6.2882573300000004 Hf
atom 8.6136543600000000 2.7486362799999999 1.2326264000000000 Hf
atom 8.7890082300000003 2.5773366300000000 6.2420333399999999 La
atom 8.7347123100000008 7.9793114799999998 1.1934632199999999 Hf
atom 8.7203944000000000 7.9059388700000000 6.2327894400000003 Hf
atom 3.6905832300000001 4.9507230900000003 3.7448526300000000 Hf
atom 3.7514063599999998 5.0079386699999997 8.6940141799999999 Hf
atom 3.5900384100000000 10.1209774199999991 3.6916598600000001 Hf
atom 3.6734391799999999 10.1633356399999997 8.9232453700000001 Hf
atom 8.6400543899999995 4.9537139899999998 3.7074368700000000 Hf
atom 8.6801855099999994 4.9523496800000002 8.7676500100000005 Hf
atom 8.6076190900000000 10.1458000899999998 3.6331528400000002 Hf
atom 8.6920301999999996 10.1441898800000008 8.7231129500000009 Hf
atom 0.3980939400000000 1.8471199400000000 1.7223005100000000 O
atom 0.6406500400000000 1.7357682800000001 7.1244800899999996 O
atom 0.3783882200000000 7.1187837500000004 1.9457141600000001 O
atom 0.4821148500000000 7.1376394100000002 6.9078651500000001 O
atom 5.2618207300000002 1.8575044900000000 2.0445949699999999 O
atom 5.4232714499999997 1.8641859300000001 6.8948025599999996 O
atom 5.3604705600000004 7.0971241500000000 1.9847805000000001 O
atom 5.3802577700000001 7.0087751699999998 6.9936448999999996 O
atom 0.4728359000000000 0.5318180800000000 9.5617159899999997 O
atom 0.3603390400000000 5.8153677600000000 4.4647407899999996 O
atom 0.4133178700000000 5.8597966000000001 9.4719078099999994 O
atom 5.2490127299999996 0.6450317600000000 4.5034957899999997 O
atom 5.3167520799999997 0.7159913000000000 9.6201290499999992 O
atom 5.3718988300000001 5.8490878500000001 4.4278318299999997 O
atom 5.4114244500000002 5.8305479399999998 9.4968785300000000 O
atom 4.6832449399999998 4.5020312200000001 1.9121513900000000 O
atom 4.6419943000000004 4.4605454699999996 6.8684800700000004 O
atom 4.6865440100000004 9.6851783200000003 1.9426041400000000 O
atom 4.6846241199999996 9.6290831499999996 7.0624706899999996 O
atom 9.5991099599999998 4.4891392600000000 1.8649117799999999 O
atom 9.7404867199999998 4.5523408300000003 7.0571103900000001 O
atom 9.8413330699999992 9.7729382600000001 1.8142911799999999 O
atom 9.6860629199999995 9.6781751699999994 6.9200565899999997 O
atom 4.6315861299999996 3.2133434799999998 4.4346851799999998 O
atom 4.7295548900000002 3.2450476099999999 9.3603478300000003 O
atom 4.7344499500000001 8.4901014400000001 4.5625148099999997 O
atom 4.6860614199999997 8.4447121599999999 9.4783780400000008 O
atom 9.6364623300000005 3.1314985300000000 4.0836047500000001 O
atom 9.6814153699999999 3.1759693200000001 9.4266871499999993 O
atom 9.6993631100000002 8.5572470400000000 4.4105875799999996 O
atom 9.6369817300000005 8.3844200000000004 9.3974268599999995 O
atom 2.2370648800000001 0.6743978300000000 2.5156865200000000 O
atom 2.9333969400000002 1.1460297300000000 7.6422242799999998 O
atom 2.6640945600000001 6.1926953500000002 2.4604963000000000 O
atom 2.7527890799999999 6.3834578600000000 7.5017198699999996 O
atom 7.6774701399999996 1.1691533100000000 2.4371731799999998 O
atom 7.5734722600000000 0.9596217900000000 7.5628308999999998 O
atom 7.7193713400000004 6.3817422600000002 2.4828464499999998 O
atom 7.7592743700000000 6.3622469600000002 7.5020630700000002 O
atom 2.5687766700000001 1.2750962500000000 5.0023736400000001 O
atom 2.6642632200000000 1.2838695499999999 10.2080601600000005 O
atom 2.7814115099999999 6.5168782800000002 4.9853554100000004 O
atom 2.7582052099999999 6.5455046399999999 9.9843633500000006 O
atom 7.6418999999999997 1.1257603300000001 4.8773895400000002 O
atom 7.7537958900000001 1.2771533100000001 9.9878107400000005 O
atom 7.7238280399999999 6.5213204200000003 4.9930245299999996 O
atom 7.7555320800000001 6.5093704399999996 10.0175544999999993 O
atom 2.2867377900000001 3.9007131099999999 4.9483914499999999 O
atom 2.4467462699999998 3.9489036099999999 9.9661804099999998 O
atom 2.3222563599999999 9.1092612200000005 5.0763068799999997 O
atom 2.2512062799999999 9.2639634900000001 10.2646225799999993 O
atom 7.2625230900000002 3.9421559099999999 4.9258875000000000 O
atom 7.3678218900000001 3.8552963899999999 10.0252157900000007 O
atom 7.3305194100000000 9.0762878800000006 4.9399849400000004 O
atom 7.3350913000000002 9.1117246600000001 9.9607668799999995 O
atom 2.4123135200000001 3.6049095800000002 2.4073050700000000 O
atom 2.3723651100000001 3.7431343099999999 7.4975099900000002 O
atom 2.5880922100000001 8.6349368299999991 2.6864469500000001 O
atom 2.3806798499999999 8.9844839600000004 7.6330228000000000 O
atom 7.2515140699999998 3.7623154799999998 2.4669764299999999 O
atom 7.2277289800000002 3.8458887800000001 7.5641255799999998 O
atom 7.3903692000000003 8.9855342500000006 2.4336314500000000 O
atom 7.3602809599999999 8.8839507900000001 7.4526079999999997 O
