lattice_vector 10.2192385399999992 -0.0422004400000000 0.0294891300000000 
lattice_vector -0.0430333400000000 5.1948076600000004 0.0161355100000000 
lattice_vector -0.0284999400000000 -0.0334237800000000 10.4544001400000006 
atom 1.2880412999999999 0.0552293400000000 1.6323644700000000 La
atom 1.4312172800000000 0.1661902200000000 7.0047013299999996 Hf
atom 1.3744983600000000 2.3237608100000000 4.3808069700000001 Hf
atom 1.4141423600000000 2.3782899000000000 9.6049833899999992 Hf
atom 3.7180454599999999 2.7257606999999999 1.7660361200000001 Hf
atom 3.6233461000000000 2.7281753900000001 7.0347252700000000 Hf
atom 3.5432561499999999 4.9671585100000000 4.3338984199999997 Hf
atom 3.6954235999999998 4.9360637399999998 9.6134819599999997 Hf
atom 6.5573848999999997 0.1649448400000000 0.8604850700000000 Hf
atom 6.3849387100000001 0.0194930400000000 6.2313467200000003 La
atom 6.4866653300000001 2.3054479899999998 3.4972004399999999 Hf
atom 6.5256716499999996 2.3602268799999999 8.7284934100000005 Hf
atom 8.7500100900000000 2.7269597399999999 0.8586909000000000 Hf
atom 8.8154964299999996 2.6904603300000001 6.1282540000000001 Hf
atom 8.6545271499999998 4.9485657600000001 3.5734327000000001 Hf
atom 8.8073285699999992 4.9178979800000002 8.7492743199999996 Hf
atom 0.4001095700000000 2.0952187200000001 0.9775454400000000 O
atom 0.3558533400000000 1.7365815499999999 6.1933535800000001 O
atom 0.2215248900000000 0.8248175500000000 3.6521433299999999 O
atom 0.4110209000000000 0.7616605100000000 8.8331631300000009 O
atom 4.7644904199999996 4.3437005700000002 0.9326762400000000 O
atom 4.2440006099999996 4.4658689599999999 6.2220700799999999 O
atom 4.7671898700000002 3.4400254000000001 3.5676672599999999 O
atom 4.7520685800000004 3.4043023500000000 8.7685930499999998 O
atom 2.7964654699999998 1.2669111500000001 3.0890020300000001 O
atom 2.8137312600000000 1.2395144700000000 8.2781186099999999 O
atom 2.9054233100000002 1.2955308600000000 0.3652123400000000 O
atom 2.7614319900000002 1.3179145999999999 5.6584375600000003 O
atom 2.3484888200000000 3.7354306300000002 3.0881593999999999 O
atom 2.2607699800000001 3.8438871300000002 8.2845072799999997 O
atom 2.5047140500000000 3.7495522499999998 0.3450546500000000 O
atom 2.0799422700000001 3.9021174200000002 5.6405445099999998 O
atom 5.4781863399999997 1.7303292900000000 1.6754511100000000 O
atom 5.4938232700000000 2.0555876999999998 6.8930467000000002 O
atom 5.3298449999999997 0.8019232500000000 4.2100826600000003 O
atom 5.5191177500000004 0.7380840000000000 9.4836331699999992 O
atom 9.3660888599999996 4.4589689699999999 1.6865348300000000 O
atom 9.8580427000000004 4.3028423599999996 6.9778240599999997 O
atom 9.8747338899999999 3.4166138799999999 4.3368326499999998 O
atom 9.8597809200000004 3.3808349899999999 9.5904130999999992 O
atom 7.9184687199999999 1.2127580000000000 10.0561361399999996 O
atom 7.9012316000000000 1.2404829200000000 4.7910182600000004 O
atom 7.8810858399999999 1.3084146000000001 2.2213321700000002 O
atom 7.9953335299999999 1.2513938400000000 7.5152073899999996 O
atom 7.3655028600000003 3.8172287499999999 10.0629462699999994 O
atom 7.4535769600000004 3.7085227900000000 4.8045409299999999 O
atom 7.1980833500000001 3.8932265899999998 2.2524853800000000 O
atom 7.5948056499999996 3.7055312699999998 7.5486861300000001 O
