lattice_vector 10.0910999500000003 0.0185555500000000 0.7782410300000000 
lattice_vector 0.0239640200000000 10.2607713500000006 -0.0435129900000000 
lattice_vector 0.8554769900000000 -0.0286848200000000 10.4467583499999996 
atom 1.3593152900000001 0.1112649900000000 1.8249478900000000 Si
atom 1.9128850600000000 0.1932717300000000 6.8199126000000003 Hf
atom 1.5568543699999999 5.3615637500000002 1.6195794600000000 Hf
atom 1.9845997500000001 5.3295795000000004 6.8358836900000002 Hf
atom 6.5418688899999999 0.2457059900000000 1.9947905800000001 Hf
atom 6.9844963900000003 0.2113324800000000 7.2490055599999996 Hf
atom 6.5251465599999996 5.2619407799999998 1.9353896799999999 La
atom 7.0097754800000001 5.3417628099999996 7.2280032199999997 Hf
atom 1.7192284300000000 2.2766826999999998 4.1669725099999999 Hf
atom 2.2385410299999999 2.2856838700000002 9.4195782900000005 Hf
atom 1.7356623600000001 7.4760294099999998 4.2236128800000001 Hf
atom 2.1840898399999999 7.4625253999999996 9.4231010099999999 Hf
atom 6.8006918299999999 2.3093173000000000 4.6305196000000004 Hf
atom 7.2455996999999996 2.3604697699999999 9.8621484499999994 Hf
atom 6.7123971300000003 7.5009831399999998 4.6768717000000004 Hf
atom 7.1736994699999999 7.5141114199999999 9.8282260099999998 Hf
atom 3.6511807400000000 2.7307404499999999 1.3402330600000001 Hf
atom 4.1760890399999999 2.7820631400000000 6.5601215799999997 Hf
atom 3.6729200999999998 8.0224194900000008 1.3267629900000000 Hf
atom 4.1561849600000000 7.9277255899999997 6.6083264200000000 Hf
atom 8.9537213500000004 2.6752367200000000 1.7662530599999999 Hf
atom 9.2102617599999999 2.7631086599999999 6.9981323099999999 Hf
atom 8.8605634700000007 8.0001823999999999 1.6336905500000001 Hf
atom 9.2028509300000003 7.8842106200000002 6.9512361399999998 Hf
atom 3.9167225200000000 4.8988268200000000 4.0040328599999997 Hf
atom 4.4120397300000000 4.9066027600000002 9.2148149499999992 Hf
atom 3.9308913900000002 10.0364522699999998 3.9049970799999998 Hf
atom 4.3908931600000001 10.1188856099999995 9.1607356099999997 Hf
atom 9.0625623999999991 4.8328887099999998 4.4037936799999997 Hf
atom 9.4911706999999996 4.8768620299999998 9.5933027699999993 Hf
atom 8.9880604799999997 9.9926827100000004 4.3279712100000003 Hf
atom 9.4361158399999994 10.0569982400000004 9.5288804000000003 Hf
atom 0.6362594400000000 1.4773689299999999 0.8916984300000000 O
atom 0.8211459800000001 1.6336617200000001 5.9834400700000003 O
atom 0.4274676900000000 6.8378206800000001 0.8007956899999999 O
atom 0.8299138500000000 6.7823186700000004 6.0310261299999999 O
atom 5.4992725199999999 1.7860309599999999 1.2701193099999999 O
atom 5.9173273300000000 1.7363250900000000 6.4679946499999996 O
atom 5.4317636800000004 7.0848896899999998 1.1734092000000000 O
atom 5.9263934200000001 6.9220097599999999 6.5388596799999998 O
atom 0.6317216000000000 0.7538149300000000 3.3536773300000000 O
atom 1.0437308100000000 0.8601598700000000 8.6230162099999994 O
atom 0.6202174800000000 5.9774791100000000 3.4272719800000000 O
atom 1.1038623900000000 5.9885709399999998 8.6462809200000006 O
atom 5.6786783600000001 0.8175937300000000 3.8496103100000001 O
atom 6.1695212200000000 0.8144725900000001 9.0858617299999995 O
atom 5.6611750000000001 5.9632367799999999 4.0078631700000003 O
atom 6.1432584200000004 5.9645182200000004 9.0729734499999992 O
atom 4.5602633199999998 4.3149604600000000 2.1726010599999999 O
atom 5.2794215600000003 4.2834841600000004 7.3717968699999998 O
atom 4.8261047000000001 9.4678164000000002 2.1190323800000002 O
atom 5.2514919000000004 9.4719013899999993 7.3064640399999998 O
atom 9.9194684399999993 4.2894576799999999 2.5444535799999999 O
atom 10.3729030699999996 4.2169137299999999 7.7995335700000004 O
atom 10.0249674800000008 9.4259393300000003 2.5191662899999998 O
atom 10.3267045100000008 9.3632530000000003 7.7400397999999999 O
atom 5.0703292299999996 3.3925226799999999 4.7363974300000002 O
atom 5.5998916400000001 3.5147170600000002 10.0577206300000004 O
atom 5.0028167000000003 8.5475418399999992 4.7410457499999996 O
atom 5.3635351199999999 8.5425994999999997 9.8989448299999996 O
atom 10.1113303899999991 3.3718935399999999 5.1778392400000000 O
atom 10.6978506699999993 3.4293551000000000 10.4632570699999992 O
atom 10.0933531199999997 8.5326197700000002 5.1444125600000001 O
atom 10.5916103499999998 8.6102392800000001 10.3531759799999996 O
atom 2.7933191499999999 1.1611789400000001 2.4973106299999999 O
atom 3.3880957700000001 1.2920453199999999 7.8148348500000004 O
atom 2.9783132700000001 6.5077902700000001 2.7259461400000000 O
atom 3.4460444899999998 6.4440541900000001 7.9337856599999999 O
atom 8.0510133600000007 1.2115015800000000 3.0902357299999998 O
atom 8.4867290400000002 1.3227743800000000 8.3277820699999996 O
atom 8.4878381699999998 6.4261594100000003 8.2789089899999997 O
atom 3.2081344899999999 1.2547325899999999 5.2206368000000003 O
atom 3.8805213099999998 1.4814021100000001 10.2785389100000000 O
atom 3.1969479800000000 6.3792768200000003 5.3472736500000000 O
atom 3.6341761799999999 6.4319604400000001 10.5385148199999996 O
atom 8.2691965399999994 1.2146859299999999 5.7131599099999999 O
atom 8.7176189199999996 1.2058414600000000 10.9554647900000006 O
atom 8.2382173200000004 6.3569548500000002 5.6152807600000001 O
atom 8.7815633399999999 6.4505366100000003 10.8389380299999996 O
atom 2.2946427100000002 3.9523179100000001 0.2580421400000000 O
atom 2.6914254899999999 3.8663956900000001 5.4822526600000003 O
atom 2.2285792999999998 9.4162730000000003 0.4376805200000000 O
atom 2.6864899200000001 9.0080628600000008 5.4687930500000004 O
atom 7.5509052900000002 3.7417322199999998 0.5653305100000000 O
atom 7.7636012499999998 3.8658891700000000 5.9118122700000004 O
atom 7.3318100399999997 9.0746053900000003 0.6029062400000000 O
atom 7.7331850800000002 9.0169897100000007 5.8549683899999998 O
atom 2.3680131100000001 3.7451551400000000 2.8997698999999999 O
atom 2.9643688099999999 3.7842841699999998 8.0988229999999994 O
atom 2.3577103300000002 8.9986685600000005 2.8507220900000001 O
atom 2.9187764000000000 8.9284979000000000 8.1170577700000006 O
atom 7.7064478799999998 3.6509343200000002 3.3280339600000000 O
atom 7.9791791200000004 3.8144026700000002 8.4911825499999996 O
atom 7.6288776199999999 8.7637099599999999 3.2156582399999998 O
atom 7.9586729399999996 8.9341744500000004 8.4555514699999996 O
