lattice_vector 10.1038980299999999 0.0419482000000000 -0.0882527900000000 
lattice_vector 0.0080663400000000 10.2988471799999992 0.1429315000000000 
lattice_vector -0.0091627600000000 0.0635225700000000 10.4671176100000007 
atom 1.0364824500000001 0.2976840900000000 2.2856632600000002 Si
atom 1.3786758500000000 0.2080340600000000 6.8927702999999996 Hf
atom 1.2830097199999999 5.5548030600000002 2.0397887300000002 Hf
atom 1.3355322400000000 5.3819016700000004 7.1050173699999997 Hf
atom 1.3675645500000000 2.4765279900000001 4.4357465700000001 Hf
atom 1.3580706800000000 2.1927596000000000 9.5014414100000000 Hf
atom 1.3606498600000001 7.6013285000000002 4.5194318400000002 Hf
atom 1.3710859600000000 7.5975075199999997 9.7197604799999997 Hf
atom 3.6557653600000002 2.7553828999999999 1.6715660699999999 La
atom 3.6417456700000002 2.7786072700000002 7.0106736099999996 Hf
atom 3.6264622300000000 7.9825061699999997 1.7999164100000000 Hf
atom 3.6360589200000000 7.9923591199999997 7.0517712599999998 Hf
atom 3.6427848500000000 4.9960119299999999 4.4817015700000002 Hf
atom 3.8622559600000002 5.1665854600000003 9.4622629800000002 La
atom 3.6089224199999999 10.1631512100000005 4.4189181399999997 Hf
atom 3.6815121000000000 10.1146805600000000 9.6808562899999995 Hf
atom 6.4860832000000004 0.2436794600000000 0.7477571500000000 Hf
atom 6.3802226600000003 0.2780977400000000 5.9846320700000000 Hf
atom 6.5995755799999998 5.3998270300000000 0.8691981500000000 Hf
atom 6.4266087299999999 5.4350252599999997 6.1364473200000003 Hf
atom 6.4568481400000000 2.4458159700000000 3.4554195999999999 Hf
atom 6.4935086399999999 2.4044037500000002 8.6534008100000008 Hf
atom 6.3795158100000000 7.5614929000000002 3.4645075500000000 Hf
atom 6.5333480300000000 7.6267699499999999 8.7163048100000005 Hf
atom 8.8337196299999992 2.7670765700000000 0.8834588200000000 Hf
atom 8.6800940700000009 2.8712457499999999 6.0695997999999998 Hf
atom 8.7505292499999996 8.0568993700000000 0.8956570200000000 Hf
atom 8.6710295800000008 7.9951847200000001 6.0854667700000000 Hf
atom 8.6404984799999998 5.0202961699999999 3.5035290899999998 Hf
atom 8.7078011300000000 5.0149132700000001 8.7585811499999995 Hf
atom 8.5753856600000002 10.1420648799999995 3.5659940699999999 Hf
atom 8.6705099400000005 10.1558223299999995 8.7070741500000004 Hf
atom 0.6042776800000000 1.5496780600000000 1.1019420300000000 O
atom 0.3292081700000000 1.7856340900000001 6.1384127900000003 O
atom 0.3405517500000000 7.0034708500000002 1.0434226900000001 O
atom 0.2990879200000000 6.8749179600000003 6.1869778400000000 O
atom 0.2192990300000000 0.8815296400000000 3.6373356999999999 O
atom 0.3063698900000000 0.8379365200000000 8.6370734599999999 O
atom 0.2361983700000000 6.1373270299999998 3.6310086600000000 O
atom 0.3309825300000000 5.9922843400000003 8.8700951299999993 O
atom 4.8685369100000004 4.5161147100000001 0.9810709300000000 O
atom 4.6371004100000004 4.4585749000000003 6.2844907799999996 O
atom 4.7309067300000001 9.5553666499999999 1.0059721200000000 O
atom 4.6407858199999996 9.5539536799999993 6.1899243899999998 O
atom 4.7468205399999999 3.4598725300000002 3.7198150900000000 O
atom 4.6963389700000002 3.1918335199999999 8.7540279099999996 O
atom 4.5964525299999996 8.6070439099999998 3.5545660799999999 O
atom 4.6942095600000000 8.4735201500000006 8.8452239299999995 O
atom 2.4545768600000000 1.2131551599999999 3.0013711299999999 O
atom 2.7542357399999999 1.2292456800000000 8.0957507900000003 O
atom 2.7311606099999999 6.5957047900000001 3.2071553499999998 O
atom 2.5757381000000001 6.6293309999999996 8.2427465499999997 O
atom 2.8954593700000002 1.3642137900000000 0.0581633700000000 O
atom 2.7754117200000001 1.3629423300000001 5.5652876700000000 O
atom 2.6387462099999999 6.3075153899999998 0.6206523900000001 O
atom 2.7539277900000001 6.5052524399999996 5.7490634700000003 O
atom 2.2034192199999998 4.0091847800000000 3.1644763800000000 O
atom 2.1729907599999998 3.7673342700000001 8.3423894500000007 O
atom 2.0595057500000000 9.1945370600000000 3.0091320100000001 O
atom 2.2685495699999998 9.0793066099999997 8.3242827100000003 O
atom 2.2401170800000001 3.9162141600000000 5.7447330900000004 O
atom 2.4593498100000000 8.8613309099999995 0.3754151200000000 O
atom 2.2421972100000001 9.0844515900000005 5.6958253299999999 O
atom 5.6279659100000003 1.7829065700000000 1.6984199000000000 O
atom 5.4319251700000004 1.8247978199999999 6.8273503499999997 O
atom 5.4199118200000003 6.9944953500000002 1.6773261399999999 O
atom 5.3964662499999996 6.9665865800000004 6.9969153100000003 O
atom 5.3593550499999996 0.8597307500000000 4.2173160899999997 O
atom 5.5233801199999997 0.7724663300000000 9.4239612200000007 O
atom 5.3710541599999999 6.0620249399999997 4.3844373900000004 O
atom 5.9090027699999998 5.8971711100000004 9.4319606000000000 O
atom 9.8266727300000003 4.3335529499999996 1.7707961699999999 O
atom 9.7143299800000005 4.3387691000000004 7.0184713399999996 O
atom 9.8433686799999993 9.6130267099999998 1.8835706999999999 O
atom 9.7390843500000006 9.4802596099999992 6.9913182000000003 O
atom 9.7296155700000000 3.5496746799999999 4.3659193099999998 O
atom 9.8911642299999993 3.4858153100000000 9.6923896799999998 O
atom 9.7051493700000009 8.6716792900000002 4.4076693000000002 O
atom 9.7801631800000006 8.7349994300000002 9.6391913299999992 O
atom 7.9398685999999996 1.3412164900000001 9.9724032200000003 O
atom 7.7863372499999999 1.3428218000000001 4.7455923899999997 O
atom 8.0644375000000004 6.5705651400000002 10.1092187800000008 O
atom 7.7880832699999996 6.4947094999999999 4.8110928900000003 O
atom 7.9522810799999997 1.3455054600000000 2.1320411099999999 O
atom 7.8325869700000004 1.3626507699999999 7.3227442700000003 O
atom 7.8378278699999999 6.5369193100000000 2.2289574100000000 O
atom 7.8644701299999999 6.5168040300000003 7.4263964099999997 O
atom 7.4436426400000002 3.8690957899999998 10.0884592499999997 O
atom 7.3032763400000000 3.9398772800000001 4.8245999499999996 O
atom 7.3423955699999999 9.0779325400000008 10.0513510799999999 O
atom 7.2267124699999998 9.0384702000000008 4.8180331199999999 O
atom 7.4143574100000000 3.9105254500000002 2.2065704600000000 O
atom 7.2990609500000003 3.9477684000000002 7.4320709000000003 O
atom 7.3448961400000004 9.0880226700000009 2.2134126900000002 O
atom 7.3079539000000002 9.1061836500000002 7.4113278700000000 O
