lattice_vector 10.0855568299999998 -0.0170567800000000 -0.0189693700000000 
lattice_vector 0.0017592400000000 10.2629070299999992 0.0063967300000000 
lattice_vector -0.0006635800000000 -0.0103673300000000 10.4793753100000000 
atom 1.3582546700000000 0.1223129200000000 1.7099501399999999 La
atom 1.4061083299999999 0.2041286600000000 7.0421468599999999 Hf
atom 1.4028576399999999 5.3355740300000001 1.7962834700000001 Hf
atom 1.4018074800000000 5.3372260999999996 7.0331524999999999 Hf
atom 1.3990922299999999 2.3261939400000000 4.4309491300000001 Hf
atom 1.3998413300000001 2.3842411399999999 9.6287386900000005 Hf
atom 1.4101959799999999 7.4620106799999997 4.4287958800000000 Hf
atom 1.4184715000000001 7.4542123699999996 9.6489978599999997 Hf
atom 3.6302443200000001 2.7581958300000000 1.7887576900000000 Hf
atom 3.6419311799999998 2.7614415299999999 7.0295878700000003 Hf
atom 3.6958180100000000 7.8606995199999998 1.7922675500000000 Hf
atom 3.6365020499999998 7.8992498500000004 7.0310899200000003 Hf
atom 3.6347181700000002 4.8903743899999998 4.4059341800000000 Hf
atom 3.6432898400000000 4.8938256000000004 9.6581040100000006 Hf
atom 3.6515588900000000 10.0332051399999997 4.4235023000000000 Hf
atom 3.6841712499999999 10.0406774199999997 9.6273732499999998 Hf
atom 6.4550238499999999 0.2022088100000000 0.8305555600000000 Hf
atom 6.4388027299999999 0.2008980500000000 6.0701431200000000 Hf
atom 6.4373764600000003 5.3124777800000000 0.8031447100000000 Hf
atom 6.4368351700000002 5.3275304999999999 6.0357578299999997 Hf
atom 6.4325137600000000 2.3452900699999999 3.4321094400000001 Hf
atom 6.4481793300000003 2.3309587999999999 8.6673512299999995 Hf
atom 6.4544021599999999 7.4632852999999999 3.4418929399999998 Hf
atom 6.4380600799999996 7.4596785700000003 8.6569216099999995 Hf
atom 8.6660707000000006 2.7930831000000000 0.7826186300000000 Hf
atom 8.6865786600000003 2.7663743599999999 6.0450877900000002 Hf
atom 8.6446301400000003 7.8544214500000002 0.8004118300000000 Hf
atom 8.6979404799999998 7.8952278800000002 6.0580273699999996 Hf
atom 8.6883574299999999 4.9014660100000000 3.4253894300000001 Hf
atom 8.6737878599999991 4.9042495099999996 8.6398066799999995 Hf
atom 8.6260756000000001 10.0368820400000001 3.4887510300000000 Hf
atom 8.6937176300000001 10.0272012000000004 8.6904282500000001 Hf
atom 0.3268014400000000 1.9101288199999999 0.8347575200000000 O
atom 0.3430454300000000 1.7366779999999999 6.1883090400000000 O
atom 0.3466441000000000 6.8560060900000002 0.8858739400000000 O
atom 0.3375146400000000 6.8307319800000004 6.1383877800000004 O
atom 0.2261617400000000 0.8886301200000000 3.6595619199999998 O
atom 0.3532621700000000 0.8374642900000000 8.7804064700000009 O
atom 0.3338508400000000 5.9999918000000001 3.5062894099999999 O
atom 0.3255746100000000 5.9880095700000000 8.7257633400000003 O
atom 4.7186586600000000 4.2251126899999996 0.8512825200000000 O
atom 4.7214359999999997 4.2270817899999997 6.0929758800000000 O
atom 4.7378274899999999 9.3970447999999998 0.8790849900000000 O
atom 4.7211714599999999 9.3658132399999996 6.1112863700000002 O
atom 4.7250873899999997 3.4529722500000002 3.4712409599999998 O
atom 4.7196761900000004 3.4221726700000001 8.7135294900000009 O
atom 4.7639547300000000 8.5678046099999996 3.4896988000000002 O
atom 4.7374985100000000 8.5640702500000003 8.6966656899999997 O
atom 2.8489660799999998 1.3113442799999999 3.1769887899999998 O
atom 2.7808897799999999 1.2609053299999999 8.2973303200000004 O
atom 2.7969887999999998 6.3495564599999996 3.0860370900000000 O
atom 2.7862821100000001 6.3922428499999997 8.3298473000000008 O
atom 2.8959622999999999 1.3854179700000000 0.3461749200000000 O
atom 2.7763504299999999 1.2699797700000000 5.7268928499999996 O
atom 2.7791550800000002 6.3619285100000003 0.4827877100000000 O
atom 2.7810594700000002 6.4078101399999996 5.7113007099999997 O
atom 2.2405593399999999 3.8168439599999999 3.0841803799999998 O
atom 2.2696406900000001 3.8406932199999999 8.3174388500000003 O
atom 2.3687073500000002 8.8387947899999997 3.1634593899999999 O
atom 2.2671833100000001 8.9563884599999994 8.3053078700000000 O
atom 2.2498900000000002 3.8746748300000000 0.4647120600000000 O
atom 2.2644104500000002 3.8493522499999999 5.7120164000000004 O
atom 2.4587552399999999 8.8304706799999995 0.3493089800000000 O
atom 2.2606312399999999 8.9828953899999995 5.7256128999999998 O
atom 5.3742984199999997 1.6826239199999999 1.7418271299999999 O
atom 5.3691449400000000 1.6718375200000000 6.9803345600000002 O
atom 5.3837382500000004 6.7703853599999997 1.7549289200000000 O
atom 5.3617146099999999 6.7899104200000000 6.9823534000000000 O
atom 5.3793539199999998 0.8575490000000000 4.3677698800000000 O
atom 5.4200826900000001 0.8369927600000000 9.5781151900000001 O
atom 5.3595011799999996 5.9957903500000000 4.3685821000000002 O
atom 5.3540866100000004 6.0033584400000004 9.6116760699999997 O
atom 9.7159174600000000 4.3064211999999999 1.7017458500000000 O
atom 9.7441754899999999 4.2728187499999999 6.9334159599999996 O
atom 9.4900784900000001 9.3328361199999996 1.7894639000000001 O
atom 9.7502928099999995 9.3783551099999993 6.9855338600000003 O
atom 9.7550659100000008 3.4309650500000002 4.3512703500000001 O
atom 9.7236706999999996 3.4311262199999999 9.5147330399999994 O
atom 9.7606676500000003 8.5452622500000004 4.3650142499999998 O
atom 9.7877145999999993 8.5647154099999998 9.6274293300000000 O
atom 7.8434335400000004 1.2518038600000001 10.0024932399999997 O
atom 7.7860184700000001 1.2773255299999999 4.7909241199999997 O
atom 7.8058081699999997 6.3605071200000003 9.9705168799999999 O
atom 7.8296694899999997 6.3881959000000004 4.7525221599999998 O
atom 7.8211973300000004 1.2954307599999999 2.1567206200000002 O
atom 7.8301911400000002 1.2749273400000001 7.3899993100000003 O
atom 7.8229579600000001 6.4084104699999997 2.1298428399999998 O
atom 7.8148135400000003 6.4133914399999998 7.3572490400000001 O
atom 7.2825287000000003 3.8227295200000002 9.9722785100000007 O
atom 7.3038881699999996 3.8332386899999999 4.7436356300000000 O
atom 7.3123826699999999 8.9368862300000007 9.9990202600000000 O
atom 7.3044622600000002 8.9482007100000001 4.7923857400000003 O
atom 7.2903880200000000 3.8544264400000001 2.1336858699999999 O
atom 7.3032086600000001 3.8374448499999998 7.3566869700000002 O
atom 7.1695938500000000 8.9737330499999999 2.1650516299999998 O
atom 7.3124618699999999 8.9717661399999997 7.3907820800000001 O
