lattice_vector 10.0707422399999995 -0.0298033400000000 -0.0872678000000000 
lattice_vector 0.0064941700000000 10.2546393899999995 -0.0116167300000000 
lattice_vector -0.0308496700000000 -0.0314926600000000 5.2500337600000000 
atom 1.2250773100000001 -0.0217463100000000 1.5934656899999999 La
atom 1.3850988900000001 5.3343448200000001 1.7074125700000000 Hf
atom 1.3598478300000001 2.3293553899999999 4.3122688199999999 Hf
atom 1.2866086299999999 7.4590339999999999 4.3429814400000000 Hf
atom 3.5847506199999999 2.7337148500000001 1.7107115700000000 Hf
atom 3.7212550400000000 7.8204431100000003 1.8022171199999999 Hf
atom 3.6113390800000000 4.8704267899999998 4.3387331299999996 Hf
atom 3.6943904600000002 10.0932553800000004 4.2543789099999998 Hf
atom 6.3985984100000000 0.1950969200000000 0.8023431600000001 Hf
atom 6.4257831599999999 5.2829307200000004 0.7303770700000000 Hf
atom 6.4230719900000004 2.3283203200000000 3.3675345100000000 Hf
atom 6.4509977300000001 7.4192863600000001 3.3993507699999999 Hf
atom 8.6882356299999994 2.7748281200000000 0.7204947700000000 Hf
atom 8.6620935499999998 7.8402388099999998 0.8455913100000000 Hf
atom 8.6524522600000005 4.8698353399999998 3.3515377900000001 Hf
atom 8.6355976699999992 9.9885965500000005 3.4890229800000001 Hf
atom 0.3346553200000000 1.8446769100000000 0.7896523100000000 O
atom 0.2894833900000000 6.7285634099999996 0.7360953000000000 O
atom 0.1987519900000000 0.9193757700000000 3.4833981899999999 O
atom 0.2804057000000000 6.0588958399999999 3.3929733400000002 O
atom 4.6907669600000004 4.2391167000000003 0.7881144600000000 O
atom 4.5609100099999997 9.3989172199999995 0.7942903200000000 O
atom 4.6881943399999999 3.4093001400000000 3.4079098100000000 O
atom 4.7992368499999998 8.5582880200000009 3.4091374100000000 O
atom 2.7929314800000000 1.2727343600000001 3.0001250499999998 O
atom 2.7613187799999999 6.3296950100000000 2.9921902500000002 O
atom 2.8379879400000001 1.3316408700000000 0.2739841500000000 O
atom 2.7516854300000002 6.5230076400000003 0.3484847500000000 O
atom 2.2240087800000001 3.8138222700000002 3.0091059900000001 O
atom 2.3531134800000002 8.8454087999999995 3.1968958500000002 O
atom 2.2484253700000001 3.9024772500000000 0.3861886500000000 O
atom 5.3538357899999998 1.6741075100000000 1.6700145300000000 O
atom 5.3864668599999996 6.7693456699999999 1.6835263499999999 O
atom 5.4205671400000002 0.8057699200000000 4.2724275799999996 O
atom 5.3436899799999997 5.9675494799999997 4.3060741399999998 O
atom 9.7143393499999995 4.2566079700000001 1.6615435400000000 O
atom 9.7057078200000007 8.7008377899999996 2.3505285800000002 O
atom 9.7065565199999995 3.4497177300000001 4.2654321499999996 O
atom 9.9316448499999996 8.9185293899999998 4.8926117800000002 O
atom 7.7496354800000002 1.2324730300000000 4.7844049699999998 O
atom 7.8143307399999999 6.3434561199999999 4.7176664700000002 O
atom 7.8219546299999996 1.2215171000000000 2.1260437699999999 O
atom 7.7703899200000004 6.3616546400000002 2.0879633700000002 O
atom 7.2555713700000002 3.7976105599999999 4.6779675500000000 O
atom 7.3215482300000003 8.8680468900000005 4.7514696399999998 O
atom 7.2804871300000000 3.8095624300000002 2.0635962000000001 O
atom 7.2345891800000004 8.9869456000000003 2.0899419099999998 O
