lattice_vector 10.1254859100000001 -0.1201192800000000 0.0184145100000000 
lattice_vector -0.0361801700000000 10.2952391599999995 -0.1970249400000000 
lattice_vector 0.0376855900000000 -0.3453002100000000 10.0468304300000000 
atom 1.4542789899999999 0.0222081200000000 1.1903079999999999 Si
atom 1.1384430600000000 -0.1547214700000000 6.2825271100000002 La
atom 1.2240107200000001 5.2100140599999998 1.2077243799999999 Hf
atom 1.5087705899999999 5.0041182099999997 6.1791833299999999 Hf
atom 6.4915812400000004 -0.1783535400000000 1.3488664900000000 Hf
atom 6.4127953599999996 -0.4236214600000000 6.2906254400000003 Hf
atom 6.1555786699999997 5.1697053700000000 1.1997305300000001 Hf
atom 6.5425496000000001 4.7563028100000002 6.3044447300000002 Hf
atom 1.3866794700000000 2.5570539399999999 3.7363421500000000 Hf
atom 1.3720234300000000 2.2285078600000001 9.0062514900000004 Hf
atom 0.9556124400000000 7.5134030100000002 3.6866850800000002 Hf
atom 1.3168528799999999 7.3271299299999999 8.6684424500000006 Hf
atom 6.2436458400000001 2.5126521700000000 3.5629854399999998 Hf
atom 6.2841421700000000 2.1685261400000000 8.7385779600000006 Hf
atom 6.0087139599999997 7.6435256400000000 3.5678689100000001 Hf
atom 6.3216186299999997 7.3957275999999998 8.6410331199999995 Hf
atom 3.8478948000000002 2.5278264300000002 1.1090673499999999 Hf
atom 3.7730776100000001 2.1758386700000001 6.3699460099999996 Hf
atom 3.6149526700000001 7.7226764399999999 1.1033435599999999 Hf
atom 3.6122779700000001 7.7169384900000004 5.8778693200000003 Hf
atom 8.6710783500000002 2.6468621600000000 1.1203088500000000 Hf
atom 8.7469458499999995 2.0664773200000002 6.1191618900000000 Hf
atom 8.6489635499999995 7.4661598299999996 1.3326084199999999 Hf
atom 8.6703981399999996 7.3783186399999998 6.0671516800000003 Hf
atom 3.8030055699999998 0.0874351700000000 3.6458071099999998 Hf
atom 3.9022554299999999 -0.4663084900000000 8.7002507500000004 Hf
atom 3.8986252499999998 4.9830649500000002 3.8413338399999999 Hf
atom 3.8953131100000000 4.9294803700000003 8.6313008300000007 Hf
atom 9.1086673900000008 -0.1342007700000000 3.5441296699999998 Hf
atom 8.9918859300000005 -0.3850987500000000 8.9087125000000000 La
atom 8.9794853600000000 4.6610773999999999 3.8976179100000001 Hf
atom 8.8262181700000006 4.8883909799999996 8.8332969299999995 Hf
atom -0.0951432300000000 1.6997768099999999 0.0867593100000000 O
atom -0.0255688600000000 1.3528744600000000 4.7368028200000003 O
atom -0.1169759600000000 6.8049325999999999 -0.0424010000000000 O
atom 0.0208254200000000 6.3061694900000003 5.0666355899999997 O
atom 4.7822733900000003 1.5511329800000000 -0.3411943600000000 O
atom 5.0691808500000004 1.4429514999999999 4.8236568499999999 O
atom 4.9890272099999997 6.6940954799999997 -0.0822815700000000 O
atom 4.9823689099999999 6.4931459399999998 4.9198976700000001 O
atom 0.5775390300000000 0.7816412600000000 2.3848138699999999 O
atom -0.2972077500000000 6.0456431400000001 2.4779595300000001 O
atom 0.3168407100000000 5.5424927600000000 7.6872444499999997 O
atom 5.2288412299999996 1.0870865700000001 2.2986118699999998 O
atom 4.9967616899999996 0.6695327100000000 7.2906307999999997 O
atom 4.7057485100000003 6.2054225699999996 2.3717101899999999 O
atom 5.3782141100000000 5.8021039400000003 7.5765904099999997 O
atom -0.1242065400000000 3.4015467300000002 2.5729889300000002 O
atom 0.0437598500000000 1.6759275400000000 7.4941028699999999 O
atom -0.1255486600000000 8.6454733800000003 2.3590898700000000 O
atom -0.0315556600000000 8.2398881199999998 7.4097209099999999 O
atom 4.9667294999999996 3.6748886199999999 2.4021968000000000 O
atom 5.1938406400000003 3.3101106499999999 7.3760592400000000 O
atom 4.9527460300000001 8.8188806399999997 2.2673526800000001 O
atom 5.0126306100000004 8.3824152200000004 7.3070684100000003 O
atom -0.0745938400000000 4.1706238700000000 -0.1100781400000000 O
atom 0.1175594400000000 3.7786340200000001 5.2178875299999996 O
atom 0.6085973700000000 9.3812487600000001 -0.0934082600000000 O
atom -0.3706104400000000 8.8674511200000001 4.7771900599999997 O
atom 4.9357311599999996 4.0720285399999998 -0.1094864600000000 O
atom 5.3654411499999997 3.9967750799999999 4.8204817499999999 O
atom 5.3372838900000001 9.3536801100000009 -0.3390237100000000 O
atom 4.8587908100000003 9.1563192099999995 4.7974800000000002 O
atom 2.9316999899999998 1.8020537000000001 2.7342552699999998 O
atom 2.6518358499999999 1.1659225200000001 7.7916445200000002 O
atom 2.0941671199999998 6.9224221699999999 2.1196661200000002 O
atom 2.7753859699999999 6.3239036400000002 7.3081803200000000 O
atom 7.8646718599999996 1.3268336000000001 2.5632647899999998 O
atom 7.4777558800000001 1.1177530099999999 7.4746053000000003 O
atom 7.2220880200000002 6.5349618200000004 2.4185484900000001 O
atom 7.7966679100000000 6.2487698299999996 7.5444628500000004 O
atom 2.3752332799999998 1.0315394600000001 0.2027187000000000 O
atom 2.5917761399999999 1.0673734800000001 5.0378597599999999 O
atom 2.4257137599999998 6.1279915000000003 -0.2042541700000000 O
atom 2.4744676000000001 6.2180758599999999 4.7892678300000000 O
atom 7.3414869400000002 1.2381196200000000 0.1106005900000000 O
atom 7.7833759999999996 0.5107141800000000 5.1036481599999997 O
atom 7.4630546600000001 6.2122732500000000 -0.0280712300000000 O
atom 7.6956230400000001 5.7752628300000000 5.0144248300000003 O
atom 2.3883526100000001 3.6413448200000000 0.3135880700000000 O
atom 2.7691359900000001 3.6024954700000000 5.1150450999999997 O
atom 2.9428089200000001 8.5602816100000005 -0.5616156700000000 O
atom 2.4073194899999999 8.7423134000000005 4.4628556499999998 O
atom 7.4797586100000002 3.7347466300000001 -0.1841369600000000 O
atom 7.7149891100000003 3.2056789000000001 4.8126295700000004 O
atom 7.7239977000000000 8.7286082500000006 0.0044322700000000 O
atom 7.1977912499999999 8.2472968899999994 5.0280834700000003 O
atom 2.2167672500000002 4.3572418300000004 2.7823159300000002 O
atom 2.4715388200000001 3.7004241499999999 7.6440994099999999 O
atom 2.6133471099999999 9.5437069399999999 1.8428064700000000 O
atom 2.5480529700000001 8.8645952700000006 7.2018120799999998 O
atom 7.4965365400000001 3.9957243800000000 2.3846262199999999 O
atom 7.9707461799999999 3.6827125500000002 7.3325687100000003 O
atom 7.4988791199999998 9.0413797200000001 2.5278364099999999 O
atom 7.4871257800000004 8.7423096299999994 7.3772640200000001 O
