lattice_vector 10.0539775500000008 0.0407367600000000 0.7920165800000000 
lattice_vector 0.0782055000000000 10.2570586200000005 0.0145017600000000 
lattice_vector 0.8136124400000000 -0.0147098400000000 10.4148743800000005 
atom 1.3843017500000001 0.0942054100000000 1.8546148700000000 Si
atom 1.8921492300000000 0.2237363900000000 6.8005525999999996 Hf
atom 1.5633224999999999 5.3280495400000003 1.6201145200000000 Hf
atom 1.9549902900000000 5.3699057799999999 6.8325075799999997 Hf
atom 6.5464443100000000 0.2463349700000000 2.0040549699999999 Hf
atom 6.9248301500000000 0.2554078700000000 7.2407677200000000 Hf
atom 6.5630836300000004 5.3385990300000001 2.0289624100000001 Hf
atom 6.9596262800000002 5.3459089700000000 7.2669470399999998 Hf
atom 1.7151499600000000 2.3362705400000001 4.1440657200000004 Hf
atom 2.2078058999999999 2.2689016999999998 9.4241204300000003 Hf
atom 1.5436033300000001 7.6553668300000002 4.1584722200000002 La
atom 2.1757815900000002 7.4961200300000002 9.4484835500000006 Hf
atom 6.7303151500000000 2.4094069199999999 4.6392284500000001 Hf
atom 7.1802332099999999 2.3823247099999998 9.8487644299999992 Hf
atom 6.8057815899999996 7.4771705700000002 4.6327645300000002 Hf
atom 7.1675404499999997 7.4767969499999998 9.8983446199999996 Hf
atom 3.7169599500000001 2.7742735900000000 1.3347108800000000 Hf
atom 4.0980440500000004 2.8181689200000002 6.5423204200000002 Hf
atom 3.7336725400000002 8.0002257100000005 1.3643262100000000 Hf
atom 4.1812347000000001 7.9252803800000002 6.5882110999999997 Hf
atom 8.8701611099999997 2.7197260700000001 1.7889076500000001 Hf
atom 9.1769871799999994 2.8097815900000001 6.9887232199999998 Hf
atom 8.8195241099999997 7.9324484100000001 1.8006914900000000 Hf
atom 9.0876702300000005 7.8736653600000004 7.1249242800000001 Hf
atom 3.9170810500000002 4.9788871600000002 3.9670761300000001 Hf
atom 4.3420072899999997 4.9320058800000002 9.1860191300000000 Hf
atom 4.0252195799999999 10.0854092000000009 3.9469984400000002 Hf
atom 4.3948934700000004 10.1015171299999995 9.1971836200000006 Hf
atom 8.9642341099999996 4.9008400400000003 4.3621394499999999 Hf
atom 9.4362848899999996 4.8923929099999999 9.6400618900000001 Hf
atom 8.9420053900000003 10.1248864899999997 4.4045286800000003 Hf
atom 9.4314970799999998 10.0704855200000001 9.5841675300000002 Hf
atom 0.5951597000000000 1.4173623300000000 0.9571699800000000 O
atom 0.8462138600000000 1.7214996300000001 6.0086027900000003 O
atom 0.4982582200000000 6.8742114299999999 0.9019574200000000 O
atom 0.7602533299999999 6.8464397400000001 6.2127345199999997 O
atom 5.4791627900000002 1.7540833700000000 1.2440665600000000 O
atom 5.8399126700000004 1.7586695100000000 6.4499558700000001 O
atom 5.4905809500000000 6.8934176000000003 1.2760888500000001 O
atom 5.9527513900000004 6.9113208000000004 6.4740964900000000 O
atom 0.6963247100000000 0.6197981700000000 3.4893487099999998 O
atom 1.0350832200000000 0.8061538200000000 8.6383997600000004 O
atom 0.6700255000000001 5.7389801900000004 3.4585266699999999 O
atom 1.1073949100000000 5.9318296200000002 8.7455893099999997 O
atom 5.6618898399999997 0.9004836400000000 3.8211224399999999 O
atom 6.1054123100000002 0.8533422200000000 9.0560292199999992 O
atom 5.7169280999999996 5.9673825899999997 3.8759252200000001 O
atom 6.0638864100000003 6.0084395900000001 9.0643083200000003 O
atom 4.8440508600000003 4.3049291299999997 2.1490522099999998 O
atom 5.2229190100000000 4.3188741799999999 7.3511246000000003 O
atom 4.9443345699999997 9.4145402800000006 2.1714466799999999 O
atom 5.2999371100000001 9.4401817799999996 7.3652199600000001 O
atom 9.8855782100000003 4.2646436400000001 2.5067489799999998 O
atom 10.2814693300000002 4.2989384499999996 7.7869411800000004 O
atom 10.0804058899999998 9.3357484599999996 2.7370679500000001 O
atom 10.2740808900000005 9.4389737000000000 7.6907441700000003 O
atom 5.0255372100000004 3.4664874000000001 4.7591857299999996 O
atom 5.5127806499999998 3.4986070800000002 9.9807537199999992 O
atom 5.1002745799999998 8.5622896900000001 4.7414759300000000 O
atom 5.4199983999999999 8.5502661700000004 9.9791095300000006 O
atom 9.9823838600000006 3.3051654199999998 5.0862525200000004 O
atom 10.5217107399999996 3.3410644600000001 10.4169400400000001 O
atom 10.4945154299999999 8.5641703299999996 10.3973770900000009 O
atom 2.7725088800000002 1.2576097399999999 2.4984541899999999 O
atom 3.3561862699999998 1.3062668799999999 7.8227015499999997 O
atom 3.0481470399999999 6.4675343300000003 2.6496579800000002 O
atom 3.4112994900000002 6.4689816999999996 7.9369237400000001 O
atom 8.0463496400000007 1.3025348900000000 3.1334145200000001 O
atom 8.4334297599999992 1.3527471000000000 8.3193938000000003 O
atom 8.0583973400000009 6.4617936499999997 3.1334202000000002 O
atom 8.4158693899999992 6.4358379100000001 8.4183567799999999 O
atom 3.2042606999999999 1.3254203899999999 5.1995456899999999 O
atom 3.8229888200000000 1.4526138399999999 10.3025096900000008 O
atom 3.2447055400000000 6.3723253099999999 5.3862802900000002 O
atom 3.6286570800000000 6.4355041300000000 10.5183166299999993 O
atom 8.1838359999999994 1.2788241499999999 5.7358896899999996 O
atom 8.6516795599999998 1.2342043100000000 10.9381784199999998 O
atom 8.2799133900000008 6.3839597699999997 5.7555559399999998 O
atom 8.6735452800000008 6.3733937200000002 10.9716399300000003 O
atom 2.2774234099999999 3.9269774200000001 0.2539147900000000 O
atom 2.6250141000000000 3.9054171000000002 5.4408869099999997 O
atom 2.2422273700000002 9.3269449400000006 0.3932174800000000 O
atom 2.8343320599999999 9.1388493299999993 5.5143422500000003 O
atom 7.3811466200000000 3.8801655899999998 0.7083018900000000 O
atom 7.7014421100000003 3.9152073000000001 5.9023457400000003 O
atom 7.3571069199999997 9.0433015799999996 0.7030855300000000 O
atom 7.8399959600000004 9.0457221499999996 5.8872119700000001 O
atom 2.5196995300000000 3.7805640500000002 2.8634198500000001 O
atom 2.8933237599999999 3.7829218500000001 8.0812203100000009 O
atom 2.5384111100000002 9.1565744400000000 2.7368412499999999 O
atom 2.9356378500000000 8.9333250700000004 8.1201950600000004 O
atom 7.5331962099999998 3.7767046199999998 3.2637378099999999 O
atom 7.9360102699999997 3.8306035100000000 8.5145493200000004 O
atom 7.6118142000000004 8.9576878400000002 3.2959973100000002 O
atom 7.9219153799999997 8.9516115200000002 8.5453965899999993 O
