lattice_vector 10.0001322100000003 -0.0136491400000000 -0.0188630900000000 
lattice_vector 0.0117894200000000 10.4043169599999992 -0.0079779900000000 
lattice_vector -0.0067966200000000 -0.0333256200000000 5.0261051700000001 
atom 1.1162586600000000 0.0084987800000000 1.2847130400000000 La
atom 1.3523376600000001 5.3724206499999996 1.2626387500000000 Hf
atom 6.3365280400000001 0.1659744100000000 1.2622520100000001 Hf
atom 6.3014427900000003 5.3098772700000003 1.2497826200000000 Hf
atom 1.3533647799999999 2.4042061399999999 3.7269245799999999 Hf
atom 1.3880814299999999 7.6122968999999996 3.8246272399999999 Hf
atom 6.3231081500000004 2.4043175799999998 3.7519827200000000 Hf
atom 6.3228002800000001 7.5722399300000003 3.7624661000000001 Hf
atom 3.6217422099999999 2.7157941200000000 1.2582042800000000 Hf
atom 3.7085708799999999 7.9469085699999997 1.2547858300000001 Hf
atom 8.6570206899999995 2.8132385000000002 1.2317475700000000 Hf
atom 8.5905599800000001 7.8429798599999998 1.2272223700000000 Hf
atom 3.6480437800000001 4.9758896899999998 3.7806297600000001 Hf
atom 3.6772381400000000 10.2141324900000008 3.7715469399999999 Hf
atom 8.6682384500000005 4.9859703800000004 3.7551453100000001 Hf
atom 8.5633192499999993 10.1979005699999998 3.8413167300000000 Hf
atom 0.3655486300000000 2.1055795100000001 1.8545792400000001 O
atom 0.3592544400000000 7.2729381499999999 1.9954477700000000 O
atom 5.3875449299999998 1.9079516900000000 1.9217158700000001 O
atom 5.3859227199999999 7.0731848800000003 1.9515104500000000 O
atom 0.3543720300000000 0.6153191400000000 3.9838964200000002 O
atom 0.3268136900000000 5.9262249400000000 4.5044452699999997 O
atom 5.3982464400000003 0.6476686100000000 4.4619976399999999 O
atom 5.3427256800000000 5.8466270600000003 4.4704808199999997 O
atom 4.6310298400000001 4.4771527899999999 1.9619024400000000 O
atom 4.7222188599999999 9.6777655500000002 1.9793919000000000 O
atom 9.6112465999999994 4.6057743899999997 1.9155205399999999 O
atom 4.6411829500000001 3.2445906500000001 4.4587268099999999 O
atom 4.7059831699999997 8.4609980999999994 4.4903687699999999 O
atom 9.6373221699999991 3.2680961300000000 4.4207787600000001 O
atom 9.7274168000000003 8.5892782400000005 4.6250150100000003 O
atom 2.8066764599999998 1.2658318000000000 2.5374983499999999 O
atom 2.6775298300000001 6.3786665300000003 2.5283858100000001 O
atom 7.7275188400000001 1.1768317399999999 2.4928159600000002 O
atom 7.6833720899999998 6.3555162999999997 2.4806530400000000 O
atom 2.6811007500000001 1.3412507700000000 4.9919905299999998 O
atom 2.7180772499999999 6.5081558199999998 5.0450737800000001 O
atom 7.7229459299999998 1.3449809200000000 5.0151827500000001 O
atom 7.6895518500000000 6.5092939899999998 4.9776088100000004 O
atom 2.2849793500000000 3.9506855000000001 5.0304338199999998 O
atom 2.4189510200000002 9.0512113299999992 4.9883307600000002 O
atom 7.2829581299999999 3.9429657100000002 4.9902807100000004 O
atom 7.2509894399999997 9.0711680700000006 5.0635620599999998 O
atom 2.2823095300000000 3.8259230700000000 2.5014644599999998 O
atom 2.4388195800000001 8.9161928100000001 2.5719313800000001 O
atom 7.2941436599999996 3.7930402700000001 2.4936965400000002 O
atom 7.4207927900000001 8.9667582100000001 2.5432869800000000 O
