lattice_vector 9.9245570599999997 0.0055375900000000 0.0542830100000000 
lattice_vector -0.0280876700000000 10.3666328300000004 -0.1813091300000000 
lattice_vector 0.0654848500000000 -0.2066633600000000 9.9240812999999992 
atom 1.1489588200000000 0.3101203600000000 1.1086516500000001 Si
atom 1.4100422699999999 0.0764210600000000 6.2689145699999997 Hf
atom 1.1349626600000000 5.4940741800000001 1.0175709600000000 Si
atom 1.3961507200000001 5.2597266800000000 6.1780948599999999 Hf
atom 6.3550995400000003 0.2236910100000000 1.2956975100000001 Hf
atom 6.2274943499999997 0.0166328800000000 6.1295504999999997 Hf
atom 6.3409744100000003 5.4072224200000001 1.2048083900000000 Hf
atom 6.2134266699999996 5.2001320099999999 6.0386675399999996 Hf
atom 1.3817535500000000 2.1770317399999999 3.6387923700000000 Hf
atom 1.3534074800000000 2.3425505599999998 8.7792675700000000 Hf
atom 1.3677288900000000 7.3606159199999999 3.5483404200000002 Hf
atom 1.3392493000000001 7.5259364700000004 8.6883658700000002 Hf
atom 6.3619588599999997 2.3811999799999999 3.7634044200000001 Hf
atom 6.3609593799999997 2.2902526800000000 8.5921797800000004 Hf
atom 6.3477917300000000 7.5644840400000000 3.6726105699999998 Hf
atom 6.3467919400000001 7.4736365800000000 8.5013982899999991 Hf
atom 3.8841326899999999 2.7189957599999999 1.0388282700000000 Hf
atom 3.6425368300000001 2.6989075100000002 6.2322984999999997 Hf
atom 3.8696386199999999 7.9024794299999996 0.9482674800000001 Hf
atom 3.6284201299999999 7.8823321499999999 6.1416474100000000 Hf
atom 8.6586991599999994 2.7932402399999998 1.1988784600000000 Hf
atom 8.7113620500000000 2.6196293800000001 6.1328803900000004 Hf
atom 8.6446108499999994 7.9764509700000001 1.1081983399999999 Hf
atom 8.6971512299999993 7.8029256100000000 6.0422206300000001 Hf
atom 3.5987675600000002 4.8054187099999996 3.5986115900000000 Hf
atom 3.5605117200000000 4.9537148100000001 8.7478862399999997 Hf
atom 3.5848247600000001 9.9889196099999999 3.5081570900000001 Hf
atom 3.5465315600000000 10.1372202500000004 8.6575061400000006 Hf
atom 8.6767135999999994 4.9673404999999997 3.6486630500000001 Hf
atom 8.6142208999999994 4.8868557199999998 8.5814080799999992 Hf
atom 8.6625324999999993 10.1507597599999997 3.5582394200000000 Hf
atom 8.6003142700000001 10.0703777300000006 8.4908789700000007 Hf
atom 0.4146341200000000 1.8345545400000001 1.7589927200000000 O
atom 0.3706868200000000 1.7665514800000000 7.0016112200000000 O
atom 0.4005840100000000 7.0179058200000002 1.6685859000000001 O
atom 0.3567411500000000 6.9499566699999997 6.9107868699999999 O
atom 5.3912095400000002 1.9318253900000000 2.0144977200000000 O
atom 5.3334331500000003 1.7932020099999999 6.8526184800000003 O
atom 5.3767003400000002 7.1151604900000001 1.9239046600000000 O
atom 5.3192874400000001 6.9765535600000002 6.7618841900000000 O
atom 0.3168504300000000 0.6328854000000000 4.5844116300000000 O
atom 0.3932398100000000 0.4806459100000000 9.4813317900000005 O
atom 0.3028857200000000 5.8161702899999996 4.4937199000000003 O
atom 0.3790750200000000 5.6641248800000001 9.3903900199999999 O
atom 5.3463957100000004 0.6154567500000000 4.3280032200000003 O
atom 5.1933864700000001 0.7642521400000000 9.5689025700000006 O
atom 5.3321936100000000 5.7987972000000001 4.2374051499999998 O
atom 5.1792694600000004 5.9476223700000004 9.4782754699999998 O
atom 4.6448483500000002 4.5252554700000003 1.7958814900000000 O
atom 4.5708970100000004 4.4577612100000001 6.9176372300000004 O
atom 4.6308550200000003 9.7086768200000009 1.7052647400000001 O
atom 4.5569287899999997 9.6411172900000004 6.8270537600000001 O
atom 9.7779776799999993 4.5307631500000003 1.7852743099999999 O
atom 9.6327068100000002 4.3611777600000003 6.8438589099999998 O
atom 9.7637868300000008 9.7141092300000000 1.6943852800000001 O
atom 9.6185591200000005 9.5445606499999993 6.7531216100000000 O
atom 4.7590444999999999 3.2950726499999998 4.5651768199999996 O
atom 4.6106592300000004 3.2450096099999999 9.1873844600000005 O
atom 4.7447492499999999 8.4781287600000006 4.4743565700000003 O
atom 4.5963148800000004 8.4281566699999999 9.0967419899999999 O
atom 9.6199415399999992 3.1706452999999999 4.2775154899999999 O
atom 9.5207993900000005 3.1131810000000000 9.2949654299999995 O
atom 9.6058193299999992 8.3539041199999993 4.1869883899999998 O
atom 9.5066854400000000 8.2964663400000003 9.2041993000000009 O
atom 2.1621568299999998 0.4515834300000000 2.5068130499999999 O
atom 2.7238563600000001 1.1683987400000000 7.5383996900000003 O
atom 2.1481676099999998 5.6350742199999999 2.4158306500000002 O
atom 2.7097574799999999 6.3517943900000002 7.4476519400000001 O
atom 7.7620085400000001 1.2138110300000000 2.4720128300000002 O
atom 7.6194406900000002 1.0214694400000000 7.4102934400000002 O
atom 7.7478107899999999 6.3972258599999998 2.3810745400000002 O
atom 7.6054450600000001 6.2048446400000001 7.3194460599999998 O
atom 2.7650117399999998 1.2227797899999999 4.9477555700000000 O
atom 2.5707017400000001 1.2335574100000000 10.1050943100000001 O
atom 2.7509527500000002 6.4061791299999999 4.8571707599999998 O
atom 2.5562774400000001 6.4167169599999996 10.0146298500000004 O
atom 7.6529622599999998 1.2851462700000000 4.9506065100000001 O
atom 7.6640965500000000 1.2417694600000000 9.8980355499999995 O
atom 7.6388282199999997 6.4685335200000003 4.8597822099999997 O
atom 7.6499674100000004 6.4251683200000000 9.8072020799999997 O
atom 2.2602433199999998 3.8083093099999998 4.9503050799999997 O
atom 2.1829803999999999 3.9584877199999999 10.1014353299999993 O
atom 2.2462529099999999 8.9917359900000005 4.8598064499999998 O
atom 2.1688190500000002 9.1418274200000003 10.0111017899999997 O
atom 7.3730138700000003 3.9076105200000000 4.8853540400000002 O
atom 7.2364897600000004 3.8473275000000000 9.8166323400000000 O
atom 7.3588041600000000 9.0909084399999998 4.7944686799999996 O
atom 7.2224516500000000 9.0306573900000000 9.7258738600000001 O
atom 2.8171232599999998 3.0909648800000000 2.6371832600000000 O
atom 2.2627765800000001 3.7330701999999998 7.5113423399999997 O
atom 2.8023209200000001 8.2751113600000004 2.5462195699999999 O
atom 2.2485982400000002 8.9166353899999997 7.4207405399999997 O
atom 7.3154162600000001 3.8103094099999999 2.4008116300000002 O
atom 7.2985873799999998 3.6289815299999999 7.3284032300000002 O
atom 7.3012669900000002 8.9937114900000008 2.3099916800000000 O
atom 7.2842605599999999 8.8125318499999992 7.2375882100000002 O
