lattice_vector 10.0748631100000008 0.0795494400000000 0.8568387100000000 
lattice_vector 0.0460418000000000 10.1499843900000002 -0.0286837000000000 
lattice_vector 0.9347248000000000 -0.0970480300000000 10.4928769600000003 
atom 1.2355012200000000 0.3072844900000000 1.6938404300000001 Si
atom 1.9729683600000001 0.0812400600000000 6.8345648600000004 Hf
atom 1.5558628400000001 5.3378829200000002 1.6536152200000001 Hf
atom 2.0367945999999999 5.1846172099999999 6.8548528700000002 Hf
atom 6.5808172200000001 0.3140892900000000 2.0630504699999999 Hf
atom 7.0506420199999997 0.1971168500000000 7.3278947499999996 Hf
atom 6.5564524000000004 5.3554321700000003 2.0615457199999998 Hf
atom 7.0648067499999998 5.2843773000000001 7.3021995799999999 Hf
atom 1.8428444500000001 2.1478545000000002 4.1073552600000003 Hf
atom 2.2466430200000000 2.2351609400000001 9.4020707899999998 Hf
atom 1.8670246699999999 7.3748233599999997 4.3420371199999996 Hf
atom 2.2155690400000001 7.3067291499999998 9.5072786399999991 Hf
atom 6.8322465000000001 2.3102887100000000 4.6828972899999997 Hf
atom 7.2986325100000000 2.3320471500000002 9.9294072000000000 Hf
atom 6.7975817000000003 7.4165961800000000 4.6777318699999997 Hf
atom 7.2434267400000003 7.4021627900000002 9.9715539999999994 Hf
atom 3.6838845899999999 2.7664016899999999 1.3041572100000001 Hf
atom 4.2702061699999998 2.7378963000000001 6.6320316999999998 Hf
atom 3.7080370100000000 7.9933898000000001 1.5389076799999999 Hf
atom 4.2390459800000002 7.8089929199999997 6.7369197600000001 Hf
atom 8.8282346399999998 2.8041325300000000 1.8251943200000000 Hf
atom 9.3169952699999996 2.7215230799999999 7.0243480900000002 Hf
atom 8.7933279500000001 7.9103317799999999 1.8199772999999999 Hf
atom 9.2617381699999992 7.7917364400000002 7.0664368299999998 Hf
atom 3.9950367800000000 4.8033611000000001 3.9925886199999998 Hf
atom 4.4486983300000000 4.8597507999999996 9.2844492699999996 Hf
atom 4.3153271599999998 9.8340958300000008 3.9522790600000000 Si
atom 4.5126640199999999 9.9630705099999997 9.3045898800000000 Hf
atom 9.0693891999999998 4.8651989799999997 4.4415327099999997 Hf
atom 9.4957729000000004 4.8393652500000002 9.6937616799999997 Hf
atom 9.0449122499999994 9.9066008199999995 4.4396754800000000 Hf
atom 9.5095537500000002 9.9265921699999993 9.6677710399999999 Hf
atom 0.4823574100000000 1.4933328500000000 0.7481481500000000 O
atom 0.9324452400000000 1.4863358099999999 5.8912493000000001 O
atom 0.3914259900000000 6.7210728499999997 0.7963753300000000 O
atom 0.8343185900000000 6.5586663900000000 6.0343591300000003 O
atom 5.4264702199999997 1.7026230600000001 1.2154451200000000 O
atom 5.9392509499999999 1.6248368399999999 6.4595368999999998 O
atom 5.4321662499999999 6.8494415599999998 1.2801135900000000 O
atom 5.9154373400000004 6.7059407999999996 6.4256611299999999 O
atom 0.6016089300000000 0.7742743500000000 3.2636588099999999 O
atom 1.0797753000000001 0.8163437200000000 8.6005362900000009 O
atom 0.6640493700000000 5.9237704999999998 3.4454907200000000 O
atom 1.1216765799999999 5.8781729699999996 8.6548530899999996 O
atom 5.6169453100000002 0.8416142300000000 3.8965695700000000 O
atom 6.1870845699999997 0.8909119100000000 9.0869850499999991 O
atom 5.6555385600000001 5.9969171899999996 3.8465847800000001 O
atom 6.1180980099999998 6.0145886400000004 9.0653383299999994 O
atom 4.8869695899999996 4.2169435599999998 2.2011376600000001 O
atom 5.3641006800000000 4.1659037200000002 7.4848372400000001 O
atom 4.9492052600000003 9.3670335199999997 2.3825112100000001 O
atom 5.4057844499999996 9.2277347400000007 7.5386836900000000 O
atom 9.9702467200000005 4.2240169400000003 2.6562618499999999 O
atom 10.4424767200000002 4.1092898800000004 7.9304519800000000 O
atom 10.0081231299999995 9.3795061099999995 2.6059079500000002 O
atom 10.3730771599999994 9.2332400700000008 7.9084316499999998 O
atom 5.1598708200000001 3.4209383500000001 4.8503683700000000 O
atom 5.6513325400000003 3.4859303599999998 10.1052169299999992 O
atom 5.0684787399999998 8.6481327799999992 4.8979574799999996 O
atom 5.5530318200000002 8.5579442500000003 10.2479255499999997 O
atom 10.1935470099999996 3.3709164000000000 5.2226348299999996 O
atom 10.6448948100000003 3.4174625199999999 10.5700624399999992 O
atom 10.1992101300000009 8.5177920000000000 5.2870104299999996 O
atom 10.6208386600000004 8.4985202199999996 10.5359661700000000 O
atom 2.6226898699999999 1.2655553399999999 2.2869450400000000 O
atom 3.4315263200000001 1.2296041700000000 7.7718162499999996 O
atom 3.0000911800000001 6.4108260300000000 2.7448482900000002 O
atom 3.4639906699999998 6.3195487000000004 7.9898719399999996 O
atom 8.0260220600000007 1.3350203800000000 3.1652300599999998 O
atom 8.5470505100000000 1.2953011100000000 8.3866566700000007 O
atom 8.0534078200000003 6.4229528800000004 3.1676343600000001 O
atom 8.5217041400000006 6.3524227499999997 8.4159418299999995 O
atom 3.3114631600000002 0.8039997600000000 4.9491226199999998 O
atom 3.8767342999999999 1.4664012099999999 10.2669184700000002 O
atom 3.2835198000000001 6.1721557899999997 5.3880737200000004 O
atom 3.7258936399999998 6.3923554600000001 10.6350745500000006 O
atom 8.3063857999999993 1.2105454000000000 5.7762986500000002 O
atom 8.7631543999999995 1.2386987100000000 11.0345524099999999 O
atom 8.2690163900000009 6.3057658300000003 5.7711233499999999 O
atom 8.7374572900000000 6.3094977200000004 11.0287206300000005 O
atom 2.2673137900000002 3.9689664599999999 0.2582644500000000 O
atom 2.7597669400000000 3.6516952300000001 5.5042313700000003 O
atom 2.2390256700000002 9.3369449400000004 0.6968007700000000 O
atom 2.6085521900000002 8.5775993400000008 5.8724317900000003 O
atom 7.3567104800000003 3.9150584600000000 0.7318490700000000 O
atom 7.8230582899999996 3.8142304700000000 5.9673161199999996 O
atom 7.3191884600000003 9.0102959899999995 0.7265211499999999 O
atom 7.7973502400000001 8.8851519299999993 5.9611887899999996 O
atom 2.5509330800000001 3.7302334400000001 2.9014051599999999 O
atom 3.0216760400000000 3.7250268700000002 8.1494956399999996 O
atom 2.9282137000000001 8.8753251899999999 3.3591407700000002 O
atom 3.0539523700000002 8.8149870900000007 8.3673072000000008 O
atom 7.5724041800000004 3.7976489999999998 3.3353771600000002 O
atom 8.0388469100000002 3.7712776600000000 8.5799400899999991 O
atom 7.5994701100000004 8.8856164300000007 3.3375971500000001 O
atom 8.0131808600000003 8.8283165700000001 8.6090526000000001 O
