lattice_vector 10.1287744100000001 -0.0016761900000000 -0.0106002000000000 
lattice_vector -0.0157214300000000 5.1652991799999999 0.0451218400000000 
lattice_vector -0.0062340300000000 -0.0130367400000000 10.4052864100000004 
atom 1.3613489100000000 0.0582444700000000 1.6107108600000000 La
atom 1.3917290499999999 0.1855536900000000 6.9807875599999996 Hf
atom 1.3825943999999999 2.3295545199999999 4.3934544300000002 Hf
atom 1.3018096699999999 2.3960401600000001 9.4871737599999992 Hf
atom 3.7737637799999999 2.8187712700000001 1.9191375600000000 Hf
atom 3.6409966599999999 2.7598802000000000 6.9827116800000004 Hf
atom 3.6352893800000001 4.9541278799999997 4.4337544800000002 Hf
atom 3.7385186600000000 4.8497323600000000 9.5393202299999995 Hf
atom 6.4831866700000003 0.2098886300000000 0.8533502700000000 Hf
atom 6.4472302499999996 0.2088523000000000 6.0231886399999999 Hf
atom 6.4946193299999999 2.3814680899999998 3.4806674900000001 Hf
atom 6.4800162700000001 2.3423645899999999 8.6266017599999998 Hf
atom 8.6706739499999994 2.7930938300000001 0.8296915900000000 Hf
atom 8.7410448899999995 2.8051636400000000 6.0433228799999998 Hf
atom 8.6755428600000002 4.9736112900000000 3.4920561600000002 Hf
atom 8.6675667199999999 4.9551928500000004 8.6483775400000003 Hf
atom 0.4034600600000000 2.0383090899999998 0.9063009100000000 O
atom 0.3784017200000000 1.8104114400000000 6.2074622000000002 O
atom 0.2887753700000000 0.8253893200000000 3.6262075899999999 O
atom 0.3584971200000000 0.7304245300000000 8.7703474299999993 O
atom 4.6540335400000004 4.4663536800000001 0.9897910800000000 O
atom 4.6952290600000000 4.3028326000000003 6.1541335600000000 O
atom 4.7777556600000004 3.4742959600000001 3.5662147100000001 O
atom 4.7258003799999999 3.3688296499999999 8.7010277299999998 O
atom 2.8708159700000002 1.2808849700000000 3.0706574000000000 O
atom 2.8000091500000002 1.2590751899999999 8.3385844400000000 O
atom 2.7797485900000001 1.2780536800000000 5.6896954700000002 O
atom 2.3439626699999998 3.7712443300000000 3.1730160600000001 O
atom 2.2613205199999999 3.8531640500000002 8.2389607999999992 O
atom 2.5592204299999999 3.5004294300000001 0.3267345900000000 O
atom 2.2498485000000001 3.8764073699999999 5.7026862200000004 O
atom 5.4421794900000000 1.7588014400000000 1.7251970700000001 O
atom 5.3989186499999997 1.7156287200000000 6.9224620799999999 O
atom 5.4057195299999998 0.8537604600000001 4.3323436900000001 O
atom 5.4179079300000001 0.8227909500000000 9.5064763299999999 O
atom 9.4207605000000001 4.4613864599999999 1.6381812899999999 O
atom 9.7307340300000007 4.3871642399999997 6.8820465700000000 O
atom 9.7579206200000002 3.3977095899999998 4.2838841099999998 O
atom 9.6734987900000000 3.3680169800000002 9.4062429699999992 O
atom 7.8437517400000001 1.2608561199999999 9.9446774500000004 O
atom 7.8427776600000003 1.2950377799999999 4.7748369700000000 O
atom 7.8456884999999996 1.3474172700000000 2.1717966799999999 O
atom 7.8458744999999999 1.2991058600000001 7.3435837599999996 O
atom 7.2732621300000000 3.8515149200000001 9.9721609800000000 O
atom 7.3347709400000003 3.8745981600000001 4.7966197099999999 O
atom 7.1843898599999996 3.8970359200000000 2.2076166800000001 O
atom 7.3216466200000001 3.8687795899999999 7.3683203500000003 O
