lattice_vector 9.9705268399999998 0.0331959800000000 0.0137306900000000 
lattice_vector 0.0556031400000000 10.1875864200000006 0.0072866800000000 
lattice_vector -0.0152236900000000 -0.0061737700000000 10.4019800000000000 
atom 1.0999879600000000 0.2405084100000000 2.2096562500000001 Si
atom 1.3233421599999999 0.2062785100000000 6.9240119099999999 Hf
atom 1.4208184699999999 5.3285503600000004 1.7827730500000001 Hf
atom 1.4045906200000000 5.3015316700000001 6.9882142299999996 Hf
atom 1.3956596800000001 2.3976658999999998 4.3494828400000003 Hf
atom 1.4488079599999999 2.2558211699999999 9.6297671900000008 Hf
atom 1.3946833999999999 7.4366313499999999 4.3571685000000002 Hf
atom 1.4024581500000000 7.4565711700000001 9.5986336199999993 Hf
atom 3.6551567600000001 2.7046386500000001 1.6907937300000000 Hf
atom 3.5878736700000000 2.7706330700000001 6.9572332100000001 Hf
atom 3.6455159600000000 7.9531302799999999 1.7054939499999999 Hf
atom 3.6114822800000002 7.8472392700000002 6.9381234300000001 Hf
atom 3.6581894799999999 4.8780323499999998 4.3288555400000002 Hf
atom 3.5950760300000000 4.8816555900000003 9.5855563000000004 Hf
atom 3.6193919000000001 10.0252847599999999 4.3183877400000004 Hf
atom 3.5633977899999998 9.9655545900000000 9.5068490600000004 Hf
atom 6.0887115500000002 0.2572994100000000 0.4020873600000000 Si
atom 6.3095339900000003 0.2232373800000000 6.0895393400000000 Hf
atom 6.4072869099999998 5.3459692199999997 0.8358081300000000 Hf
atom 6.3912062100000000 5.3185209999999996 6.0325711399999999 Hf
atom 6.4429456500000004 2.2766120800000000 3.3871004100000000 Hf
atom 6.3745224800000004 2.4111750600000001 8.6673444699999997 Hf
atom 6.3964656599999996 7.4771396799999996 3.4249593800000002 Hf
atom 6.3737836600000000 7.4500630200000000 8.6659246499999991 Hf
atom 8.6409643500000008 2.7221658500000001 0.9303702300000000 Hf
atom 8.5743265999999991 2.7877108900000001 6.0665073400000002 Hf
atom 8.6318968799999993 7.9704113400000001 0.9229189600000000 Hf
atom 8.5979407299999995 7.8643481299999998 6.0921335499999998 Hf
atom 8.5893029199999997 4.9023143600000001 3.4407273900000002 Hf
atom 8.6370791300000000 4.8915852199999996 8.6975586699999994 Hf
atom 8.5563099600000001 9.9859655800000002 3.5262133400000000 Hf
atom 8.5983489800000008 10.0388426699999993 8.7147817900000000 Hf
atom 0.6197015299999999 1.4848464600000000 1.0795082199999999 O
atom 0.3467783500000000 1.7449602500000001 6.1000215799999999 O
atom 0.3761577200000000 6.8437495300000002 0.9347979800000000 O
atom 0.3810104200000000 6.8061475700000003 6.1110398699999999 O
atom 0.3723972900000000 0.7560724800000000 3.6343187000000001 O
atom 0.3248791600000000 0.8159422300000000 8.7227611500000002 O
atom 0.3703377000000000 5.9081803400000004 3.5149763599999999 O
atom 0.3761988400000000 5.9080899000000002 8.7430181499999993 O
atom 4.7011847299999996 4.2288451499999997 0.8642940400000000 O
atom 4.6553149500000002 4.2588365599999998 6.0494603299999996 O
atom 4.8253613599999996 9.4269833999999992 0.7991707900000000 O
atom 4.6289807100000004 9.3800715799999992 6.0770218900000001 O
atom 4.6911169700000004 3.3122355400000001 3.4049776100000000 O
atom 4.6429694200000000 3.4011694100000001 8.6698709800000007 O
atom 4.6154421899999996 8.5025482399999994 3.4611499600000002 O
atom 4.6379919200000002 8.4646107799999992 8.6606867800000007 O
atom 2.5909056800000001 1.2094984499999999 2.8613607000000001 O
atom 2.7149607900000001 1.2250871500000000 8.1530536399999995 O
atom 2.7889066300000001 6.4359673700000002 3.0281829000000000 O
atom 2.7789182399999999 6.3490390400000001 8.2492032500000008 O
atom 3.0779522899999998 1.4476358199999999 0.2270889300000000 O
atom 2.7634552499999998 1.3294627600000000 5.5714691399999996 O
atom 2.7934373300000002 6.3909869099999996 0.4545720400000000 O
atom 2.7890437100000001 6.3755675800000002 5.6266229900000004 O
atom 2.2972062300000000 3.8158805500000001 3.0433192099999999 O
atom 2.2289067999999999 3.7797065600000002 8.2766749300000004 O
atom 2.1369939900000001 9.0535937499999992 2.9166021899999999 O
atom 2.1994539500000001 8.8711353400000004 8.1925885899999997 O
atom 2.2450221300000002 3.8475679700000001 0.4831914300000000 O
atom 2.2308022099999998 3.8557832699999999 5.6445030599999999 O
atom 2.3701774100000002 8.9301397199999997 0.3647377100000000 O
atom 2.2416292400000000 8.9500916600000000 5.5877095800000003 O
atom 5.6037507099999999 1.5014129400000000 1.5316236400000001 O
atom 5.3309190800000001 1.7607839000000001 6.9133270900000001 O
atom 5.3600412000000004 6.8598224800000001 1.6831617000000001 O
atom 5.3652104300000003 6.8221407799999998 6.9088034499999997 O
atom 5.3159435300000002 0.8354482400000000 4.2884516200000000 O
atom 5.3497378600000003 0.7686438300000000 9.3777353699999999 O
atom 5.3674134100000002 5.9277514499999997 4.2754732100000004 O
atom 5.3465094400000002 5.9207542999999996 9.5033976399999993 O
atom 9.6846799099999998 4.2450197999999997 1.7619202400000000 O
atom 9.6388038199999997 4.2747654900000001 6.9791376800000000 O
atom 9.8081455399999999 9.4433437399999995 1.8350705899999999 O
atom 9.6126580199999996 9.3959846799999998 6.9585413599999999 O
atom 9.6344120100000001 3.4207960599999998 4.3574235400000001 O
atom 9.6672183199999999 3.3248221500000001 9.6220872800000006 O
atom 9.6290797200000000 8.4840964200000002 4.3730017200000004 O
atom 9.5920358599999993 8.5152492100000003 9.5727680799999995 O
atom 7.5654791299999999 1.2208838600000000 10.1575735399999996 O
atom 7.7045760899999998 1.2437480800000000 4.8656434400000004 O
atom 7.7641189500000003 6.4477378500000002 9.9975881500000003 O
atom 7.7690995999999997 6.3677996300000004 4.7763323099999999 O
atom 8.0596156299999997 1.4637767800000001 2.3909652900000000 O
atom 7.7459674200000004 1.3449813700000000 7.4478568899999997 O
atom 7.7761364200000003 6.4077360399999996 2.1693146400000001 O
atom 7.7718106899999997 6.3910114599999996 7.3990516700000004 O
atom 7.2722133099999997 3.8279701799999999 9.9783164299999996 O
atom 7.2192458500000001 3.7987353000000001 4.7442935300000002 O
atom 7.1122239699999996 9.0651963400000000 10.1106398100000003 O
atom 7.1893007500000001 8.8900727899999996 4.8347995900000003 O
atom 7.2277009300000001 3.8637762800000002 2.1362096699999999 O
atom 7.2134573199999998 3.8711584700000001 7.3771032400000003 O
atom 7.3511868299999996 8.9469811000000004 2.2604059799999998 O
atom 7.2241567099999999 8.9652924600000006 7.4403547400000001 O
