lattice_vector 9.9797022999999996 0.0008086000000000 0.0960614000000000 
lattice_vector -0.0070293200000000 10.4457509599999998 -0.0124176600000000 
lattice_vector 0.0232964600000000 -0.0289307300000000 10.0654548399999992 
atom 1.2424711100000001 0.3769760300000000 1.1134006900000000 Si
atom 1.3975683200000000 0.1329864100000000 6.3569536800000002 Hf
atom 1.3224993500000000 5.3865172899999996 1.2534651400000001 Hf
atom 1.2886493900000000 5.2997263999999999 6.2452526500000003 Hf
atom 6.3269624499999999 0.2146786200000000 1.3195102000000001 Hf
atom 6.2944127700000001 0.1861971000000000 6.3196375099999997 Hf
atom 6.3718086400000002 5.4111050199999999 1.3397688299999999 Hf
atom 6.4175304400000002 5.1945410100000000 6.1943168799999997 Hf
atom 1.3468571499999999 2.3423264300000000 3.7230155200000001 Hf
atom 1.3487375100000001 2.4545108500000001 8.8291752199999998 Hf
atom 1.3486126500000000 7.6158963200000001 3.8038856299999999 Hf
atom 1.2269173400000000 7.6381284300000001 8.7582848799999997 Hf
atom 6.3483190199999999 2.3851421899999998 3.8074817599999999 Hf
atom 6.3493491799999999 2.4068440400000002 8.8463363800000003 Hf
atom 6.4106271799999996 7.6826122000000003 3.7729843999999999 Hf
atom 6.4781990499999997 7.7601180500000000 9.0981665100000004 Hf
atom 3.6566310199999998 2.7371454000000002 1.2806567700000000 Hf
atom 3.6536985600000000 2.7731925600000000 6.2636961700000002 Hf
atom 3.6500691999999999 7.9982883100000004 1.3089466500000000 Hf
atom 3.8304055699999999 7.8727299400000001 6.3418804900000003 La
atom 8.6643733600000008 2.7838224700000000 1.2683931799999999 Hf
atom 8.6937767800000003 2.6824335399999999 6.3476828500000000 Hf
atom 8.8144851400000004 8.0834760200000009 1.3519668000000000 Hf
atom 8.5894137399999995 8.0179731699999994 6.3302202200000002 Hf
atom 3.6580767199999999 5.0170196799999998 3.7948879700000000 Hf
atom 3.6973763700000002 5.1219343200000003 8.8897933800000004 La
atom 3.6348807100000000 10.2253359300000000 3.7449508900000001 Hf
atom 3.5963061999999999 10.2958761699999997 8.9364076000000008 Hf
atom 8.6915716599999993 5.0051553300000000 3.7985692499999999 Hf
atom 8.6406696299999997 5.0706222600000004 8.8162347200000006 Hf
atom 8.7274317999999997 10.3002749300000005 3.8256509099999998 Hf
atom 8.7002096499999997 10.3103813399999993 8.8473024299999992 Hf
atom 0.4018222100000000 1.8632763200000000 1.8117070399999999 O
atom 0.3078062300000000 1.8151452500000000 7.0885152600000003 O
atom 0.3496517300000000 7.0990026999999998 2.0408384200000000 O
atom 0.0490744500000000 6.9813653499999999 7.1286098100000004 O
atom 5.2795049199999999 1.8640842700000000 2.0940261300000000 O
atom 5.3621313600000002 1.9906393400000000 7.0222151300000002 O
atom 5.3861415399999997 7.1690295500000003 2.0338520600000001 O
atom 0.3613191800000000 0.6839651700000000 4.5673321600000003 O
atom 0.3715881200000000 0.6735780700000000 9.6512820399999999 O
atom 0.2967639200000000 5.8799791700000004 4.4946894600000000 O
atom 0.3134441700000000 5.8559856400000001 9.5563509500000006 O
atom 5.3360244300000002 0.7255528800000000 4.5434146899999996 O
atom 5.3512595200000002 0.6649302100000000 9.6088139699999999 O
atom 5.2981370800000001 6.0514668100000000 4.6304476699999997 O
atom 5.5443693999999999 6.0590187799999997 9.6877969700000008 O
atom 4.6767386100000001 4.5246488899999999 1.9716408000000001 O
atom 4.6187191199999997 4.6631987600000002 6.7903669200000003 O
atom 4.6973863099999997 9.7381887799999998 1.9458230400000001 O
atom 4.7005480300000002 9.8420548100000005 7.1535398700000004 O
atom 9.6754717200000009 4.4548794000000003 2.0616945400000000 O
atom 9.5517880999999996 4.4767395399999996 7.0165431199999997 O
atom 9.9686757900000007 9.8389760499999994 1.9948169899999999 O
atom 9.6445961300000000 9.6956484399999994 7.0833429499999996 O
atom 4.7101494800000001 3.3419178100000000 4.4961045200000003 O
atom 4.7188545800000004 3.1728184499999998 9.6528113199999996 O
atom 4.8022594099999996 8.6485375799999993 4.4149557699999997 O
atom 4.5843949200000003 8.4723868299999996 9.4482366800000008 O
atom 9.6728523600000003 3.2401797299999999 4.5378505499999999 O
atom 9.5866136199999996 3.3109526300000001 9.5035015800000000 O
atom 9.6365083600000006 8.5251478899999995 4.5682954400000000 O
atom 9.6141910999999993 8.5798996699999996 9.5920784000000001 O
atom 2.4503645999999999 0.9209328000000000 2.4232543299999998 O
atom 2.7315470300000002 1.2259642600000000 7.5795225600000000 O
atom 2.7173041900000001 6.3037631899999997 2.4691390599999998 O
atom 2.3910447700000002 6.4325031600000004 7.5093939000000001 O
atom 7.7308718000000001 1.2129767000000000 2.5380381399999998 O
atom 7.6727151600000001 1.1641661900000000 7.5750607499999996 O
atom 7.7261319700000000 6.4143904899999997 2.5839230899999999 O
atom 7.2409790200000002 6.4665726699999997 7.5946512300000002 O
atom 2.7329536900000000 1.3751215800000001 4.9963411100000004 O
atom 2.6179164400000001 1.4038646900000000 10.1174592699999994 O
atom 2.6152502499999999 6.4768306500000001 4.9610357799999996 O
atom 2.5026128999999999 6.8103058699999997 10.1331403099999999 O
atom 7.7203834599999999 1.3637123099999999 5.0491765600000003 O
atom 7.6986868800000003 1.4001282700000000 10.0882606500000005 O
atom 7.6895784100000002 6.5643556900000002 5.0956914299999996 O
atom 7.8665746199999997 6.6711029100000001 10.1615880000000001 O
atom 2.2939201300000001 3.9344459199999999 4.9995543199999997 O
atom 2.1883255500000001 3.8886879699999999 10.1547064000000002 O
atom 2.3063809000000002 9.2099891800000009 5.1047451500000003 O
atom 2.2525999400000001 9.4920705099999996 10.4079990900000006 O
atom 7.3549094799999999 3.9166668800000002 5.0108372699999997 O
atom 7.3259236200000002 4.0320579499999996 10.0787896900000007 O
atom 7.3187256800000000 9.2513851099999993 5.0680142500000001 O
atom 7.3555482100000003 9.2803322700000006 10.1532610299999995 O
atom 2.3766953100000001 3.7178630899999998 2.5567365799999999 O
atom 2.2282698900000000 3.7403735100000000 7.4680163100000003 O
atom 2.5451664100000002 8.7810260200000005 2.7355270300000001 O
atom 2.2084907399999998 9.1349315400000002 7.7430701500000003 O
atom 7.3065042199999999 3.7867770100000002 2.5242344600000002 O
atom 7.2917120700000000 3.7656290299999999 7.5530673000000004 O
atom 7.4582742800000004 9.0718317699999993 2.5512870599999999 O
atom 7.2595619800000000 9.0120838899999995 7.6135834400000002 O
