lattice_vector 10.0035198899999997 -0.0278574400000000 -0.0337068500000000 
lattice_vector -0.0222107600000000 10.4759045299999993 -0.0063794900000000 
lattice_vector 0.0174302500000000 0.0481559200000000 10.0480191600000008 
atom 1.2073155099999999 0.3538716500000000 1.1142165900000001 Si
atom 1.3793442899999999 0.2456463400000000 6.3381617800000001 Hf
atom 1.3676540900000000 5.3851774900000002 1.1963284800000000 Hf
atom 1.3569551700000000 5.4163718300000001 6.2641924700000002 Hf
atom 6.3678296100000003 0.1701918700000000 1.2596568500000001 Hf
atom 6.2461063299999999 0.1619081400000000 6.2417623100000004 Hf
atom 6.3789231199999996 5.3761704799999999 1.2002238000000001 Hf
atom 6.1929508999999996 5.3617966099999999 6.1898142199999997 La
atom 1.3755656999999999 2.3274513500000000 3.6619470900000000 Hf
atom 1.3005246300000000 2.5301134599999999 8.8064277600000000 Hf
atom 1.3253585999999999 7.6546702599999996 3.8150612200000000 Hf
atom 1.2694959299999999 7.7082318699999997 8.7802297399999993 Hf
atom 6.3655203299999998 2.4425734299999999 3.7520905800000000 Hf
atom 6.3348157100000000 2.4718598400000000 8.7179302599999993 Hf
atom 6.1494241199999999 7.9380787000000002 3.5562300200000001 La
atom 6.2796338199999999 7.7529862100000004 8.8019298900000003 Hf
atom 3.7420918200000002 2.7396072500000002 1.1541863200000000 Hf
atom 3.6027177199999998 2.8106801199999998 6.2881080599999999 Hf
atom 3.6029860399999998 8.0187548399999997 1.2185009400000000 Hf
atom 3.5604295300000000 8.1410292299999991 6.4151440800000001 Hf
atom 8.6656247499999992 2.7163039000000002 1.1281789000000000 Hf
atom 8.6965633899999997 2.7692812199999999 6.1981676200000004 Hf
atom 8.7884923900000000 8.0091215600000005 1.1707289100000000 Hf
atom 8.7532249499999999 8.2322296799999997 6.3467683099999999 Hf
atom 3.6508669800000000 4.9833329500000003 3.6911543700000000 Hf
atom 3.6451964800000001 5.1256913900000001 8.7921968199999991 Hf
atom 3.5795599800000000 10.2691668800000002 3.7903449400000002 Hf
atom 3.5733948799999999 10.4098576000000005 8.9179170600000006 Hf
atom 8.8171220699999999 4.8797971599999999 3.5375991999999998 Hf
atom 8.6387612600000008 5.1193571400000000 8.6671345399999993 Hf
atom 8.7461302300000003 10.3382114999999999 3.7007398899999999 Hf
atom 8.5932221700000007 10.3663488899999994 8.7813705500000001 Hf
atom 0.3767521600000000 1.8304283699999999 1.8253815200000001 O
atom 0.3120012900000000 1.9243712300000000 7.0523738600000003 O
atom 0.3712418700000000 7.1045704199999999 1.9682831999999999 O
atom 0.4089492000000000 7.2316925699999999 6.9595291000000001 O
atom 5.2853720800000001 1.8337360500000000 2.0377381699999999 O
atom 5.3457353999999997 1.9767376999999999 6.9557358100000002 O
atom 5.3335245100000002 7.0894787600000004 1.5371966800000001 O
atom 5.2391548300000004 7.3309633300000003 7.0856086500000002 O
atom 0.3659755200000000 0.7000444800000000 4.5708669000000004 O
atom 0.3222581100000000 0.7253589600000000 9.6460261400000000 O
atom 0.2456223400000000 5.9296687199999996 4.5124567999999998 O
atom 0.3153656700000000 5.9808020800000001 9.4960694399999994 O
atom 5.3668074800000003 0.7273454600000000 4.4404030700000003 O
atom 5.2643941099999996 0.8190782700000000 9.6313661199999991 O
atom 5.2799759799999997 5.9448523700000004 4.1727245999999996 O
atom 5.4178922399999996 5.8995407599999998 9.3260656300000004 O
atom 4.6867250699999996 4.4653929899999998 1.8783639999999999 O
atom 4.4127133799999996 4.5044377500000001 7.0467171300000002 O
atom 4.8529280500000000 9.6134584600000004 2.1568549400000001 O
atom 4.5626948299999999 9.9196272000000008 7.1349733999999998 O
atom 9.7615544700000001 4.3684708600000004 1.8494772700000000 O
atom 9.6365718999999999 4.5680033099999999 6.8845737900000001 O
atom 10.0307414700000006 9.7935827900000003 1.8752401100000000 O
atom 9.6841976899999995 9.8217270100000000 7.0454130099999999 O
atom 4.7552754300000002 3.3694854599999999 4.5802601999999997 O
atom 4.6401297599999998 3.3401962599999999 9.4444819899999999 O
atom 4.5656756600000001 8.8094804599999996 4.8321524100000000 O
atom 4.5527873999999997 8.6735075800000008 9.4937094999999996 O
atom 9.7610556899999992 3.1973462100000001 4.3565698800000003 O
atom 9.6296844999999998 3.3608885900000001 9.4060244300000004 O
atom 9.5836639899999998 8.4792476000000008 4.4331988899999999 O
atom 9.6084619000000000 8.5881544600000002 9.4057635000000008 O
atom 2.4175387599999998 0.8279276400000000 2.4054155000000002 O
atom 2.6951239199999999 1.3158167900000000 7.5689688200000003 O
atom 2.6703480800000001 6.2957447999999996 2.4672477900000001 O
atom 2.6425056800000002 6.4935992499999999 7.5673693100000001 O
atom 7.7374729999999996 1.2264075299999999 2.4469117900000001 O
atom 7.6571090899999996 1.1932526900000000 7.4704330800000003 O
atom 7.7743784900000001 6.3730044699999997 2.5204219700000001 O
atom 7.8198635799999998 6.6363896200000001 7.4028124999999996 O
atom 2.7343661099999998 1.3869227900000001 4.9702216200000002 O
atom 2.5488550800000001 1.4804792000000000 10.1072076499999994 O
atom 2.6829361199999999 6.6479386500000004 5.0363599900000002 O
atom 2.6549106099999999 6.7305078500000004 10.0240546100000003 O
atom 7.7174852800000000 1.4174786200000000 4.9556384199999997 O
atom 7.6704959199999996 1.4252660200000000 9.9702692800000001 O
atom 7.7298735799999996 6.6807105499999997 9.9996470599999991 O
atom 2.2962022800000002 3.9910773800000001 4.9824367900000004 O
atom 2.3177022799999998 4.0797431000000000 10.0161921599999992 O
atom 2.1428776799999998 9.2638173899999998 5.1282517600000004 O
atom 2.2150417600000001 9.5325089900000002 10.3551078400000005 O
atom 7.4960329699999999 4.0044244100000004 4.8307526699999999 O
atom 7.3117239400000003 4.0517794199999999 9.9457938299999995 O
atom 7.4483542800000002 9.3663172499999998 5.0559513899999997 O
atom 7.2558429599999998 9.3161519899999998 9.9854554699999998 O
atom 2.4023305100000001 3.6483672399999998 2.4536181099999999 O
atom 2.1728374000000001 3.8766028700000001 7.5227507999999998 O
atom 2.6216790500000000 8.7500854399999994 2.7809843900000000 O
atom 2.2324274499999999 9.1927001799999992 7.6993667400000003 O
atom 7.3343638100000002 3.7542046899999999 2.3613017900000002 O
atom 7.4088340099999996 3.7498283400000001 7.5018622099999996 O
atom 7.6164610899999996 9.2036323699999993 2.3277632000000001 O
atom 7.2643782400000001 9.1408643999999999 7.5238546599999996 O
