lattice_vector 10.0726536400000004 0.0556624700000000 -0.1020654900000000 
lattice_vector 0.0426616000000000 10.2679704199999993 0.0299091600000000 
lattice_vector -0.0722244200000000 0.0234979100000000 10.5017692900000004 
atom 1.0382058500000000 0.2813143600000000 2.2417046699999998 Si
atom 1.3910248700000001 0.1700218700000000 6.9761149099999997 Hf
atom 1.4463961400000001 5.3700944899999996 1.7987652900000000 Hf
atom 1.2867555900000001 5.3233896700000001 7.0791597599999996 Hf
atom 1.3801143600000001 2.4253173000000001 4.4372255599999999 Hf
atom 1.4268223700000000 2.2942590200000001 9.7004859700000008 Hf
atom 1.2779573500000001 7.5081700800000002 4.3930485299999997 Hf
atom 1.4201943200000000 7.5163149499999999 9.6288710000000002 Hf
atom 3.5967740799999999 2.7840121199999999 1.7622902700000000 Hf
atom 3.6037733400000000 2.7977400299999999 7.0455813799999998 Hf
atom 3.6140982099999999 7.9790736700000000 1.6938814400000000 Hf
atom 3.7356199700000001 7.7849456600000000 6.8154848399999999 La
atom 3.6118807600000000 4.9985698100000002 4.4378475999999996 Hf
atom 3.5652135000000000 4.8655685000000002 9.6921183600000003 Hf
atom 3.6259615500000000 10.1540494900000002 4.2903982200000002 Hf
atom 3.6014967300000000 10.1064149800000003 9.6337531300000006 Hf
atom 6.4459722900000003 0.2848876700000000 0.7536647100000000 Hf
atom 6.3646303900000003 0.3061283500000000 5.9999139300000000 Hf
atom 6.4476852400000002 5.3256224699999999 0.7960620100000000 Hf
atom 6.5305362999999996 5.2474040899999999 5.9446196599999999 Hf
atom 6.4008282100000002 2.4034741500000001 3.3659106699999999 Hf
atom 6.4145746299999997 2.4010710700000000 8.6711661800000002 Hf
atom 6.3928626599999996 7.5391199599999998 3.3865057699999999 Hf
atom 6.3864252800000001 7.7321456700000004 8.9128162300000007 La
atom 8.7740801499999996 2.7672678400000001 0.7933619000000000 Hf
atom 8.6814392700000003 2.7867132200000002 6.0429919500000002 Hf
atom 8.8399782600000005 7.9832572800000001 0.8387428000000000 Hf
atom 8.6067814200000008 7.9862960799999998 6.0330851299999999 Hf
atom 8.6990006100000006 4.9790853799999999 3.3398568599999998 Hf
atom 8.6405496500000005 4.9405205399999996 8.7079836099999994 Hf
atom 8.5728178499999999 10.0929308599999992 3.4559810600000000 Hf
atom 8.7652023700000008 10.1578429700000008 8.6503550899999997 Hf
atom 0.5531899800000000 1.4817042600000001 1.0721862900000001 O
atom 0.3325927300000000 1.7220949999999999 6.1389487000000003 O
atom 0.4620865000000000 6.8851871700000000 0.9212870100000000 O
atom 0.2214445700000000 6.8270519199999997 6.1308762000000003 O
atom 0.2448651000000000 0.8415299700000000 3.6120644000000000 O
atom 0.3487146000000000 0.8743173400000001 8.7449432599999994 O
atom 0.3016150100000000 6.0163095100000001 3.4621988300000002 O
atom 0.2369746900000000 6.0106973000000004 8.7564454699999992 O
atom 4.7315462400000001 4.1937606900000004 0.8610530199999999 O
atom 4.6675669299999996 4.4565495200000003 6.1942967299999996 O
atom 4.9169703699999996 9.2359035600000006 0.6666804100000000 O
atom 4.7504837000000002 9.5103887500000006 5.8635745600000000 O
atom 4.7549080300000002 3.5945468100000002 3.4855051900000000 O
atom 4.6568245700000004 3.4422195699999998 8.7095181600000000 O
atom 4.6604098599999997 8.7063585299999993 3.3245212400000002 O
atom 4.6816471999999996 9.0022291699999997 8.4421774799999998 O
atom 2.4997509600000001 1.3096068000000001 2.9273752100000001 O
atom 2.7395871199999999 1.2655430800000000 8.2232049699999994 O
atom 2.7558726899999999 6.5420813600000001 3.0793182200000002 O
atom 2.6902797199999999 6.2888176700000002 8.3546875400000005 O
atom 3.0532196100000002 1.4818389000000001 0.2641373400000000 O
atom 2.7667499699999998 1.3257255999999999 5.6190475500000003 O
atom 2.8394890400000001 6.3827827399999997 0.4610773200000000 O
atom 2.4697414400000000 6.2851871600000004 5.5903920500000002 O
atom 2.2825488900000002 3.9107726199999999 3.1392341699999999 O
atom 2.1781020099999999 3.7735480300000002 8.3584707799999993 O
atom 2.1106970199999999 9.2091551900000006 2.8585411100000000 O
atom 2.1411285100000002 8.9557661100000008 8.2767803600000001 O
atom 2.2233835900000001 3.8743881199999999 0.5038182800000000 O
atom 2.2760392600000001 3.8396848299999999 5.7300235900000001 O
atom 2.4411862000000002 8.9293694600000002 0.3018064400000000 O
atom 2.2039891599999999 9.0621438300000001 5.5047496999999996 O
atom 5.3233909900000000 1.6778891100000000 1.7662272800000001 O
atom 5.3510039899999997 1.7790440500000000 6.9389829799999996 O
atom 5.3239308000000003 6.7363320000000000 1.8230959200000001 O
atom 5.2939796200000000 1.0200582100000000 4.2849027099999999 O
atom 5.3828396600000001 0.9518937700000000 9.6084026900000001 O
atom 5.2123643499999996 6.3972159199999998 4.7550568499999999 O
atom 5.2796841299999997 5.9139113200000004 9.6248078100000001 O
atom 9.7969916999999995 4.2887515199999999 1.6796685899999999 O
atom 9.6684189899999993 4.2904429300000002 6.9658768100000001 O
atom 9.8474733600000004 9.5398060900000008 1.7847896800000000 O
atom 9.7535445000000003 9.4629834600000002 6.8928573699999998 O
atom 9.7175875699999992 3.5070004699999999 4.3214550100000002 O
atom 9.7321499700000000 3.4474685300000001 9.6296040900000008 O
atom 9.6268206200000002 8.5968672599999998 4.2968050099999999 O
atom 9.7413424499999994 8.5882285399999994 9.5448129700000006 O
atom 7.8378006600000001 1.3746847300000000 9.9713862899999999 O
atom 7.7624352600000002 1.3269203100000000 4.7172416899999998 O
atom 7.9123454400000002 6.3617143299999999 10.1310046000000007 O
atom 7.7643197500000003 6.4198008599999996 4.6567160400000001 O
atom 7.8175199299999996 1.3350255499999999 2.0926149500000002 O
atom 7.8114750800000001 1.3876365900000001 7.3552144699999999 O
atom 7.8037722000000000 6.4896979300000002 2.1149719400000002 O
atom 7.5818052700000003 6.4599322800000003 7.2406161600000001 O
atom 7.2722801700000002 3.8545373000000001 10.0159789700000008 O
atom 7.2967794000000001 3.8730756500000001 4.7246847399999998 O
atom 7.5370284300000003 9.2126106599999993 10.1606731900000007 O
atom 7.2226312600000000 9.0227419599999994 4.7399208399999999 O
atom 7.3536685500000001 3.8722123200000000 2.0914907000000000 O
atom 7.2728839199999999 3.8919833900000000 7.3759762100000001 O
atom 7.3395694499999999 9.0212776800000007 2.1676481500000002 O
atom 7.3601533699999999 9.1627062499999994 7.3147102100000003 O
