lattice_vector 5.0931378299999999 -0.0182185100000000 0.3896075800000000 
lattice_vector 0.0086486800000000 10.4591589000000003 0.0641396800000000 
lattice_vector 0.8402858700000000 0.1000035100000000 10.5257032800000001 
atom 1.4402843800000000 0.1362225000000000 1.5573951600000000 La
atom 1.9247952200000000 0.3540453700000000 6.9808615999999999 Hf
atom 1.4952075600000001 5.3336531899999997 1.6644556500000001 Hf
atom 1.9659416100000000 5.5443132100000003 6.9253235599999998 Hf
atom 1.7118706600000000 2.4944037300000002 4.3421253799999997 Hf
atom 2.1573984199999998 2.5148951300000002 9.5360956800000007 Hf
atom 1.7379550600000000 7.7357075200000001 4.2496228100000000 La
atom 2.2286301200000000 7.6855186599999996 9.4968854199999999 Hf
atom 3.7299983800000001 2.8133882799999999 1.3733143299999999 Hf
atom 4.1778690699999999 2.9386508299999998 6.6926785700000000 Hf
atom 3.8149397700000001 7.7480674799999996 1.2041426500000001 Hf
atom 4.1908845699999997 8.1535630200000000 6.7081160400000002 Hf
atom 3.9464931200000000 5.0130152499999996 4.0192420499999999 Hf
atom 4.4342599299999996 5.0429269999999997 9.2441809700000004 Hf
atom 3.9671172299999999 10.5057411100000007 4.3296142099999999 Hf
atom 4.4263630500000000 10.3046506800000000 9.3297298800000004 Hf
atom 0.4137093500000000 1.9336893399999999 0.8467121399999999 O
atom 0.8287573800000000 1.9013397999999999 6.2328935799999998 O
atom 0.5771779600000000 7.0540427899999996 0.9337056200000000 O
atom 0.8265308600000000 7.0977217200000000 6.3056424700000004 O
atom 0.6844355000000000 0.8172021600000000 3.7323014099999998 O
atom 1.0962807500000000 0.8889516500000000 8.8619315699999994 O
atom 0.6289488800000000 5.9056074900000004 3.4706234700000000 O
atom 1.0849960400000001 6.1219223300000003 8.8327411300000005 O
atom 4.8032070800000000 4.3688699800000004 2.1015590000000000 O
atom 5.2862127000000001 4.4849960500000003 7.4069699000000000 O
atom 4.3574789999999997 9.6013092400000009 2.2446352799999998 O
atom 5.2853803900000003 9.7157091900000001 7.4970912099999998 O
atom 5.0145012199999996 3.4352763500000001 4.7966314299999997 O
atom 5.4735011099999999 3.5094418500000000 9.9895708899999995 O
atom 4.8558962899999996 8.7621743799999994 4.8525622500000001 O
atom 5.6296278099999997 8.7666783400000003 10.0897053600000000 O
atom 3.0692184600000001 1.4212141700000001 2.8779777300000000 O
atom 3.4307931200000001 1.4471078399999999 8.0455040400000009 O
atom 3.0703414100000002 6.4476791200000001 2.6326908699999998 O
atom 3.4224838100000001 6.6637526899999999 8.0315417500000006 O
atom 3.1734111000000000 1.4383330700000001 5.5020611400000003 O
atom 3.6879102399999999 1.3700164500000001 10.5845246999999993 O
atom 3.3018405600000000 6.4558297099999997 5.4747186200000000 O
atom 3.6720582199999998 6.4841545600000003 10.5859493100000002 O
atom 2.2838156299999999 3.9302066700000000 0.2640261800000000 O
atom 2.6633276499999998 4.0229168000000000 5.5555265000000000 O
atom 2.4467650500000002 9.0048249899999995 0.2114527100000000 O
atom 2.7039385399999998 9.4469257599999992 5.7005587799999997 O
atom 2.4517472300000001 3.8623269900000001 2.9095884299999999 O
atom 2.9190390599999998 3.9662308999999998 8.1698541400000000 O
atom 3.1163307900000001 9.1499164700000009 2.8314387000000001 O
atom 2.9459693599999999 9.1875897099999992 8.2206191900000007 O
