lattice_vector 9.8830042299999992 -0.0218828200000000 0.0561526800000000 
lattice_vector -0.0184163900000000 10.4240036600000003 -0.0972599700000000 
lattice_vector 0.0974991000000000 -0.1050330700000000 9.9576837999999999 
atom 1.1990862499999999 0.3189042100000000 1.0816905000000001 Si
atom 1.3737509600000000 0.1128357600000000 6.2458985599999997 Hf
atom 1.3161628100000000 5.3774527599999997 1.2187195900000001 Hf
atom 1.2396400100000000 5.4788301400000003 6.0110897899999998 Si
atom 6.2676687600000003 0.1688064800000000 1.2570883900000001 Hf
atom 6.3009736500000004 0.1012804200000000 6.2436216499999997 Hf
atom 6.2427172799999999 5.3656559200000000 1.2159505900000001 Hf
atom 6.3072002700000001 5.3283389500000000 6.1872796799999996 Hf
atom 1.2951723200000000 2.2936554800000000 3.6167661700000000 Hf
atom 1.4119075900000000 2.3426619199999998 8.7481527200000002 Hf
atom 1.3535653900000000 7.6074939600000002 3.7208565800000000 Hf
atom 1.3347712899999999 7.4528530000000002 8.5471737599999997 Hf
atom 6.2766703799999997 2.3971599499999998 3.7761228199999999 Hf
atom 6.3701612000000001 2.3635890399999999 8.6887236100000003 Hf
atom 6.3119248099999998 7.6280870299999997 3.6612629900000000 Hf
atom 6.3162028899999996 7.5564255300000003 8.7063977900000005 Hf
atom 3.6766041899999999 2.8107419700000000 1.2198183800000000 Hf
atom 3.6746547399999998 2.6806993000000001 6.2186004500000003 Hf
atom 3.6165755300000000 7.9456754900000002 1.1912274700000001 Hf
atom 3.7163935499999998 7.9703577000000001 6.1501060699999996 Hf
atom 8.5524727699999996 2.7700828700000000 1.2236039900000000 Hf
atom 8.7185173900000006 2.7017608399999999 6.1824586699999999 Hf
atom 8.6603378099999997 7.9660593799999999 1.1548963200000000 Hf
atom 8.5920944400000003 7.9292883800000000 6.1540648200000003 Hf
atom 3.5813877700000001 5.0140863299999996 3.8199133299999999 Hf
atom 3.6521589699999999 4.9416523600000000 8.6334435599999999 Hf
atom 3.5940053500000002 10.2062517199999991 3.6061572800000001 Hf
atom 3.6211795499999999 10.1737169400000003 8.7500889300000004 Hf
atom 8.5807059599999995 5.0004560400000004 3.7155937500000000 Hf
atom 8.6670511599999998 4.9660028199999999 8.6522673000000001 Hf
atom 8.6085508500000003 10.2306091800000001 3.6251424499999998 Hf
atom 8.6207290899999993 10.1599300800000005 8.6458580900000008 Hf
atom 0.3760436600000000 1.8349882500000001 1.7624019900000001 O
atom 0.3966388700000000 1.8262285700000001 6.9858386699999997 O
atom 0.3384464000000000 7.0905664100000001 1.9587118699999999 O
atom 0.4158172200000000 6.9944579500000001 6.6927557699999998 O
atom 5.2098344100000000 1.8418357900000000 2.0490588399999998 O
atom 5.3641486599999997 1.8563005400000001 6.9458737499999996 O
atom 5.3062342400000002 7.1210602500000002 1.9182046900000000 O
atom 5.2494703400000002 7.0015132400000004 6.9792485500000003 O
atom 0.3243199300000000 0.6755722600000000 4.5257967600000004 O
atom 0.4487962300000000 0.5365493500000000 9.5141338599999994 O
atom 0.3900786000000000 5.8011765100000003 4.4864368499999996 O
atom 0.3640018100000000 5.8348582300000000 9.4563573099999996 O
atom 5.3007105799999996 0.6772652600000000 4.4828590200000002 O
atom 5.3415640700000004 0.6603171900000000 9.4739396500000002 O
atom 5.2826316300000000 5.9252778299999997 4.4467870400000002 O
atom 5.3404376600000001 5.8365397400000001 9.4128548799999994 O
atom 4.6136144999999997 4.5068339499999999 1.9872510200000000 O
atom 4.7240933600000004 4.4087924899999997 6.9305061300000004 O
atom 4.6660565199999997 9.6734582600000003 1.9033849300000001 O
atom 4.6533904200000000 9.6661083399999992 6.9171545800000001 O
atom 9.5844025100000003 4.4328684999999997 1.9777857299999999 O
atom 9.8651905200000005 4.5034700100000000 6.8338319199999997 O
atom 9.8069747700000001 9.7678004400000003 1.8066916200000001 O
atom 9.6239007300000008 9.5922694699999997 6.9079270499999996 O
atom 4.5938606200000001 3.3071457400000002 4.4467834300000000 O
atom 4.7338803900000004 3.2572019000000001 9.4700617800000000 O
atom 4.6749622300000002 8.5211485899999992 4.4419182800000003 O
atom 4.6337153999999998 8.4667040500000006 9.3772429200000005 O
atom 9.5409477500000008 3.2043818700000002 4.3468654300000003 O
atom 9.6140956899999992 3.2206297600000000 9.3959345499999998 O
atom 9.5554293700000006 8.4850463900000008 4.3682870700000000 O
atom 9.5806058899999993 8.3638621700000009 9.2770697799999997 O
atom 2.3504965900000001 0.8182574600000000 2.4032504700000001 O
atom 2.7324138300000000 1.0142057000000000 7.4690367799999997 O
atom 2.6741877100000000 6.2793643000000001 2.4424740800000002 O
atom 2.3896565000000001 5.9774216200000003 7.3342914099999996 O
atom 7.6275732800000000 1.1891927499999999 2.4806893400000001 O
atom 7.6921616899999998 1.1015228300000000 7.4623224600000002 O
atom 7.6340658599999998 6.3661099400000003 2.4346619800000000 O
atom 7.6672667099999998 6.3485362399999996 7.4106822499999998 O
atom 2.6837569600000002 1.4029107999999999 4.8913819700000003 O
atom 2.6846951699999999 1.3242544800000000 10.0282151000000006 O
atom 2.6250330300000000 6.5879110299999999 5.0022032599999999 O
atom 2.7237129200000001 6.5624626700000004 9.8218295700000002 O
atom 7.6556822699999998 1.3551492199999999 4.9790822099999996 O
atom 7.6888649500000001 1.3038788600000000 9.9425736300000001 O
atom 7.6307275199999998 6.5685697799999998 4.9150903399999999 O
atom 7.6954535699999997 6.5144632500000004 9.9090625800000005 O
atom 2.2206169099999999 4.1681094400000003 5.2332087400000002 O
atom 2.3705597300000001 3.9323011299999999 9.9962906100000009 O
atom 2.3124286100000000 9.1964764399999996 4.9690703999999997 O
atom 2.2604386900000000 9.3284627100000002 10.1637407300000007 O
atom 7.2585331300000000 3.9619688800000001 4.9497457000000002 O
atom 7.3315421599999997 3.9160012700000002 9.9117431899999993 O
atom 7.2733309999999998 9.1803948000000002 4.8845433500000004 O
atom 7.2985068499999999 9.1212518199999995 9.8798559499999996 O
atom 2.3399711999999999 3.6897141800000002 2.5700517700000001 O
atom 2.5706988800000001 3.4767001199999998 7.6393459200000002 O
atom 2.5122119100000000 8.7417794499999992 2.6116276599999999 O
atom 2.3799612099999998 8.8488752599999998 7.5006712599999998 O
atom 7.2079444099999996 3.7754347099999999 2.4606055400000000 O
atom 7.4099471599999998 3.7291071900000001 7.4122048400000002 O
atom 7.3519884500000003 8.9935116100000005 2.3849495300000001 O
atom 7.2477979100000001 8.9347867700000005 7.3912177799999998 O
