lattice_vector 10.0028790500000007 -0.0500186700000000 -0.0112898800000000 
lattice_vector -0.0002897800000000 10.4006805199999999 -0.0311296700000000 
lattice_vector 0.0126170000000000 -0.0944934600000000 10.0513398299999999 
atom 1.1693855000000000 0.3824603200000000 1.0459935000000000 Si
atom 1.3057984700000000 0.0891256800000000 6.2938817399999998 Hf
atom 1.3153685100000001 5.3482458399999997 1.2643048699999999 Hf
atom 1.4216940300000001 5.2836361099999998 6.2625998599999999 Hf
atom 6.3439444600000003 0.1110476800000000 1.2380618999999999 Hf
atom 6.3732555700000004 -0.1849544400000000 6.0799161799999997 Hf
atom 6.3540487800000003 5.3639056800000002 1.2400168300000001 Hf
atom 6.3790684100000004 5.3160945699999997 6.2292179900000004 Hf
atom 1.3181432799999999 2.3230627500000001 3.6677510199999999 Hf
atom 1.3075113800000000 2.4079497999999999 8.7760775800000008 Hf
atom 1.3898534100000000 7.5472498200000002 3.7952346299999999 Hf
atom 1.3186170100000001 7.5722326500000001 8.8172323899999991 Hf
atom 6.4088437200000001 2.3674218599999999 3.7147443500000001 Hf
atom 6.2588869300000001 2.4549437099999998 8.7617129299999998 La
atom 6.3908041000000004 7.5760297999999997 3.7128498400000001 Hf
atom 6.3037687699999996 7.5331962700000004 8.7734993899999996 Hf
atom 3.6414076899999999 2.6725759199999999 1.2392088200000000 Hf
atom 3.8153196299999999 2.5584522000000001 6.2333261300000000 La
atom 3.6789608700000000 7.9137495400000004 1.2752646800000000 Hf
atom 3.6882776000000002 7.9566696099999996 6.3357199099999999 Hf
atom 8.6675859299999995 2.7215462700000002 1.1731879999999999 Hf
atom 8.7051395300000003 2.6486673700000001 6.1635909499999997 Hf
atom 8.7732282000000001 7.9284910699999998 1.1410403600000001 Hf
atom 8.7522650800000008 7.8305380900000001 6.2298976100000001 Hf
atom 3.7065826700000000 4.9712078499999999 3.7116930400000001 Hf
atom 3.5955657699999999 4.9695232999999996 8.8318800399999997 Hf
atom 3.6222818999999999 10.1582667600000001 3.7228799600000002 Hf
atom 3.5269744799999998 10.1497168400000000 8.9284422200000009 Hf
atom 8.6928152799999996 4.9586094100000002 3.7192670099999998 Hf
atom 8.7092400899999998 4.9507309199999998 8.6952030600000008 Hf
atom 8.7911011299999995 10.1621372099999991 3.6067023599999999 Hf
atom 8.6063770099999992 10.1411791400000002 8.6963240899999992 Hf
atom 0.3668401500000000 1.8370512400000001 1.8058768000000001 O
atom 0.2677245500000000 1.8023628199999999 7.0402590199999997 O
atom 0.3568826600000000 7.1038311600000004 1.9842184899999999 O
atom 0.3852042400000000 7.0205275199999999 7.0125601000000000 O
atom 5.2709227399999996 1.8014491100000001 2.0646920700000000 O
atom 5.3491397699999998 7.0564315200000003 1.9965819499999999 O
atom 5.3566510500000000 7.0443739699999997 6.9770867100000000 O
atom 0.2906077200000000 0.6890903900000001 4.5497114500000002 O
atom 0.2950392000000000 0.5791089600000000 9.5878432599999996 O
atom 0.3798530800000000 5.8251001599999999 4.4750850099999999 O
atom 0.3066467400000000 5.8678073800000004 9.5461732999999995 O
atom 5.2185205799999999 0.8560999500000001 4.7337298900000002 O
atom 5.1191288100000003 0.5979686600000000 9.7584148800000001 O
atom 5.3711172700000001 5.9206744100000002 4.4517992700000004 O
atom 5.3303898600000004 5.7974601699999999 9.5288106700000004 O
atom 4.6498697299999998 4.4515365899999999 1.8386588300000000 O
atom 4.8755448299999999 4.4010260900000002 7.2001455600000002 O
atom 4.7987720600000001 9.5877330599999997 2.0916365200000002 O
atom 4.6815106300000000 9.8437125000000005 7.1172287799999996 O
atom 9.6908029100000004 4.3888163300000000 1.9659507599999999 O
atom 9.7311074899999994 4.3865246100000004 6.9085335199999998 O
atom 9.9559295100000007 9.7391415400000003 1.8193130399999999 O
atom 9.6549510000000005 9.5827459299999997 6.9488168300000002 O
atom 4.8044898399999996 3.3863092400000001 4.3230928000000004 O
atom 4.2854967500000001 3.1241664000000000 9.4596462399999997 O
atom 4.8874566799999997 8.6328856799999993 4.7074627700000002 O
atom 4.5582544299999999 8.3908092799999991 9.4881645100000007 O
atom 9.6514644100000009 3.1655710400000001 4.3769299200000003 O
atom 9.5940929100000005 3.1569465900000000 9.4068187299999995 O
atom 9.7540244699999992 8.4361554800000000 4.4455220000000004 O
atom 9.6050176399999998 8.3953807600000001 9.3856704700000009 O
atom 2.4290872499999998 0.8611863100000000 2.3867278399999998 O
atom 2.5655602000000002 1.0576909500000000 7.6324953999999998 O
atom 2.6893815299999999 6.2667919500000000 2.4729025400000002 O
atom 2.7338368200000001 6.3643466499999999 7.5337232299999997 O
atom 7.7141501799999999 1.1526634400000000 2.4463044200000001 O
atom 7.4892157299999997 1.0010349199999999 7.3536770699999998 O
atom 7.7350830500000001 6.3468631899999997 2.4647189100000002 O
atom 7.7052843299999996 6.3183330499999997 7.4878087600000001 O
atom 2.5905505500000001 1.2469561899999999 4.8765697699999997 O
atom 2.4507620800000001 1.2946284299999999 10.1381331899999996 O
atom 2.7907978700000000 6.5584556300000001 5.0274599799999997 O
atom 2.6559217199999998 6.5330683599999997 10.0488228199999998 O
atom 7.7007673900000002 1.2350346299999999 4.9234828899999998 O
atom 7.7377674599999997 1.1960634999999999 10.0296223500000004 O
atom 7.7417467799999997 6.5154344399999999 4.9613474000000002 O
atom 7.6838701599999997 6.5322713200000004 10.0025311499999994 O
atom 2.3327374500000002 3.9372634000000000 4.9448890800000003 O
atom 2.1609225599999999 3.9320456600000000 10.0497486299999998 O
atom 2.3619391599999999 9.1245634199999994 5.0943882499999997 O
atom 2.1583656900000001 9.2541500100000000 10.2935620199999995 O
atom 7.3350202199999996 3.9159510000000002 4.9292965300000002 O
atom 7.4207072700000003 3.9957336099999998 10.0411940200000007 O
atom 7.4608981999999999 9.0625167199999996 4.8523660399999997 O
atom 7.2467739399999997 9.0938227000000005 9.9143580900000003 O
atom 2.3544325000000002 3.6664733400000000 2.4841683699999999 O
atom 2.2579400299999999 3.8193124699999998 7.5553373300000004 O
atom 2.5825258299999998 8.7216444000000006 2.7096273100000001 O
atom 2.3119433300000001 8.9231591699999999 7.6096496000000000 O
atom 7.3079370800000003 3.7455475900000001 2.4282517800000001 O
atom 7.4468967199999998 3.7706894700000002 7.3466962599999999 O
atom 7.4710307800000004 8.9368550300000003 2.3727135000000001 O
atom 7.3291032800000000 8.8139167500000006 7.4155497300000004 O
