lattice_vector 10.1322170000000007 -0.0250200000000000 -0.0030380000000000 
lattice_vector -0.0171190000000000 10.3030960000000000 0.0082780000000000 
lattice_vector 0.0025740000000000 -0.0084610000000000 10.5135109999999994 
atom 1.3444609999999999 0.0869140000000000 1.7236030000000000 La
atom 1.4103100000000000 0.2026200000000000 7.0831429999999997 Hf
atom 1.4129410000000000 5.3617670000000004 1.7859620000000000 Hf
atom 1.3955100000000000 5.3598189999999999 7.0349409999999999 Hf
atom 1.3952290000000001 2.3333520000000001 4.4648940000000001 Hf
atom 1.4174810000000000 2.3823680000000000 9.6519130000000004 Hf
atom 1.4077970000000000 7.4914649999999998 4.4521769999999998 Hf
atom 1.4051480000000001 7.4948829999999997 9.6761719999999993 Hf
atom 3.6012179999999998 2.7102520000000001 1.8208080000000000 Hf
atom 3.6692950000000000 2.7744200000000001 7.0493889999999997 Hf
atom 3.6828829999999999 7.9188359999999998 1.8270360000000001 Hf
atom 3.6428900000000000 7.9352510000000001 7.0606309999999999 Hf
atom 3.6486320000000001 4.9098780000000000 4.4060759999999997 Hf
atom 3.5879460000000001 4.9294830000000003 9.6235990000000005 Hf
atom 3.6403360000000000 10.0810069999999996 4.4748999999999999 Hf
atom 3.6914220000000002 10.0791710000000005 9.6672030000000007 Hf
atom 6.4871720000000002 0.1978710000000000 0.8444150000000000 Hf
atom 6.4694279999999997 0.1959690000000000 6.1092469999999999 Hf
atom 6.4021900000000000 5.2270019999999997 0.9062860000000000 La
atom 6.4674480000000001 5.3427610000000003 6.0605669999999998 Hf
atom 6.4780600000000002 2.3354360000000001 3.4711449999999999 Hf
atom 6.4836539999999996 2.3238940000000001 8.6951250000000009 Hf
atom 6.4733200000000002 7.5262250000000002 3.4957880000000001 Hf
atom 6.4536449999999999 7.4691080000000003 8.6822959999999991 Hf
atom 8.7572030000000005 2.7554989999999999 0.8066610000000000 Hf
atom 8.7172570000000000 2.7717830000000001 6.0864479999999999 Hf
atom 8.6584369999999993 7.8500360000000002 0.8121630000000000 Hf
atom 8.7264669999999995 7.9139799999999996 6.0976559999999997 Hf
atom 8.7643819999999995 4.9193590000000000 3.4830820000000000 Hf
atom 8.7160320000000002 4.9130849999999997 8.6751710000000006 Hf
atom 8.6436550000000008 10.0734250000000003 3.5268130000000002 Hf
atom 8.7072889999999994 10.0461080000000003 8.7441370000000003 Hf
atom 0.3475480000000000 1.8753590000000000 0.8313940000000000 O
atom 0.3294210000000000 1.7185130000000000 6.1993510000000001 O
atom 0.3387830000000000 6.8926650000000000 0.8855280000000000 O
atom 0.3225030000000000 6.8481899999999998 6.1508399999999996 O
atom 0.2084060000000000 0.9097750000000000 3.6539370000000000 O
atom 0.3413970000000000 0.8510850000000000 8.7958069999999999 O
atom 0.3724870000000000 6.0121940000000000 3.5303670000000000 O
atom 0.3253210000000000 6.0143589999999998 8.7396039999999999 O
atom 4.4329809999999998 4.2108689999999998 0.8183350000000000 O
atom 4.7336140000000002 4.2482239999999996 6.1020729999999999 O
atom 4.7076669999999998 9.4966229999999996 0.9173940000000000 O
atom 4.7191429999999999 9.4289980000000000 6.1695089999999997 O
atom 4.7738800000000001 3.4851359999999998 3.4525320000000002 O
atom 4.7441639999999996 3.4362870000000001 8.7385459999999995 O
atom 4.7534359999999998 8.6297650000000008 3.5706470000000001 O
atom 4.7457149999999997 8.6080640000000006 8.7284620000000004 O
atom 2.8296500000000000 1.2925530000000001 3.2167770000000000 O
atom 2.7981159999999998 1.2669520000000001 8.3332060000000006 O
atom 2.8190580000000001 6.3801129999999997 3.0865079999999998 O
atom 2.7476729999999998 6.4382929999999998 8.3189709999999994 O
atom 2.8884210000000001 1.3754050000000000 0.3614890000000000 O
atom 2.7762739999999999 1.2824540000000000 5.7670560000000002 O
atom 2.7655639999999999 6.3985010000000004 0.4562040000000000 O
atom 2.7856600000000000 6.4333109999999998 5.7145619999999999 O
atom 2.2577389999999999 3.8226890000000000 3.0935839999999999 O
atom 2.2780990000000001 3.8490210000000000 8.3103739999999995 O
atom 2.3557190000000001 8.8833730000000006 3.2040799999999998 O
atom 2.2677000000000000 9.0029070000000004 8.3460690000000000 O
atom 2.1250819999999999 3.8914810000000002 0.4331950000000000 O
atom 2.2811910000000002 3.8635050000000000 5.7198549999999999 O
atom 2.4515870000000000 8.8697140000000001 0.3527100000000000 O
atom 2.2602959999999999 9.0153820000000007 5.7682460000000004 O
atom 5.4137190000000004 1.7283880000000000 1.7475330000000000 O
atom 5.3975419999999996 1.6837730000000000 6.9961789999999997 O
atom 5.4052709999999999 7.0139220000000000 1.8019970000000001 O
atom 5.3869980000000002 6.8568790000000002 6.9476690000000003 O
atom 5.3984249999999996 0.8530860000000000 4.4052730000000002 O
atom 5.4484859999999999 0.8428909999999999 9.6146089999999997 O
atom 5.3972689999999997 5.9934950000000002 4.3496689999999996 O
atom 5.2672309999999998 6.0441940000000001 9.4917999999999996 O
atom 9.7824609999999996 4.3313769999999998 1.7183660000000001 O
atom 9.7938519999999993 4.2638309999999997 6.9797240000000000 O
atom 9.4903309999999994 9.3486840000000004 1.8171420000000000 O
atom 9.7909720000000000 9.3864490000000007 7.0466740000000003 O
atom 9.8192819999999994 3.4474160000000000 4.4189040000000004 O
atom 9.8298170000000002 3.4615930000000001 9.5770619999999997 O
atom 9.8004309999999997 8.5787440000000004 4.4091550000000002 O
atom 9.8327170000000006 8.6194860000000002 9.6948600000000003 O
atom 7.8954610000000001 1.2104180000000000 10.0582499999999992 O
atom 7.8211940000000002 1.2764830000000000 4.8259420000000004 O
atom 7.8886010000000004 6.4261879999999998 9.9277960000000007 O
atom 7.8545090000000002 6.4085460000000003 4.8114129999999999 O
atom 7.8409250000000004 1.2330530000000000 2.1747860000000001 O
atom 7.8609200000000001 1.2676670000000001 7.4302799999999998 O
atom 7.9461230000000000 6.5131290000000002 2.2697560000000001 O
atom 7.8340439999999996 6.4202389999999996 7.3778519999999999 O
atom 7.4324199999999996 3.7137330000000000 9.9451929999999997 O
atom 7.3416300000000003 3.8414459999999999 4.8030739999999996 O
atom 7.3170780000000004 8.9565289999999997 10.0560609999999997 O
atom 7.3346320000000000 8.9908599999999996 4.8391999999999999 O
atom 7.5261740000000001 3.7039909999999998 2.2828219999999999 O
atom 7.3352519999999997 3.8496969999999999 7.3813459999999997 O
atom 7.1823110000000003 9.0294380000000007 2.2032980000000002 O
atom 7.3387430000000000 9.0011159999999997 7.4297129999999996 O
