lattice_vector 10.0169908200000002 0.0605520600000000 0.7814114300000000 
lattice_vector 0.0844036100000000 10.1514026699999995 -0.0221000500000000 
lattice_vector 0.8481226900000000 -0.0220432800000000 10.4488339700000008 
atom 1.3399242099999999 0.1345737800000000 1.8253125699999999 Si
atom 1.8894864899999999 0.1916776200000000 6.8090077800000000 Hf
atom 1.5676540900000000 5.3152298900000003 1.6305868299999999 Hf
atom 1.9874605400000001 5.2796412699999999 6.8398733700000003 Hf
atom 6.5300217600000003 0.2450878600000000 2.0173900800000002 Hf
atom 6.9579675999999999 0.2584365100000000 7.2568906599999998 Hf
atom 6.5161613500000000 5.3089449699999998 1.9638362499999999 Hf
atom 6.8147627999999996 5.2303166900000004 7.4294076499999999 Si
atom 1.6829793700000000 2.3075238499999999 4.1876321799999996 Hf
atom 2.2032173600000000 2.2571078999999998 9.4451035599999997 Hf
atom 1.7916870400000000 7.4098907900000004 4.2592699600000001 Hf
atom 2.1827185500000001 7.3927686799999996 9.4306343600000009 Hf
atom 6.7253387299999998 2.3584761599999999 4.6082003800000004 Hf
atom 7.1822268300000003 2.3534790800000001 9.8859437700000008 Hf
atom 6.8297701000000002 7.3741035899999998 4.6000476399999997 Hf
atom 7.1576264199999997 7.4026034699999999 9.7915991699999996 Hf
atom 3.6731676200000001 2.7148505599999999 1.3506433099999999 Hf
atom 4.1627456199999999 2.7853728400000000 6.5839156699999997 Hf
atom 3.7011910000000001 7.9305276899999999 1.3712936300000000 Hf
atom 4.3018047700000004 7.7735887899999998 6.6319689899999998 Hf
atom 8.8446711699999998 2.7389203599999998 1.8098118200000000 Hf
atom 9.0917195199999998 2.8739063100000002 6.9977449099999998 Hf
atom 8.7890176800000006 7.9021566500000002 1.7387455400000000 Hf
atom 9.1476919999999993 7.8097718499999997 6.9543833700000004 Hf
atom 3.9579295800000001 4.8745502199999997 3.9635612000000000 Hf
atom 4.3691642799999997 4.8585324300000003 9.2328993500000003 Hf
atom 3.9904840400000001 9.9146923299999994 3.9653744600000000 Hf
atom 4.4159480799999997 10.0037310399999999 9.1962581700000001 Hf
atom 8.9583893200000002 4.9690873000000000 4.3737186000000001 Hf
atom 9.3810386000000001 4.8573388800000004 9.5919521900000007 Hf
atom 8.9956749499999997 9.9755888200000005 4.3877841999999996 Hf
atom 9.4326552299999999 9.9695020400000001 9.5676299399999998 Hf
atom 0.6070618500000000 1.4603002700000001 0.8763141500000000 O
atom 0.7863645000000000 1.6383534500000001 5.9779719099999999 O
atom 0.4562922100000000 6.7469373700000004 0.7964512700000000 O
atom 0.8792425100000000 6.7131622000000002 6.0360716600000002 O
atom 5.4221678999999998 1.6790853200000000 1.2136191700000001 O
atom 5.8473068699999997 1.6908287600000000 6.4232974900000004 O
atom 5.4130886699999996 6.7555091400000000 1.1327453599999999 O
atom 6.0812784200000003 6.5549764100000001 6.4802203499999997 O
atom 0.6238446000000000 0.8116392900000000 3.3282070600000000 O
atom 1.0453858800000000 0.8406702700000001 8.6278023099999999 O
atom 0.7128582400000000 5.9187261800000002 3.4348269800000000 O
atom 1.0550301000000000 5.9562009800000002 8.6336401800000004 O
atom 5.5977248399999997 0.9218526900000000 3.8112785699999998 O
atom 6.1034862700000003 0.8620566900000000 9.0614286300000000 O
atom 5.6722546300000003 5.9574882200000001 3.7829181099999998 O
atom 6.0984979700000004 5.9068608999999999 8.9323369100000001 O
atom 4.8445900799999997 4.1885722400000001 2.1911984400000000 O
atom 5.3750978099999998 4.2312060699999998 7.4243464100000001 O
atom 4.9296464400000000 9.2477524199999994 2.2251658499999998 O
atom 5.3671391000000002 9.2697502699999994 7.4116921199999997 O
atom 9.9097706599999995 4.2353246899999997 2.5892649300000001 O
atom 10.3203424899999998 4.1909586699999997 7.8518332400000004 O
atom 10.0012058499999998 9.3480205200000004 2.5791861200000001 O
atom 10.3190096899999997 9.2838238799999999 7.7948487300000000 O
atom 5.0608510600000001 3.4521988800000001 4.8195321000000000 O
atom 5.5416141999999997 3.4946907600000001 10.0804769400000005 O
atom 5.1363934499999999 8.4751227000000000 4.8424100000000001 O
atom 5.4284654400000001 8.4737097099999996 10.0068260500000008 O
atom 9.9716130900000000 3.4397262799999999 5.1845409599999996 O
atom 10.5272550999999996 3.4185566000000001 10.4692915200000005 O
atom 10.1683082999999996 8.6118465999999998 5.2355052700000000 O
atom 10.5351071899999997 8.5465761800000006 10.4233787400000004 O
atom 2.7878759000000000 1.1498890200000000 2.4900225800000002 O
atom 3.3772686400000000 1.2735503600000000 7.8237124500000004 O
atom 3.0381153599999999 6.4306885999999999 2.7105814499999998 O
atom 3.4433705899999998 6.3513650899999998 7.9342891199999999 O
atom 7.9858780400000002 1.3168089400000000 3.1117782599999999 O
atom 8.4285334299999999 1.3737617499999999 8.3370033899999996 O
atom 8.0036446800000007 6.3904109099999999 2.9785543600000000 O
atom 8.2621180400000007 6.2447183700000002 8.0932705800000004 O
atom 3.1776488199999999 1.2644160200000001 5.2229097700000002 O
atom 3.8404888300000000 1.4673097200000000 10.2990364200000002 O
atom 3.2714793100000001 6.3044296900000001 5.3461215800000002 O
atom 3.6537385599999999 6.3826238799999997 10.5380000799999998 O
atom 8.1964175600000004 1.3481917999999999 5.7151280800000004 O
atom 8.6621319600000000 1.2479596300000000 10.9724874499999991 O
atom 8.4671575699999995 6.5844545999999999 5.4537410700000004 O
atom 8.6521327200000009 6.3592618500000002 10.8265569599999996 O
atom 2.2666161800000002 3.9079594499999999 0.2739941200000000 O
atom 2.6715730999999998 3.8402371199999998 5.4864813699999999 O
atom 2.2714684200000002 9.2952464900000003 0.4772833600000000 O
atom 2.8127429799999999 8.8920445400000006 5.5276793299999998 O
atom 7.3555219500000000 3.8575499099999999 0.7054623200000000 O
atom 7.6619912299999999 4.2384880799999998 6.1037098600000004 O
atom 7.2976686300000004 8.9573560800000003 0.6412655900000001 O
atom 7.7409535500000004 9.0030969200000008 5.8778182399999999 O
atom 2.5026476299999998 3.7327057400000001 2.8958943000000001 O
atom 2.9796353099999999 3.7511126400000001 8.1168809199999998 O
atom 2.4282063400000000 8.9071900700000004 2.8957655400000002 O
atom 2.9924355399999998 8.8184253699999999 8.1435061500000003 O
atom 7.5349527099999998 3.7839234700000000 3.3210561099999998 O
atom 7.8187681900000001 3.8504497799999999 8.5224786600000009 O
atom 7.6058417499999997 8.8680354799999996 3.2718169800000001 O
atom 7.9772069800000001 8.8276234400000000 8.4996407200000004 O
