lattice_vector 10.1100420500000006 -0.0078847000000000 0.8155864300000000 
lattice_vector 0.0149418600000000 10.2911192600000003 -0.0005212500000000 
lattice_vector 0.8496749200000000 0.0016597300000000 10.4376002499999991 
atom 1.4258009000000000 0.1950874400000000 1.5355720600000000 La
atom 1.9627991100000000 0.2114218900000000 6.8508230799999996 Hf
atom 1.5365261900000000 5.3552812999999997 1.6238608200000000 Hf
atom 1.9598899599999999 5.3753352999999997 6.8406290299999997 Hf
atom 6.5847927100000003 0.1932201700000000 2.0537524399999998 Hf
atom 7.0167133799999997 0.2198201700000000 7.2736743900000000 Hf
atom 6.5637682300000000 5.3630435199999997 2.0513222899999999 Hf
atom 7.0258039300000004 5.3632142099999998 7.2608759999999997 Hf
atom 1.7392988500000000 2.3529474399999999 4.2596892000000004 Hf
atom 2.2196166300000000 2.4241537499999999 9.3517383699999996 Hf
atom 1.7504212100000001 7.4933859399999996 4.2331673600000004 Hf
atom 2.1922059900000002 7.4873669700000001 9.4482968100000004 Hf
atom 6.7860847800000004 2.3511771499999998 4.6615458500000004 Hf
atom 7.2184439200000003 2.3397857100000001 9.8722169999999991 Hf
atom 6.7772203400000004 7.4814996200000001 4.6628600200000001 Hf
atom 7.2571866500000004 7.4992490299999996 9.8536029700000007 Hf
atom 3.7448259699999999 2.7841994500000000 1.3807195299999999 Hf
atom 4.1852118899999997 2.7941226100000001 6.5720566299999996 Hf
atom 3.7887842100000002 7.9176169800000000 1.3672434099999999 Hf
atom 4.1726227400000004 7.9415375600000004 6.5878464799999996 Hf
atom 8.7012960600000007 2.8276512199999999 1.8018828899999999 Hf
atom 9.2321634100000001 2.7861996000000002 7.0240434699999996 Hf
atom 8.7623830100000006 7.8806124000000004 1.7895997500000000 Hf
atom 9.2435295699999998 7.9386685300000002 7.0135421800000000 Hf
atom 3.9374394700000002 4.9219538600000003 3.9772310800000001 Hf
atom 4.4187802899999999 4.9329930600000003 9.2043169000000002 Hf
atom 3.9675266100000002 10.0790932600000005 3.9813556399999999 Hf
atom 4.4154918800000003 10.0606489900000007 9.1787259399999996 Hf
atom 9.0218509200000003 4.9161114699999997 4.4143368399999998 Hf
atom 9.4618759699999995 4.9041300799999998 9.6231407799999999 Hf
atom 8.9563425100000007 10.0608477999999995 4.4425275299999996 Hf
atom 9.4737509699999993 10.0657449600000000 9.6434217899999997 Hf
atom 0.8759234600000000 1.7658588399999999 6.1436935300000002 O
atom 0.4443342400000000 6.8956216299999999 0.8683281200000000 O
atom 0.8639328300000000 6.8872885600000000 6.0797881299999998 O
atom 5.4945448399999997 1.7299836700000000 1.2616544100000000 O
atom 5.9044673799999998 1.7267982900000001 6.4806701699999998 O
atom 5.5188573600000002 6.8813473500000004 1.2557076800000000 O
atom 5.9087623499999999 6.8684178600000001 6.4940007000000000 O
atom 0.5181344200000000 0.9214130900000000 3.5649430099999999 O
atom 1.1216096000000000 0.8113825000000000 8.7989005200000001 O
atom 0.6349548900000000 5.9959528300000002 3.4468893999999999 O
atom 1.0908836500000001 5.9509856599999997 8.6964054799999992 O
atom 5.7133279000000003 0.8218158500000000 3.8852903799999998 O
atom 6.1299951799999999 0.8451656200000000 9.0810718700000006 O
atom 5.6804402200000004 5.9809029999999996 3.8648949699999999 O
atom 6.1454522699999998 5.9869852500000000 9.0866505800000006 O
atom 4.8380774400000002 4.3018114100000000 2.1551304700000000 O
atom 5.2925139200000002 4.2989267199999999 7.3743231299999996 O
atom 4.8419568100000001 9.4770545199999994 2.1326017700000000 O
atom 5.2897230600000000 9.4485274599999993 7.3723957400000000 O
atom 9.9240916600000002 4.2164187999999996 2.5939250899999999 O
atom 10.3444157200000006 4.2901024999999997 7.8176235099999998 O
atom 9.6152441799999995 9.4738440500000003 2.5814138400000002 O
atom 10.3402745500000002 9.4621301500000001 7.8061795800000002 O
atom 5.0538021999999998 3.4075022700000002 4.7536617300000001 O
atom 5.5123762300000001 3.4339472500000001 9.9930815800000001 O
atom 5.0491976200000002 8.5497616599999997 4.7799482299999996 O
atom 5.5716519499999997 8.5827262999999991 9.9784381700000004 O
atom 10.1266146799999994 3.4492760800000002 5.2330632699999997 O
atom 10.5490235400000003 3.3633036700000001 10.4564364399999992 O
atom 10.1213136299999995 8.5663026799999997 5.1742333599999997 O
atom 10.5642163599999996 8.5389722799999994 10.4121910399999997 O
atom 3.0635997900000000 1.3990387500000001 2.8007858300000001 O
atom 3.4332452600000001 1.3339735100000001 7.8989300599999996 O
atom 3.0060138900000002 6.4384331000000001 2.7104140399999999 O
atom 3.4330375100000001 6.4744480800000002 7.9399428299999997 O
atom 8.0481105900000003 1.3533275100000000 3.1538892100000000 O
atom 8.4972521800000003 1.3183826000000001 8.3827140300000007 O
atom 8.0502799599999992 6.4468933499999999 3.1476056600000000 O
atom 8.5128996499999996 6.4618692199999996 8.3588481399999992 O
atom 3.2015861999999999 1.2365554200000000 5.3473834499999997 O
atom 3.6602973699999999 1.3494355800000000 10.4349984100000004 O
atom 3.2122903300000001 6.3941642900000000 5.3296190499999998 O
atom 3.6551588000000002 6.3571168299999998 10.5557278100000005 O
atom 8.2413348099999997 1.2504134200000001 5.7841855500000001 O
atom 8.7097596700000004 1.2414763099999999 10.9920361500000006 O
atom 8.2779936299999992 6.3867079300000000 5.7567031899999996 O
atom 8.7000722899999996 6.3572483599999998 10.9634266500000006 O
atom 2.2651642600000002 3.8946836600000001 0.2596585100000000 O
atom 2.7030910300000000 3.9133533699999998 5.4929074900000003 O
atom 2.4094140700000000 8.9289184200000005 0.1580249200000000 O
atom 2.6946968199999999 9.0557786500000006 5.4965250899999996 O
atom 7.3241472200000004 3.8973140100000001 0.6982421500000000 O
atom 7.7548377700000000 3.8986951099999998 5.9139086599999997 O
atom 7.3489317099999996 9.0327099200000003 0.6847251300000000 O
atom 7.7552179399999996 9.0352702899999997 5.9326315400000000 O
atom 2.4638443500000000 3.8289970100000001 2.8811901999999998 O
atom 2.9447295499999999 3.8441852500000002 8.0735348499999997 O
atom 2.5734851399999998 8.8815943599999994 2.9155189199999998 O
atom 2.9220428500000000 8.9616358700000003 8.0789786800000005 O
atom 7.5239929600000002 3.8304480200000000 3.3088349899999998 O
atom 7.9847415300000000 3.8072012000000002 8.5284323700000009 O
atom 7.4152106199999999 8.9320225900000008 3.3356165500000001 O
atom 8.0035159599999997 8.9593707299999998 8.5205271400000004 O
