lattice_vector 10.0615088400000001 0.0006140300000000 -0.0694282000000000 
lattice_vector 0.0165272100000000 5.1989355100000001 -0.0211715500000000 
lattice_vector -0.0541774000000000 -0.0283521700000000 10.0811402300000008 
atom 1.2090246300000000 0.0679272600000000 1.1937988600000000 La
atom 1.3056677200000000 0.1620240100000000 6.2771666100000001 Hf
atom 6.3579529800000003 0.1340543900000000 1.2402958399999999 Hf
atom 6.3194815899999996 0.1547008800000000 6.2274287399999997 Hf
atom 1.3477509500000000 2.4352660799999999 3.7695179599999999 Hf
atom 1.4005083199999999 2.5347718900000000 8.7086489100000009 Hf
atom 6.3295917199999998 2.4123862100000002 3.7374358299999999 Hf
atom 6.3582930400000004 2.3676813200000000 8.7730553699999998 Hf
atom 3.7058909799999999 2.7274641300000000 1.1980387600000000 Hf
atom 3.6905431800000001 2.7451060900000002 6.2130612000000003 Hf
atom 8.6326862200000001 2.7616207600000000 1.2713113500000000 Hf
atom 8.7060883100000002 2.7380002000000001 6.2172888500000001 Hf
atom 3.6556253299999999 5.0253258000000001 3.6967601000000001 Hf
atom 3.7226362200000001 5.0219398499999999 8.7325555999999995 Hf
atom 8.6654344999999999 5.0187506600000003 3.7623525099999999 Hf
atom 8.5908367600000002 4.9387628499999998 8.7042298000000002 Hf
atom 0.2707049000000000 2.0538110999999999 2.0553404700000000 O
atom 0.2970487100000000 1.8638061299999999 7.0530901500000001 O
atom 5.3970383599999998 1.8773603600000000 1.8913443400000001 O
atom 5.3622613000000001 1.8851686999999999 6.9663569499999998 O
atom 0.2977892000000000 0.7056616400000000 4.5045361200000000 O
atom 5.3426187599999997 0.6742440200000001 4.4487255799999996 O
atom 5.3883734399999996 0.6588116500000000 9.4879661800000008 O
atom 4.6661528499999996 4.5003510000000002 1.8784305299999999 O
atom 4.6844560199999998 4.4824083200000002 6.9429536499999998 O
atom 9.4102716799999993 4.5130696600000002 1.9817679100000001 O
atom 9.7262999600000004 4.4550985900000004 6.9943798599999996 O
atom 4.6613553599999999 3.2810967700000000 4.4466043600000003 O
atom 4.7332064899999997 3.2721250500000001 9.4548512799999997 O
atom 9.7099983099999996 3.3147715299999998 4.4839522900000004 O
atom 9.8262267500000000 3.3990290800000000 9.5707413100000007 O
atom 2.7863292600000000 1.2666315800000001 2.5149476700000002 O
atom 2.6962434100000001 1.2086796200000001 7.4724135299999999 O
atom 7.6857931900000001 1.2259256199999999 2.4873643300000001 O
atom 7.7072301999999997 1.1544530200000001 7.4743544999999996 O
atom 2.6680663600000001 1.3661928800000001 5.0074051300000004 O
atom 2.6491243500000001 1.3991503000000001 9.9195116599999995 O
atom 7.6894013200000000 1.3819742100000001 4.9867364800000002 O
atom 7.8013569000000000 1.2948328800000000 9.9958098500000006 O
atom 2.3032051099999999 3.9934930099999999 4.9773174999999998 O
atom 2.4527700700000001 3.9119920700000002 9.9032937099999998 O
atom 7.3241703500000002 3.9585625400000000 4.9996145700000003 O
atom 7.3209323499999996 3.9010962100000000 10.0065889899999991 O
atom 2.4125880999999998 3.7233280899999999 2.5135062700000002 O
atom 2.3371125300000002 3.8128323000000002 7.4354891500000004 O
atom 7.1974016599999997 3.8058993200000000 2.4886785499999999 O
atom 7.3532890799999997 3.7599272699999999 7.5010225999999998 O
