lattice_vector 10.1543049500000002 -0.0156010500000000 0.7752509300000000 
lattice_vector -0.0238605900000000 5.1772760599999996 -0.0582561400000000 
lattice_vector 0.7854622000000000 0.0278823100000000 10.4073895499999995 
atom 1.4556708400000000 0.0999150800000000 1.5680476800000001 La
atom 1.9057881000000001 0.2226135100000000 6.8181799600000002 Hf
atom 6.6192640599999999 0.1911400500000000 2.0231498299999999 Hf
atom 6.9879135300000002 0.2389620100000000 7.2235624500000002 Hf
atom 1.6234706100000000 2.3742833200000000 4.2883218500000000 Hf
atom 2.0990007400000001 2.4298168100000002 9.3750703000000009 Hf
atom 6.7656187399999999 2.3603505400000002 4.6093295899999998 Hf
atom 7.2480891099999996 2.3905408100000001 9.7776156000000007 Hf
atom 3.8625777200000000 2.8204307000000002 1.1884396699999999 Hf
atom 4.1144493500000001 2.7962897400000002 6.5303193999999998 Hf
atom 8.7801101399999997 2.7803977199999999 1.7281922400000000 Hf
atom 9.2004088500000005 2.8253285699999999 6.9551654599999999 Hf
atom 3.9736212900000001 4.8639668399999998 3.9446333000000000 Hf
atom 4.3547042200000003 4.9961714700000002 9.0624270399999993 Hf
atom 8.9257636199999997 4.9635184700000003 4.3518742300000000 Hf
atom 9.4194821500000003 4.9766568099999997 9.5150869799999995 Hf
atom 0.4833059500000000 2.0796234899999999 0.8820576100000000 O
atom 0.8465158300000000 1.8656618100000000 6.1903560799999999 O
atom 5.5658732899999999 1.7729099200000000 1.2322293700000000 O
atom 5.8685753500000004 1.7538781200000000 6.4547473200000001 O
atom 0.5738834600000000 0.7990456500000001 3.6525800199999998 O
atom 1.0874136400000001 0.7675332000000000 8.7512608499999995 O
atom 5.6678216299999997 0.8114133600000000 3.8617208199999999 O
atom 6.1298515299999998 0.8637231500000000 9.0352610500000008 O
atom 4.7596068899999997 4.4642803000000004 2.0232442399999999 O
atom 5.2192908899999999 4.3490847099999996 7.2498060400000002 O
atom 9.5249501300000006 4.4876978000000003 2.4404624400000001 O
atom 10.2613421900000006 4.4266510200000004 7.6289020699999996 O
atom 4.9975563100000002 3.3622527199999999 4.6953185299999998 O
atom 5.5647909799999997 3.5067978800000001 9.8591906599999994 O
atom 10.0373322300000005 3.3921232899999998 5.0630651300000000 O
atom 10.4530355900000007 3.3882143999999998 10.2035266399999998 O
atom 3.3815984499999998 1.3486388700000000 7.8663377299999997 O
atom 8.0172460999999995 1.3717291800000000 3.1378219500000002 O
atom 8.4875235399999998 1.3573778200000000 8.3076835899999999 O
atom 3.1593107300000001 1.2340326900000000 5.2174544599999999 O
atom 3.6821174299999999 1.3182765299999999 10.4420792500000008 O
atom 8.2245772200000005 1.2659642300000000 5.7349881099999998 O
atom 8.6746803999999997 1.2489318500000000 10.9120827100000000 O
atom 2.4457101600000000 3.8404240100000000 0.0366667200000000 O
atom 2.6440506500000001 3.9388317800000001 5.4304949799999997 O
atom 7.3503570600000003 3.9182902099999999 0.6136104999999999 O
atom 7.7117778799999996 3.9309037099999999 5.8458941900000001 O
atom 2.6452760600000000 3.4703841299999998 2.8459081600000000 O
atom 2.8459444800000000 3.8567999600000000 7.9717149799999998 O
atom 7.3663580800000004 3.8327853799999998 3.2708077699999998 O
atom 7.9567868400000004 3.8541799700000001 8.4159381500000006 O
