lattice_vector 5.0316685699999999 -0.0316645300000000 -0.0559717700000000 
lattice_vector -0.0073128600000000 10.4135349099999992 0.0669559600000000 
lattice_vector -0.0452990600000000 0.0658648300000000 10.0869924300000005 
atom 1.2463798200000000 0.1209293900000000 1.1237577500000000 La
atom 1.3878815499999999 0.1924616900000000 6.2899677799999996 Hf
atom 1.3027720100000000 5.3876410500000000 1.3070882699999999 Hf
atom 1.3422460000000001 5.4047287300000004 6.3593317599999999 Hf
atom 1.2731228200000000 2.4316897800000001 3.8132218099999999 Hf
atom 1.0498038300000001 2.7337984000000000 8.5686766500000004 Hf
atom 1.2889440800000000 7.6474070100000002 3.8461501199999999 Hf
atom 1.3680443499999999 7.6642951300000002 8.8618149200000005 Hf
atom 3.6266924299999999 2.8646917400000000 1.3810244100000000 Hf
atom 3.6426421699999998 2.7749800800000002 6.2442742300000003 Hf
atom 3.6513966700000000 7.9510161999999998 1.3228626999999999 Hf
atom 3.6819937999999999 7.9430869700000004 6.2643684600000000 Hf
atom 3.6213829500000001 5.0658744699999998 3.7988063200000002 Hf
atom 3.6209064500000001 5.0402813100000001 8.9146755199999994 Hf
atom 3.6233816499999998 10.2368964899999995 3.8018769300000002 Hf
atom 3.7737408800000001 10.1704717500000008 8.6827346900000002 Hf
atom 0.2575058300000000 2.0640015699999998 2.0894667500000002 O
atom 0.4004054300000000 1.9793835600000000 6.7329580800000004 O
atom 0.3149317500000000 7.1161252299999997 2.0594600900000000 O
atom 0.3376806300000000 7.1123295600000001 7.0801689999999997 O
atom 0.3536138300000000 0.6609383000000000 4.4491337299999998 O
atom 0.3577616600000000 0.9079988300000000 9.1135756800000003 O
atom 0.2738309000000000 5.9136997100000004 4.6292079599999996 O
atom 0.2840774000000000 5.9986051299999996 9.6024562600000003 O
atom 4.5759859900000004 4.5919257699999996 1.9569933399999999 O
atom 4.8927538100000003 4.3271767600000004 7.2890166900000004 O
atom 4.4387821399999998 9.6927091099999991 2.0343911100000001 O
atom 4.6913101900000003 9.6748474099999999 6.9329096200000002 O
atom 4.6163168499999996 3.3343404600000000 4.4648554400000000 O
atom 4.5104695499999998 3.2919452499999999 9.6286753600000008 O
atom 4.6289775899999999 8.4696947900000001 4.4908086500000000 O
atom 4.8835494500000003 8.6492483900000003 9.6580516299999992 O
atom 2.7365443400000000 1.3487801300000000 2.5419407800000000 O
atom 2.7166286899999998 1.2921604499999999 7.6369671400000003 O
atom 2.6572455499999998 6.4230609500000000 2.5432565899999999 O
atom 2.7378290700000001 6.4263542800000000 7.5750118700000000 O
atom 2.7035745100000002 1.3682475300000001 5.0615208100000002 O
atom 2.6620803400000002 6.5825246200000000 5.0578173000000000 O
atom 2.6727110700000001 6.5936781199999999 10.1163538400000004 O
atom 2.2862866899999998 4.0042330499999998 5.0629246700000001 O
atom 2.1545157599999998 4.0156630699999996 10.0734336599999992 O
atom 2.2791370799999999 9.1973309899999993 5.0747522399999996 O
atom 2.4955851000000000 9.1552645899999998 9.9709664399999998 O
atom 2.2141955599999998 3.8972605499999999 2.5627404999999999 O
atom 2.4296084599999999 3.9054679800000001 7.5200931500000001 O
atom 2.2866514200000001 8.9127962600000004 2.6084230000000002 O
atom 2.3390969899999998 9.0191819100000004 7.5220643000000003 O
