lattice_vector 10.1272476999999999 0.0876337700000000 0.7787261100000000 
lattice_vector 0.0501203800000000 10.2264046499999992 -0.0028373600000000 
lattice_vector 0.7293903400000000 -0.0265026500000000 10.5261063999999998 
atom 1.3514034300000000 0.1541836300000000 1.7765434300000000 Si
atom 1.8364094300000000 0.0979887100000000 6.8740944199999996 Hf
atom 1.5623561699999999 5.3564157500000000 1.6334813200000000 Hf
atom 1.6428766600000000 5.1915132499999999 6.7414297300000001 La
atom 6.5890035200000003 0.3006583500000000 2.0224419500000002 Hf
atom 6.8780877100000000 0.3113386600000000 7.3243845299999997 Hf
atom 6.5774052500000000 5.3817054799999999 2.0581917600000001 Hf
atom 6.9956446699999999 5.2762781399999996 7.3471276699999999 Hf
atom 1.7563209200000001 2.2870320799999999 4.1743175900000002 Hf
atom 2.0565176599999999 2.2821750600000001 9.4808646400000001 Hf
atom 1.7998322300000000 7.6029722000000000 4.0591197000000001 Hf
atom 1.9724387200000000 7.4166919499999997 9.5136668300000000 Hf
atom 6.8058074299999998 2.4078234799999998 4.6386559900000002 Hf
atom 7.1157749199999998 2.4053675299999999 9.9818458200000002 Hf
atom 6.8390334599999996 7.5107372300000002 4.5887127300000001 Hf
atom 7.0770953499999996 7.4841576200000004 9.9602772300000009 Hf
atom 3.7097078899999998 2.7931690400000000 1.3049766300000001 Hf
atom 4.1316769200000003 2.7730803900000001 6.6043256599999998 Hf
atom 3.7258419400000000 8.0284710599999993 1.3124045900000001 Hf
atom 4.2370885600000001 7.7321227800000001 6.7395869199999998 La
atom 8.9376611799999992 2.7760889799999999 1.8513654100000001 Hf
atom 9.1948358300000006 2.7006282399999999 7.0216602799999999 Hf
atom 8.8490127399999992 7.9787621000000000 1.7846493699999999 Hf
atom 8.9454393700000008 7.9806980899999997 7.0930728800000002 Hf
atom 3.9608063300000000 4.8997767300000001 3.9559739299999999 Hf
atom 4.2456235500000004 4.9385819499999997 9.2605265800000005 Hf
atom 4.0199576199999996 10.0394422500000005 3.9346855100000000 Hf
atom 4.2935043100000003 10.1382097800000004 9.2727435299999996 Hf
atom 9.0999667100000003 4.9492846500000001 4.4380434800000002 Hf
atom 9.3121434700000005 4.8991274300000001 9.8042490799999999 Hf
atom 9.0957880400000004 10.0409452800000007 4.4333837400000000 Hf
atom 9.3735800400000002 10.0676389799999999 9.6797657099999999 Hf
atom 0.5775324900000000 1.4286800500000001 0.8521439700000000 O
atom 0.7420535600000000 1.4794849400000001 5.9161149899999996 O
atom 0.3575370000000000 6.7161537700000000 0.7979193600000000 O
atom 5.4839984299999998 1.7700172400000000 1.2392507300000000 O
atom 5.9148209899999999 1.8315483100000001 6.4817277000000004 O
atom 5.4487786700000003 6.8663339399999996 1.2098587599999999 O
atom 6.3186707599999998 6.9068324099999998 6.4312364300000002 O
atom 0.6386877700000000 0.7820594500000000 3.3286381899999999 O
atom 0.8595028500000000 0.8952643100000000 8.6164584899999994 O
atom 0.6728326400000000 6.0109745999999999 3.4820093000000001 O
atom 0.6708386300000000 6.1454750599999999 8.6836811800000007 O
atom 5.6692749600000001 0.9452575900000000 3.8203461900000000 O
atom 6.0481907300000000 0.9389540400000000 9.1509177600000005 O
atom 5.6887398200000003 6.0202186299999996 3.8683837300000001 O
atom 5.9256838900000002 6.1127603400000003 9.0256460300000008 O
atom 4.8720214000000004 4.2908719599999996 2.1800659300000000 O
atom 5.1631827299999999 4.3821130999999998 7.3855732800000000 O
atom 4.9227458999999998 9.4357721500000000 2.1350250499999999 O
atom 5.2185642500000000 9.6043588199999999 7.4624121199999998 O
atom 10.0631658399999999 4.1990821699999996 2.7233902400000001 O
atom 10.1718598999999994 3.9428458800000001 8.1813903499999991 O
atom 10.1364814499999998 9.3678619699999999 2.6696723900000001 O
atom 10.3361164300000006 9.1706956900000005 7.9424521400000003 O
atom 5.1351549700000003 3.5083112800000000 4.8116880300000000 O
atom 5.4677538600000002 3.5613358599999998 10.1255022599999993 O
atom 5.1674331599999999 8.5792073299999991 4.6438901299999999 O
atom 5.3297375200000001 8.5789681099999999 10.0465137599999998 O
atom 10.2688181299999997 3.5953779699999999 5.3942941700000002 O
atom 10.5555375300000005 3.5297462799999999 10.6850992100000006 O
atom 10.1462530500000003 8.5245535900000000 5.3969225500000002 O
atom 10.4802696799999993 8.7052482700000002 10.6137657999999995 O
atom 2.7903851000000000 1.2160663100000000 2.4638549699999999 O
atom 3.2546740299999999 1.2562129900000001 7.8381580299999998 O
atom 3.0157516200000001 6.5101990199999999 2.6280507000000002 O
atom 3.1196485900000002 6.3120964600000002 8.1511422899999992 O
atom 8.0952152599999998 1.3332677799999999 3.1446013800000001 O
atom 8.3987526999999993 1.3578592599999999 8.3956859099999992 O
atom 8.0884814299999999 6.4738131100000000 3.1660062700000000 O
atom 8.3691347999999994 6.4680493500000003 8.4652275499999998 O
atom 3.2249953200000001 1.2623589700000000 5.2193568800000003 O
atom 3.7217677700000000 1.5492047700000000 10.3293190199999998 O
atom 2.9818497000000002 6.3714574900000001 5.1525959600000002 O
atom 3.4897648499999998 6.4796650700000002 10.6274432500000007 O
atom 8.2498314199999996 1.2659680499999999 5.7215743899999998 O
atom 8.6179006299999994 1.2815384100000000 11.0543519900000007 O
atom 8.6169351200000008 6.3395027099999997 5.8736731100000004 O
atom 8.5371597300000008 6.4054299099999996 11.0963423300000006 O
atom 2.2867945700000001 3.9913344999999998 0.2528070600000000 O
atom 2.7839171700000001 3.7459279799999998 5.3956530200000001 O
atom 2.2714758599999998 9.4423061599999993 0.4823332900000000 O
atom 2.6178388600000000 9.0202692700000000 5.4226998899999996 O
atom 7.4246054700000004 3.9051103500000002 0.7873727800000000 O
atom 7.8002519299999999 3.8902780799999999 5.9628057600000002 O
atom 7.3483474299999996 9.0548765000000007 0.6834074000000000 O
atom 7.7309677700000003 9.0820412000000008 5.9294977400000004 O
atom 2.5287335899999999 3.7741241200000002 2.8666216000000002 O
atom 2.9094786699999999 3.6772746100000000 8.1689280899999996 O
atom 2.4777347700000001 9.0188084400000008 2.8190949900000000 O
atom 2.7748740399999998 8.9472597700000005 8.3329004999999992 O
atom 7.6366531300000000 3.8385903899999998 3.3384680100000002 O
atom 7.7978281500000000 3.8748815400000001 8.6835909200000003 O
atom 7.6938474000000001 8.9858265599999996 3.3005868299999999 O
atom 7.8524168799999998 8.9771961600000001 8.5951562300000006 O
