lattice_vector 10.0264850699999997 -0.0084392000000000 0.7716616600000000 
lattice_vector 0.0079853900000000 10.1568294800000007 -0.0183594400000000 
lattice_vector 0.9070976500000000 0.0306815600000000 10.4711682499999998 
atom 1.3132536500000001 0.1897122400000000 1.7407534600000001 Si
atom 2.0422424399999999 0.3159020900000000 6.7915253900000003 Hf
atom 1.5318688000000000 5.3214171400000003 1.6559599800000000 Hf
atom 2.0412952799999999 5.2624373899999997 6.9040909399999997 Hf
atom 6.5452532300000001 0.2059395000000000 1.9901426099999999 Hf
atom 6.9715894699999996 0.2524160100000000 7.2451592199999997 Hf
atom 6.5049273899999998 5.2701189399999997 1.9998516600000000 Hf
atom 6.9318450399999998 5.2665906700000003 7.2397789499999998 Hf
atom 1.7227800799999999 2.2547706700000001 4.1834825499999999 Hf
atom 2.2571961200000001 2.4004457299999999 9.4113361300000005 Hf
atom 1.7493814299999999 7.3704601099999998 4.2746048400000003 Hf
atom 2.1761724500000001 7.4759679400000003 9.4530944899999998 Hf
atom 6.7723858300000002 2.2909571600000000 4.6017166999999999 Hf
atom 7.2346001900000001 2.3738951799999999 9.8846536199999999 Hf
atom 6.7666701199999997 7.3797321100000000 4.6269480400000003 Hf
atom 7.1783008600000002 7.4245185400000002 9.8599895699999998 Hf
atom 3.6941086799999998 2.6951093099999999 1.3493864000000000 Hf
atom 4.3999852700000002 2.7989742600000000 6.4806237600000003 Si
atom 3.6349899699999999 7.8884529499999996 1.3874672600000000 Hf
atom 4.1770360999999996 7.8745954300000003 6.6162624299999999 Hf
atom 8.8288641299999995 2.6835680700000002 1.7756970299999999 Hf
atom 9.1969820099999993 2.7844194700000000 6.9937223599999996 Hf
atom 8.7470122299999993 7.8437552200000003 1.7402280900000000 Hf
atom 9.2034564499999991 7.8286397699999997 7.0113808000000004 Hf
atom 3.9676916200000001 4.8091222100000000 4.0477405400000004 Hf
atom 4.3704782499999997 4.8947826000000001 9.2770750399999997 Hf
atom 3.9228562500000002 9.8843194299999997 3.9072809400000001 Hf
atom 4.4327417899999997 10.0411047999999994 9.2467021500000008 Hf
atom 8.9429303299999994 4.8481439699999997 4.3737283199999997 Hf
atom 9.4274304499999992 4.8839232900000003 9.6304929500000007 Hf
atom 8.9475774900000005 9.9001374700000007 4.3753791800000004 Hf
atom 9.4580177200000008 9.9922945900000002 9.5505995000000006 Hf
atom 0.5791428100000000 1.4744074700000001 0.8283440100000000 O
atom 0.7877378600000000 1.5938189500000000 5.9284640299999998 O
atom 0.3986068800000000 6.7414696599999999 0.7946268000000000 O
atom 0.8480824000000000 6.7090036099999999 6.0593274399999997 O
atom 5.4139091600000002 1.6140803699999999 1.1582143600000001 O
atom 5.7682670600000003 1.7093354599999999 6.4268938499999999 O
atom 5.3595066600000001 6.7090084900000004 1.1708412399999999 O
atom 5.8327875200000001 6.7148394400000004 6.4021007499999998 O
atom 0.6300385900000000 0.8118712000000000 3.2994233700000000 O
atom 1.1577658099999999 0.9543184600000000 8.5768676399999997 O
atom 0.6107019299999999 5.9573302400000001 3.4267760100000002 O
atom 1.0281788100000000 6.0842858599999996 8.6455673100000006 O
atom 5.6031953500000000 0.8936656400000000 3.7586666000000002 O
atom 6.1565792600000000 0.9059286400000000 9.0325330499999996 O
atom 5.6638025299999999 5.8969204099999999 3.8334151699999999 O
atom 6.0405869200000000 6.0084276699999997 8.9669866200000001 O
atom 4.8717816699999998 4.0979605699999997 2.2760944900000002 O
atom 5.1356639900000003 4.0537897000000003 7.4050431100000003 O
atom 4.8797565100000000 9.2240861299999999 2.1715291500000000 O
atom 5.2902758399999996 9.3257617400000008 7.4118417100000000 O
atom 9.9095780900000001 4.1356842000000000 2.6201119600000000 O
atom 10.3410275400000007 4.1672061500000002 7.8617026299999999 O
atom 9.9548866900000004 9.2938026199999992 2.5602608700000000 O
atom 10.3500781699999997 9.2944109400000006 7.7861400999999999 O
atom 5.0745471000000002 3.3599983299999998 4.9344290099999997 O
atom 5.6147965600000003 3.5609946099999998 10.1169741799999997 O
atom 5.0654297399999999 8.4817744099999999 4.7798678099999998 O
atom 5.4327517900000002 8.5352146500000003 10.0485487399999993 O
atom 10.1117028199999996 3.4396726700000002 5.2198104200000000 O
atom 10.5571365600000000 3.4314045300000000 10.5044576099999993 O
atom 10.0654436599999997 8.4621170800000005 5.1912682700000001 O
atom 10.5441759499999996 8.5760703199999995 10.4466290500000003 O
atom 2.7648749399999999 1.1181509400000000 2.4038449800000001 O
atom 3.4702869199999999 1.7331484800000001 7.5808503900000002 O
atom 3.0090161400000000 6.3570407500000004 2.7423141200000001 O
atom 3.4311517999999999 6.4891113000000002 7.9626178699999999 O
atom 8.0195233500000001 1.2521338300000000 3.0968300200000001 O
atom 8.4802709899999993 1.3422572100000001 8.3207239299999998 O
atom 8.0020161099999996 6.3602844500000000 3.0845577899999999 O
atom 8.4078773899999995 6.3803752800000000 8.3329764100000006 O
atom 3.1742549000000002 1.1867552400000001 5.1277316800000001 O
atom 3.8817717100000002 1.5420555499999999 10.2299616199999992 O
atom 3.2061514000000000 6.2542225499999997 5.3502974099999996 O
atom 3.6349345799999999 6.4379557199999997 10.5700414699999996 O
atom 8.1823009599999992 1.2228751499999999 5.7085936100000003 O
atom 8.7249488199999998 1.2594053700000001 10.9508467500000002 O
atom 8.2039904700000008 6.2838224800000004 5.7351793000000004 O
atom 8.6624790699999998 6.3545030200000001 10.9443797800000002 O
atom 2.2991760999999999 3.8977655000000002 0.3828519600000000 O
atom 2.9339393999999999 3.6892298000000001 5.7638180500000002 O
atom 2.2049906799999999 9.3027729499999996 0.4877004000000000 O
atom 2.7154546800000001 8.9005257800000006 5.5265924499999999 O
atom 7.3235951500000001 3.8215016199999998 0.7042299300000000 O
atom 7.7086802099999998 3.8196058900000001 5.9037317600000003 O
atom 7.2611758100000001 8.9143079299999997 0.6367343400000000 O
atom 7.7035698600000000 8.9082964800000006 5.9006091500000002 O
atom 2.5198409800000001 3.7212868200000000 2.9893264500000001 O
atom 2.7656284000000002 4.0576517799999996 8.3954318899999993 O
atom 2.4177370499999999 8.8147164300000007 2.9137790699999999 O
atom 2.9516159900000001 8.9995474400000006 8.1751542799999992 O
atom 7.5230206900000001 3.7235422400000000 3.2814715400000001 O
atom 7.9435956299999999 3.8120890699999999 8.5247407899999992 O
atom 7.5446654700000000 8.8289068299999993 3.2641714700000000 O
atom 7.9528893900000002 8.8843202899999998 8.5118792899999995 O
