lattice_vector 10.0300725300000000 -0.0177225300000000 -0.0531687600000000 
lattice_vector -0.0081375300000000 10.4462964300000003 -0.0628329400000000 
lattice_vector 0.0731414300000000 -0.1371030900000000 10.0474258600000006 
atom 1.1646970400000001 0.3047273300000000 1.1650039400000001 Si
atom 1.4574959599999999 0.1128580400000000 6.3562094000000000 Hf
atom 1.2734860800000001 5.3670660600000000 1.1830850600000000 Hf
atom 1.3841117700000001 5.3118754399999997 6.2488603500000002 Hf
atom 6.2473495000000003 0.0898874600000000 1.1439827800000000 Hf
atom 6.1506958100000002 -0.1390412900000000 6.0420598099999996 La
atom 6.3893338499999999 5.3858107100000003 1.1950281899999999 Hf
atom 6.4076759699999997 5.2995292599999999 6.1942208100000000 Hf
atom 1.3669272100000001 2.2805668200000002 3.6736669700000002 Hf
atom 1.4768393900000001 2.3681891500000001 8.8566084800000002 Hf
atom 1.3700197400000000 7.5209679400000002 3.7641971700000001 Hf
atom 1.3759828300000001 7.5692700799999999 8.7993948700000004 Hf
atom 6.3161364700000000 2.4072093600000000 3.5904566500000001 Hf
atom 6.2915607600000003 2.4687141800000001 8.7098877600000009 Hf
atom 6.4154615200000000 7.5835251699999997 3.7114627699999998 Hf
atom 6.4059672799999996 7.5792386199999999 8.7130291500000006 Hf
atom 3.7433710900000001 2.8607853500000000 1.1558767700000001 Hf
atom 3.7241325800000000 2.7339677199999999 6.2548136799999998 Hf
atom 3.7147300099999998 7.9064860899999996 1.2328322400000000 Hf
atom 3.6578729600000002 7.9236926800000003 6.3053394699999998 Hf
atom 8.7124401200000001 2.7397491800000000 1.0535239199999999 Hf
atom 8.8071380599999998 2.5176867399999998 6.1025117000000000 La
atom 8.7388254399999994 7.9700925800000002 1.1658651600000001 Hf
atom 8.7738698199999998 7.8964242999999996 6.1351466200000004 Hf
atom 3.6913717600000000 4.9671970200000004 3.7560563000000000 Hf
atom 3.7195659200000000 5.0440112600000004 8.7248307900000004 Hf
atom 3.5678823600000000 10.1348366999999993 3.6578076899999998 Hf
atom 3.6185308100000002 10.1735224300000002 8.9202415800000008 Hf
atom 8.6991725700000000 4.9546201700000001 3.6520494800000001 Hf
atom 8.7245442999999998 4.9514147599999996 8.6704483499999991 Hf
atom 8.7814535500000002 10.2154138099999994 3.5390008300000000 Hf
atom 8.8713975900000008 10.0443571200000008 8.7082905900000007 Hf
atom 0.3703602900000000 1.8217810999999999 1.8332135199999999 O
atom 0.5209609800000000 1.6905442399999999 7.2521511399999996 O
atom 0.3391894600000000 7.0835558299999999 1.9668721300000001 O
atom 0.4267671700000000 7.1193341300000004 6.9612260800000003 O
atom 5.3631091900000003 1.9091043700000001 1.7881912099999999 O
atom 5.5204736299999997 1.9507454500000001 6.9325535100000000 O
atom 5.3873773500000004 7.0962363100000001 1.9622112100000000 O
atom 5.3962216500000002 7.0411284800000002 6.9638876999999999 O
atom 0.2739530600000000 0.7361566300000000 4.6690101100000003 O
atom 0.4665234500000000 0.5451747000000000 9.6949951799999994 O
atom 0.3444846300000000 5.8365851099999997 4.5009094200000002 O
atom 0.3729093100000000 5.8588807999999997 9.4863876900000008 O
atom 5.2110149600000000 0.7590201300000000 4.1140002100000004 O
atom 5.3766550400000002 0.6662174000000000 9.4738960300000006 O
atom 5.3691120000000003 5.9112447100000001 4.4238025900000002 O
atom 5.4030561900000000 5.8570631100000003 9.4946127499999999 O
atom 4.7523999899999998 4.5012470999999996 1.9711746200000000 O
atom 4.6769842900000000 4.4886892999999999 6.9365192100000002 O
atom 4.6865277200000000 9.6812325700000006 1.9205633600000001 O
atom 4.4933733699999996 9.5190321200000003 7.1926386300000003 O
atom 9.6770126199999993 4.4357362399999998 1.8152973400000001 O
atom 9.7818879600000006 4.5030841600000002 6.9571287599999998 O
atom 9.9557243399999997 9.7545785800000004 1.7913312900000000 O
atom 9.6470347000000007 9.7534900199999992 6.8476971700000000 O
atom 4.7075694800000001 3.2769299599999999 4.4702257699999999 O
atom 4.6948946899999999 3.3159834699999999 9.4625663200000005 O
atom 4.8418862699999998 8.6003457700000006 4.6413930299999997 O
atom 4.7229291199999999 8.4766755699999994 9.5413205800000007 O
atom 9.7676466499999997 3.2728773900000001 4.1507344200000000 O
atom 9.8069714300000008 3.2425153700000000 9.4051554599999996 O
atom 9.8107833000000007 8.5173741900000000 4.3492292700000004 O
atom 9.7379331699999998 8.3936818300000002 9.4371250900000003 O
atom 2.2942982800000000 0.7062798400000000 2.4716948599999999 O
atom 2.9014746200000001 1.1710611900000001 7.5878313100000003 O
atom 2.6708069100000000 6.1798678499999999 2.4291822999999999 O
atom 2.7274873199999998 6.4006700299999997 7.5009725899999999 O
atom 7.7696991799999999 1.1205517100000000 2.0783060299999998 O
atom 7.7536199999999997 6.3830049899999999 2.4157756500000001 O
atom 7.7659571700000001 6.3507308599999996 7.4370566100000000 O
atom 2.7260307099999999 1.2938822900000000 5.0037083500000001 O
atom 2.7200186600000000 1.3260113400000000 10.1601621899999994 O
atom 2.7628939699999999 6.5093650099999998 4.9748471900000002 O
atom 2.7387696699999999 6.5557028600000002 9.9831009500000008 O
atom 7.6524422300000001 1.2136306500000000 4.5981864500000000 O
atom 7.8890345300000000 1.3318158600000001 9.3185867299999998 O
atom 7.7585038600000003 6.5029683299999999 4.9349060600000003 O
atom 7.7714478199999997 6.5241104700000001 9.9593809699999998 O
atom 2.3301480899999998 3.8953647800000000 5.0083849100000002 O
atom 2.4311533200000000 3.9738304000000002 10.0149299900000006 O
atom 2.3471646800000001 9.1121241499999996 5.0802611899999999 O
atom 2.2436606700000001 9.2840203500000005 10.3088533699999996 O
atom 7.3024081699999996 3.9645477400000000 4.8360848200000000 O
atom 7.4021780899999996 3.8833701299999999 9.9521181700000003 O
atom 7.5428973900000003 9.0153593500000007 4.7736066299999997 O
atom 7.4166203299999998 9.1354684200000005 9.9220473899999995 O
atom 2.4076220300000002 3.6062673200000002 2.4862664799999998 O
atom 2.3734774900000000 3.7581372100000001 7.5295282200000004 O
atom 2.5990548300000000 8.6288620599999994 2.6752979600000000 O
atom 2.1960282900000001 9.0430014300000003 7.6471964200000002 O
atom 7.3695540599999996 3.7529471800000000 2.3452721599999999 O
atom 7.2998907600000003 3.8138865800000001 7.4831231499999999 O
atom 7.4175338599999998 8.9876206100000005 2.3503945300000000 O
atom 7.4872758599999996 8.8876859699999997 7.4726045699999997 O
