lattice_vector 10.0926036400000001 -0.0009302300000000 0.0937580800000000 
lattice_vector 0.0210104500000000 10.1789134299999997 -0.0013574000000000 
lattice_vector 0.0068324000000000 -0.0542590000000000 10.5290715200000005 
atom 0.7273879400000000 0.0945392700000000 1.5393574600000000 Si
atom 1.3803116799999999 0.1698437900000000 7.0629261999999997 Hf
atom 1.4268503500000000 5.2825087999999996 1.8365058200000000 Hf
atom 1.4364105500000000 5.2616546199999998 7.1057316600000000 Hf
atom 1.5066745200000000 2.2377272100000001 4.3750769900000002 Hf
atom 1.4426005900000001 2.3031931800000001 9.6847715200000000 Hf
atom 1.4614753700000001 7.3777743200000003 4.5111381699999997 Hf
atom 1.4055012899999999 7.3834278700000002 9.7170904700000005 Hf
atom 3.6331126899999999 2.7279295600000002 1.8387338200000001 Hf
atom 3.6819535999999999 2.7253004199999999 7.0972061000000002 Hf
atom 3.6493309500000000 7.8273895500000004 1.9603122200000000 Hf
atom 3.6917030400000002 7.8328491099999997 7.1335222099999998 Hf
atom 3.6598117200000000 4.8343536299999998 4.4928964200000001 Hf
atom 3.6699779700000001 4.8476498499999998 9.7467144099999992 Hf
atom 3.7101512300000001 9.9689187100000005 4.4556063699999999 Hf
atom 3.6080507300000000 10.0284019499999992 9.7050931200000008 Hf
atom 6.3376620099999998 -0.0002548400000000 1.0965456499999999 La
atom 6.4438953799999998 0.1749982300000000 6.1574491199999999 Hf
atom 6.4118381700000002 5.2841952100000000 0.9058663000000000 Hf
atom 6.4816564699999999 5.2552356299999996 6.1817353500000003 Hf
atom 6.4476098000000004 2.3790364300000002 3.5544218500000002 Hf
atom 6.4467089099999999 2.2388881199999999 8.8153738100000005 Hf
atom 6.4728895599999996 7.3612631899999998 3.5849476500000002 Hf
atom 6.4332612600000001 7.3706382300000000 8.7574020899999994 Hf
atom 8.6487635199999993 2.7251970499999998 0.9059101700000000 Hf
atom 8.7482531500000000 2.7004179100000001 6.1627677299999997 Hf
atom 8.7272615699999996 7.6880744500000002 0.8029728100000000 Hf
atom 8.7311596500000004 7.7944245199999997 6.1798692300000004 Hf
atom 8.7666627300000002 4.8275409700000003 3.5437865899999998 Hf
atom 8.7192825500000009 4.7720725300000000 8.8087748799999996 Hf
atom 8.8235400800000008 10.0460879799999994 3.7124005300000000 Hf
atom 8.7091051999999998 9.9201714499999998 8.7999513599999997 Hf
atom 0.3175031800000000 1.4783383400000001 0.7535651300000000 O
atom 0.2869545400000000 1.4345951100000001 5.8900783700000003 O
atom 0.3327438700000000 6.7097412299999997 0.8452100400000000 O
atom 0.3248918200000000 6.6664047899999996 6.1432302500000002 O
atom 0.5889924900000000 0.6808483600000000 3.1320498300000001 O
atom 0.2897097000000000 0.9117281200000000 8.6723814600000004 O
atom 0.3339584100000000 5.9856069200000004 3.4918111000000001 O
atom 0.3405749500000000 5.9452965100000004 8.7618836200000008 O
atom 4.6779434300000000 4.2679575099999996 0.9104533000000000 O
atom 4.7645294299999996 4.1566099699999999 6.1567795800000003 O
atom 4.3841845399999997 9.1085440000000002 0.6937495900000000 O
atom 4.8126173500000000 9.1608706699999995 6.0423556400000002 O
atom 4.7868459899999998 3.5349281399999999 3.5376840000000001 O
atom 4.7478856599999997 3.4208881099999999 8.7852689099999992 O
atom 5.0084637900000004 8.7697272399999999 3.2846994500000002 O
atom 4.7843963299999999 8.5672169300000007 8.6899244000000007 O
atom 3.0155218700000002 1.3349456399999999 3.2456904600000001 O
atom 2.7242883500000001 1.2487379800000000 8.3118214899999998 O
atom 2.8096003299999999 6.2551984599999999 3.1640970799999999 O
atom 2.7971517499999998 6.3221688499999997 8.4176634799999999 O
atom 2.9342290400000000 1.5188619800000001 0.3257693800000000 O
atom 2.7981151099999999 1.2347394400000000 5.7719033199999998 O
atom 2.7766999200000000 6.5182514400000002 0.5255050700000000 O
atom 2.8035117299999999 6.3239362899999998 5.8081841900000004 O
atom 2.2580574100000002 3.7794068400000000 3.1194673700000002 O
atom 2.3007531399999999 3.7809770600000001 8.3853349399999999 O
atom 2.4546500800000000 8.7527060399999996 3.3249141000000000 O
atom 2.2839370500000000 8.8643169099999994 8.4780705199999993 O
atom 2.2174322900000001 3.9291988099999999 0.4660065000000000 O
atom 2.2868771500000000 3.7502425399999999 5.7342791599999998 O
atom 1.8084843399999999 9.3137986999999995 0.7216620500000001 O
atom 2.3101541499999998 8.8753879799999993 5.8529963299999999 O
atom 5.4272860700000001 1.8591409200000000 1.8498018700000001 O
atom 5.3683487400000001 1.5931429300000000 7.1038738800000001 O
atom 5.3962058099999997 6.7401519499999996 1.9108818599999999 O
atom 5.3685174699999996 6.6577916100000003 7.1219237800000004 O
atom 5.4295965900000001 0.9112173600000000 4.4837194199999999 O
atom 5.3226886000000002 0.8281354300000000 9.6614304600000001 O
atom 5.3596347499999997 6.0409163299999999 4.5399025899999996 O
atom 5.3693080399999999 5.9799878900000003 9.7742118199999997 O
atom 9.8117278799999994 4.1407470699999998 1.8847137400000000 O
atom 9.8540898899999991 4.0759732900000003 7.1715817499999996 O
atom 9.4502942999999995 9.3534565799999996 1.7949849499999999 O
atom 9.8074335799999997 9.2006168499999994 7.1669227600000003 O
atom 9.8188577299999995 3.3393590999999998 4.4628365900000002 O
atom 9.7922838300000006 3.3934622700000001 9.8361272999999994 O
atom 9.8719448100000005 8.5380066200000009 4.5493596500000004 O
atom 9.8108879800000004 8.4757171600000003 9.7591360100000006 O
atom 7.8749406300000002 1.2089110100000000 10.1094708299999994 O
atom 7.8439010500000004 1.2359987699999999 4.9311049799999997 O
atom 7.8445721500000003 6.1962528800000003 10.1287918500000007 O
atom 7.8598347500000001 6.3046765200000001 4.8865576099999997 O
atom 7.9536345800000001 1.3476888600000001 2.4053596900000001 O
atom 7.8350204999999997 1.2309324699999999 7.4969578600000002 O
atom 7.8418486800000000 6.4334199800000000 2.2602962299999998 O
atom 7.8538352500000004 6.3165324600000003 7.5103537500000002 O
atom 7.2989202600000000 3.7137271300000001 10.1433140399999999 O
atom 7.3836893899999998 3.7849979800000000 4.8822878999999997 O
atom 7.3843871999999999 8.7014422299999996 10.0740660200000001 O
atom 7.3901337900000001 8.8717001500000006 4.8075625899999999 O
atom 7.3403323499999997 3.8804843099999999 2.2259222300000001 O
atom 7.3517020899999999 3.7728125399999999 7.4982549900000004 O
atom 7.3404881599999996 8.8691232400000004 7.4559274899999997 O
