lattice_vector 10.0221652300000006 -0.0072459100000000 0.0311662500000000 
lattice_vector 0.0189419800000000 10.4155985999999992 -0.0026646100000000 
lattice_vector 0.0025576400000000 0.0177609100000000 10.0854530100000002 
atom 1.4395142800000000 -0.0149412300000000 1.1377257100000000 Hf
atom 1.3837763800000000 0.1667544400000000 6.3116565600000003 Hf
atom 1.3525344600000000 5.4330222499999996 1.2734818100000000 Hf
atom 1.3518794999999999 5.4205709500000001 6.3113203400000000 Hf
atom 6.2824128400000001 0.1281098800000000 1.2570679700000000 Hf
atom 6.3581744799999997 0.1840572600000000 6.3368565200000004 Hf
atom 6.3902571999999997 5.3509502800000002 1.2990854999999999 Hf
atom 6.3951799899999999 5.3843880100000003 6.3199617300000002 Hf
atom 1.5112121300000001 2.5156220399999998 4.0108160499999999 Hf
atom 1.3938670900000001 2.4529926600000000 8.7646726499999996 Hf
atom 1.3839729000000001 7.6300849299999998 3.8002648300000001 Hf
atom 1.3629804200000000 7.6208476100000002 8.7968658000000008 Hf
atom 6.3068172300000001 2.4641775199999998 3.7862566400000000 Hf
atom 6.3508570799999999 2.4582176599999999 8.8454482900000002 Hf
atom 6.3930162900000003 7.6319996799999998 3.8171130000000000 Hf
atom 6.3702881600000003 7.6427768199999999 8.8439387699999994 Hf
atom 3.6067477800000001 2.7828064299999999 1.2631466099999999 Hf
atom 3.7458444599999998 2.8151761199999998 6.3765324300000001 Hf
atom 3.7251230099999999 7.9197314900000002 1.2734751099999999 Hf
atom 3.7142701800000002 7.9880279500000002 6.2852492599999996 Hf
atom 8.8516872200000005 2.6294506900000001 1.2642644199999999 La
atom 8.6834077799999996 2.7938847299999998 6.3424967099999998 Hf
atom 8.6820713600000001 7.9883973299999997 1.2457975600000000 Hf
atom 8.6844965500000004 7.9772099299999999 6.3643123199999998 Hf
atom 3.7199700199999999 5.0634420799999997 3.7853001900000001 Hf
atom 3.6920728399999998 5.0610614099999998 8.8582079700000005 Hf
atom 3.7154287799999999 10.2570948699999995 3.7655380500000000 Hf
atom 3.7316558999999998 10.2363105799999996 8.7941870400000006 Hf
atom 8.7023699200000006 5.0474978100000003 3.8089113200000000 Hf
atom 8.6987270199999998 5.0596832799999998 8.8187657399999999 Hf
atom 8.7324903000000003 10.3012789999999992 3.8694529100000001 La
atom 8.6810814100000009 10.2593992499999995 8.8610717099999992 Hf
atom 0.4202646200000000 1.9551503699999999 6.9510128800000004 O
atom 0.3797013700000000 7.2075004800000002 1.9630669599999999 O
atom 0.3628165400000000 7.1075270899999996 7.0472250599999997 O
atom 5.1031466400000003 1.8129030399999999 2.1127130400000000 O
atom 5.3667008599999999 1.9003697700000000 7.0866741600000003 O
atom 5.3665105500000001 7.0679281600000001 2.0042722700000000 O
atom 5.3964854100000004 7.1394451600000002 7.0189179399999997 O
atom 0.6086985600000000 0.7750632400000000 4.5444651499999997 O
atom 0.2835067700000000 0.8647652900000000 9.6649773099999994 O
atom 0.4291898300000000 5.8432700799999999 4.4644722999999997 O
atom 0.3525264700000000 5.9477367299999999 9.5553848899999991 O
atom 5.3680269200000001 0.6523842800000000 4.5329732099999998 O
atom 5.3048806400000004 0.7280662200000000 9.5565264100000000 O
atom 5.3809414000000002 5.9183929099999997 4.5255168499999998 O
atom 5.3759015000000003 5.9178200099999998 9.5596150499999997 O
atom 4.6404251099999998 4.4973961500000001 1.9727941800000000 O
atom 4.7151031999999997 4.5334910500000003 7.0767450099999998 O
atom 4.5838264200000003 9.7156245999999999 1.9326877099999999 O
atom 4.6890274500000002 9.7197539400000004 7.0195287400000002 O
atom 9.7445065399999997 4.5954703500000003 2.0367502100000001 O
atom 9.6500086100000004 4.5662144900000001 6.9202302099999997 O
atom 9.6704464100000003 9.8702243099999993 1.7495756000000000 O
atom 9.6985545500000008 9.7614364400000007 7.0229173899999999 O
atom 4.6748197400000002 3.3533140600000002 4.5626386300000004 O
atom 4.6408676299999998 3.3089982299999998 9.5720434300000008 O
atom 4.6459320499999999 8.5119874800000002 4.4297733099999999 O
atom 4.7055094899999999 8.5163145900000004 9.5604513699999991 O
atom 9.6602176100000001 3.1886253099999999 4.3736134900000003 O
atom 9.7275724599999993 3.3748277199999999 9.2913620699999999 O
atom 9.7850812299999994 8.3764078499999997 4.6587250100000004 O
atom 9.7168965699999994 8.5510964499999993 9.5121345900000005 O
atom 2.3078010099999999 1.2843377100000000 2.4850759899999999 O
atom 2.7229154200000001 1.2231399300000001 7.5696381700000002 O
atom 2.7286811499999999 6.4155765499999999 2.5151612900000000 O
atom 2.7408241000000002 6.4373386500000001 7.5578002499999997 O
atom 7.4347561100000004 1.2332006499999999 2.5033788299999999 O
atom 7.7610152899999996 1.2506063300000001 7.5725821199999999 O
atom 7.7547928500000003 6.4331376699999998 2.5334335900000000 O
atom 7.7240896499999998 6.4437890800000002 7.5759326099999997 O
atom 2.8976270600000000 1.4149249300000000 5.0751258100000003 O
atom 2.7047042299999999 1.3502482700000000 10.0786255600000008 O
atom 2.7380349200000000 6.6002187299999999 5.0424522700000001 O
atom 2.7306269699999999 6.6012637500000002 10.0724162800000006 O
atom 7.5637292100000000 1.5270624600000000 5.1472322100000003 O
atom 7.5950706800000001 1.2958650700000001 10.0204936999999994 O
atom 7.7673984300000001 6.5779374099999997 5.0587970499999999 O
atom 7.7352147999999996 6.6091250199999996 10.1008758499999995 O
atom 2.3745625800000001 4.0241217499999999 5.1034724100000002 O
atom 2.2656743000000001 4.0045280400000003 10.0946982700000003 O
atom 2.3762256700000002 9.2208460700000003 5.0187509600000002 O
atom 2.3667370000000001 9.1446949499999999 10.0108600299999999 O
atom 7.3730109500000003 4.0296575900000002 5.0707401000000001 O
atom 7.3314468200000000 4.0136033299999996 10.0604914399999998 O
atom 7.2101275800000000 9.0649379799999998 5.1629661999999996 O
atom 7.3295088100000001 9.1873976800000001 10.0828078399999992 O
atom 2.2829057399999999 3.8152147799999998 2.5564624500000002 O
atom 2.3456306699999998 3.8626015200000001 7.5704230399999997 O
atom 2.3217782200000001 8.9928737400000003 2.4886612499999998 O
atom 2.3432346800000001 9.0135396199999995 7.5310504299999996 O
atom 7.2364079800000001 3.8997907900000000 2.5838408300000002 O
atom 7.3254104299999998 3.8373737100000000 7.5693564799999997 O
atom 7.2605529200000003 8.9553364900000005 2.4550523300000000 O
atom 7.3564924899999999 9.0668542900000002 7.6224232499999998 O
