lattice_vector 5.1205955000000003 0.0056685500000000 0.3997327900000000 
lattice_vector 0.0096528100000000 10.4472340199999998 -0.0036232900000000 
lattice_vector 0.8594632300000000 -0.0291934300000000 10.4927493399999996 
atom 1.4868214399999999 0.1338656700000000 1.6072869000000001 La
atom 1.9824862299999999 0.0915446600000000 6.9335668999999998 Hf
atom 1.5356028900000001 5.4163608400000003 1.6186441499999999 Hf
atom 2.0167639700000000 5.4287496700000002 6.8964760199999997 Hf
atom 1.8265186800000000 2.4174735799999998 4.2105748600000004 Hf
atom 2.1526326299999998 2.4026391500000002 9.4921639399999993 Hf
atom 1.7655732000000000 7.5318263700000001 4.2910267400000004 Hf
atom 2.2332430900000002 7.5852923199999998 9.5047790400000007 Hf
atom 3.7448795800000001 2.8524245900000000 1.3375168099999999 Hf
atom 4.3035182900000004 2.7087157700000000 6.6847619199999997 La
atom 3.7977629799999999 7.9588276699999998 1.3811142000000001 Hf
atom 4.2387426799999997 8.0082208000000001 6.6302797499999997 Hf
atom 4.0016722400000004 4.9987006100000002 3.9595493400000001 Hf
atom 4.4497408700000003 5.0266521900000001 9.2436622699999997 Hf
atom 3.9654331300000001 10.1433746100000004 4.0550012400000002 Hf
atom 4.4428485300000000 10.1901182099999996 9.2688433600000000 Hf
atom 0.4078120600000000 1.9731559900000000 0.8002516800000000 O
atom 1.2578161699999999 1.8626903800000001 6.1965812099999997 O
atom 0.4895658300000000 7.0408806300000002 0.9036888800000000 O
atom 0.9069358900000000 7.0041385800000002 6.1488137900000002 O
atom 0.5308615600000000 0.8784036800000000 3.7071351699999999 O
atom 0.9958771700000000 0.8529431500000000 8.7273013000000006 O
atom 0.6377666100000000 6.0611255899999996 3.4698894299999998 O
atom 1.0998767199999999 6.0763579099999996 8.7898334299999998 O
atom 4.8584717800000004 4.4487093199999999 2.0730417000000001 O
atom 5.3508221300000001 4.5869974999999998 7.4150892400000004 O
atom 4.5914916300000002 9.6498676299999993 2.1527051199999998 O
atom 5.3013994499999999 9.6155148100000005 7.3915012800000000 O
atom 5.2057915299999999 3.4895289699999998 4.6054170100000000 O
atom 5.4939364800000003 3.4477060300000000 9.9173772600000003 O
atom 5.1458564899999999 8.6557489299999997 4.7915380699999996 O
atom 5.6788181900000003 8.7153181199999992 10.0703942400000006 O
atom 3.0821185299999998 1.4453585099999999 2.8220102599999999 O
atom 3.3227841800000002 1.1645978900000000 8.1125199699999992 O
atom 3.0233768500000000 6.5019177900000003 2.7289964100000002 O
atom 3.4749409299999998 6.5717028600000003 7.9908357499999996 O
atom 3.1564675699999998 1.1021999499999999 5.3306253699999999 O
atom 3.7281138600000001 1.3103943600000001 10.5508708400000000 O
atom 3.2865237399999998 6.4841439300000001 5.3645878700000003 O
atom 3.6831600299999998 6.4314049100000004 10.6207288299999991 O
atom 2.2883959900000002 3.9872486700000001 0.2557038700000000 O
atom 2.7088035499999998 4.0342657300000004 5.4046920099999998 O
atom 2.4697672700000002 9.0392804600000005 0.1733807700000000 O
atom 2.7542181600000002 9.0992796400000007 5.5678647400000001 O
atom 2.5151160199999998 3.8982790600000001 2.8417155599999999 O
atom 2.8930250000000002 3.9340537300000000 8.2071380900000008 O
atom 2.5427554600000000 8.9237137700000009 3.0070557099999999 O
atom 2.9748407200000000 9.0294204199999992 8.1345594999999999 O
