lattice_vector 10.0861536899999997 -0.0371017400000000 0.0651745100000000 
lattice_vector 0.1305536500000000 10.2162594700000007 0.0826155800000000 
lattice_vector -0.0995629400000000 0.0353711900000000 10.5413014599999997 
atom 1.0558240600000000 0.2756532800000000 2.2803896699999999 Si
atom 1.3296370900000001 0.1885879500000000 7.0558568900000003 Hf
atom 1.4540055100000000 5.3342797600000003 1.8602429199999999 Hf
atom 1.6346165699999999 5.4427038100000003 7.1116196699999996 Hf
atom 1.3839473799999999 2.4442819899999999 4.4496967999999999 Hf
atom 1.4251038700000001 2.2742745700000002 9.7568216099999994 Hf
atom 1.3953518499999999 7.4695573900000003 4.5009126200000003 Hf
atom 1.4744159400000001 7.5261831800000003 9.7736463400000009 Hf
atom 3.6510215900000000 2.7292105200000001 1.7372127300000000 Hf
atom 3.5610748499999998 2.7557960300000000 7.0253260199999996 Hf
atom 3.6891585000000000 7.9189492599999998 1.8389547600000000 Hf
atom 3.7437568799999998 7.9636731200000002 7.1311046800000000 Hf
atom 3.6940527500000000 4.8951535200000000 4.3776588099999998 Hf
atom 3.6502751999999998 4.9219164400000004 9.7346773899999999 Hf
atom 3.6914375900000000 10.0532092700000000 4.4458585900000003 Hf
atom 3.7159936999999998 10.0227678400000002 9.8250027600000003 Hf
atom 6.4673465200000004 0.1721023700000000 0.8985366100000000 Hf
atom 6.3130591200000001 0.2202085100000000 6.1769125599999999 Hf
atom 6.4926980299999997 5.2945112099999996 0.9699437500000000 Hf
atom 6.3507151700000000 5.1016990499999997 6.4060920499999998 La
atom 6.3734045999999998 2.3720513599999999 3.4785534600000001 Hf
atom 6.3777854400000002 2.5188580900000002 8.9344836700000005 La
atom 6.4498953400000003 7.3835291800000000 3.6043796600000002 Hf
atom 6.4712094699999998 7.5260031300000003 8.8999592500000002 Hf
atom 8.8620522899999994 2.6687760800000002 1.0268232300000000 Hf
atom 8.6551554300000006 2.5526572100000000 6.0972401200000004 Hf
atom 8.8509465699999996 7.8934880200000004 0.9962159300000000 Hf
atom 8.6753506100000006 7.8160616500000000 6.2721688300000000 Hf
atom 8.7054223099999994 4.8859231999999997 3.6054820300000001 Hf
atom 8.8097524499999995 5.0518447300000000 9.1303890400000007 Hf
atom 8.6621781200000001 9.9229256400000008 3.6724550499999999 Hf
atom 8.7553948699999999 10.0188664999999997 8.8852131500000002 Hf
atom 0.6225141000000000 1.4448516000000000 1.0798622700000000 O
atom 0.3424509200000000 1.7578199600000000 6.1943243800000003 O
atom 0.3806730800000000 6.6939839100000000 0.8279407800000000 O
atom 0.3476205200000000 6.6643563900000000 6.1582474200000004 O
atom 0.2192216500000000 0.9105669700000000 3.6113707200000000 O
atom 0.2847935100000000 0.8990489400000000 8.7725525100000006 O
atom 0.3305380800000000 6.0685782899999996 3.4890937200000001 O
atom 0.4721894300000000 5.9396151399999999 8.7414320599999993 O
atom 4.9490194499999998 3.9048988900000001 0.5103782300000000 O
atom 4.6541245800000004 3.7334565199999998 5.6480655200000003 O
atom 4.9056451399999998 9.2378339399999998 0.9547527600000000 O
atom 4.7192448300000001 9.3884390599999996 6.1394808999999997 O
atom 4.8420660299999998 3.7011698399999999 3.1336243900000000 O
atom 4.7037161699999999 3.9979839600000000 8.2253807600000002 O
atom 4.7067695900000004 8.5715885699999994 3.5464181300000002 O
atom 4.7699003800000002 8.6359543700000003 8.8171819399999993 O
atom 2.5302392899999999 1.2515709200000000 2.9292244799999998 O
atom 2.7232377799999998 1.2377259100000000 8.2835431100000001 O
atom 2.7445701100000002 6.4735926399999997 3.1354670200000001 O
atom 2.8722037399999998 6.4312678200000004 8.4033855899999992 O
atom 3.0935223100000000 1.4486238899999999 0.2509390300000000 O
atom 2.6926464200000000 1.3320562100000000 5.6263610300000000 O
atom 2.8839696799999999 6.3663267599999998 0.5084316400000000 O
atom 2.8798590599999998 6.4458337900000000 5.7890318599999997 O
atom 2.3324515199999998 3.8205336900000000 3.1519663400000000 O
atom 2.2063579999999998 3.7932760600000002 8.4147860199999993 O
atom 2.1612826699999999 9.1232070800000002 3.0422286199999999 O
atom 2.2994503599999998 8.9298524500000003 8.3944633300000007 O
atom 2.3573159900000000 3.8891665299999998 0.5236809600000000 O
atom 2.1825675400000000 3.9450981100000000 5.7877440499999997 O
atom 2.4751983399999999 8.8876994400000005 0.4331854600000000 O
atom 2.2952279899999999 8.9885078499999995 5.7323603800000003 O
atom 5.3491490500000003 1.5768847900000000 1.8441242099999999 O
atom 5.2201945399999996 1.6074081200000001 7.0902570300000001 O
atom 5.3591161200000004 6.6830656499999996 1.9185159500000000 O
atom 5.4410072700000001 6.9556310300000002 7.1940467799999999 O
atom 5.2623416399999998 0.9574096100000000 4.4264706299999999 O
atom 5.3747808399999997 0.7648247800000000 9.7751979099999993 O
atom 5.3017164399999999 6.0614764200000000 4.5155336400000001 O
atom 5.3817890200000003 6.0620742500000002 9.8253862000000005 O
atom 9.9158301800000004 4.0644208800000001 2.0505048000000001 O
atom 8.2340537400000002 3.8768333300000002 7.5748826400000002 O
atom 9.9586382600000007 9.3767168099999996 2.0363332600000001 O
atom 9.8310867799999997 9.2659225700000007 7.2036236200000001 O
atom 9.8483599500000008 3.5867361500000001 4.7304202699999998 O
atom 9.8819065899999998 3.4268645100000001 9.9460063099999996 O
atom 9.7881930799999992 8.5306599599999995 4.6149506599999999 O
atom 9.8212169700000000 8.5407762199999997 9.8570782500000007 O
atom 7.9400087800000003 1.2005831800000000 10.2910511499999995 O
atom 7.7423148399999997 1.1617369099999999 4.8868109200000003 O
atom 7.8012167200000002 6.4486209800000003 10.3210599199999997 O
atom 7.8893151499999998 6.3639249199999997 4.9112280100000003 O
atom 7.8124135199999998 1.2674484800000001 2.3128669300000002 O
atom 7.7854749600000002 1.2163587400000000 7.4471309000000003 O
atom 7.8581595899999996 6.3689994399999996 2.3121442800000001 O
atom 7.9791221400000003 6.4852588300000003 7.7819156999999999 O
atom 7.5511281700000001 3.9610768799999998 10.3652978400000002 O
atom 7.3855723800000002 3.6643148600000002 4.8198731600000002 O
atom 7.3952542899999996 8.9414563800000000 10.2232783299999994 O
atom 7.2916984999999999 8.8723763200000008 4.9453599700000002 O
atom 7.4242300099999996 3.8029557000000000 2.2650714999999999 O
atom 7.4470128100000004 8.9009257799999997 2.3168578000000002 O
atom 7.3432232800000001 8.9730511899999996 7.5632766199999999 O
