lattice_vector 10.0821417300000000 0.0282481500000000 0.1132741300000000 
lattice_vector 0.0346603200000000 10.1821997700000004 -0.0068776900000000 
lattice_vector -0.0490156100000000 0.0036867200000000 10.5109258699999994 
atom 1.2222237400000000 0.1303834300000000 1.9753549100000001 Si
atom 1.2776218900000000 0.2159251300000000 6.9956647099999998 Hf
atom 1.4127491999999999 5.2899673099999998 1.8474416800000000 Hf
atom 1.3708023800000000 5.2879424100000003 7.0674335099999999 Hf
atom 1.3545548300000001 2.3500665700000001 4.3409211000000001 Hf
atom 1.4268515399999999 2.2989562000000001 9.6852837800000007 Hf
atom 1.3785995799999999 7.4110748900000001 4.4840246500000003 Hf
atom 1.2916763499999999 7.3725804100000003 9.6827176399999999 Hf
atom 3.6712846200000002 2.7670754600000000 1.7649871500000001 Hf
atom 3.5552995799999998 2.7750673500000000 7.0189930499999997 Hf
atom 3.5791969600000000 7.8970477399999996 1.8451405599999999 Hf
atom 3.6416879500000001 7.8951167199999999 7.0711337900000002 Hf
atom 3.6462630300000001 4.8907359699999997 4.4593299899999996 Hf
atom 3.5954177999999999 4.9536135699999999 9.7104622200000001 Hf
atom 3.6406787999999999 9.9968024799999995 4.3879414499999996 Hf
atom 3.3545261100000001 9.9057763899999998 9.6764494800000005 Hf
atom 6.2650820200000004 -0.0164967500000000 1.1968373500000000 La
atom 6.3585765900000002 0.2273809900000000 6.1571798199999996 Hf
atom 6.4634328500000002 5.3626181600000002 0.9208993100000000 Hf
atom 6.3959385900000001 5.3254713000000002 6.2045570899999998 Hf
atom 6.4558151199999996 2.4300510100000001 3.5596178599999999 Hf
atom 6.2314791100000004 2.3705807399999999 9.0247823900000004 La
atom 6.4402238699999996 7.4217370699999998 3.5568271299999998 Hf
atom 6.4011843300000004 7.4887746000000002 8.7991170499999996 Hf
atom 8.7769749000000008 2.6943879000000002 1.0079470699999999 Hf
atom 8.6269942400000001 2.7676247599999999 6.2415784900000002 Hf
atom 8.7830467500000005 7.8785740999999998 0.9431749900000000 Hf
atom 8.6426365599999997 7.8695311300000004 6.2187805500000000 Hf
atom 8.6859512999999993 4.8942441499999996 3.5770119600000001 Hf
atom 8.6741299800000000 4.8629879200000001 8.8670294399999996 Hf
atom 8.7516160200000002 10.0051559700000006 3.6437461700000000 Hf
atom 8.6629779300000003 10.0248774899999997 8.8364700999999997 Hf
atom 0.7046749200000000 1.4692362800000001 0.9602259500000000 O
atom 0.2676250000000000 1.6265046000000001 6.0343945899999998 O
atom 0.3129645400000000 6.6835062599999997 0.8562852700000000 O
atom 0.2764086600000000 6.7094366200000000 6.1304242300000000 O
atom 0.4425653100000000 0.7837637000000000 3.4338156500000001 O
atom 0.2863975000000000 0.8938925800000000 8.7283082699999994 O
atom 0.3127024700000000 5.9903795899999999 3.4921101100000000 O
atom 0.2839778300000000 5.9671222799999999 8.7525511999999992 O
atom 4.7984316099999997 4.1788917300000001 0.7304826100000000 O
atom 4.7453873000000000 4.1147919300000000 6.0229853300000000 O
atom 4.5745606800000003 8.9319220799999997 0.4625667700000000 O
atom 4.7527557900000001 9.1403553800000008 5.8826960799999997 O
atom 4.7331093400000004 3.5565305899999999 3.4295058300000001 O
atom 4.5721678600000004 3.7269874600000001 8.5148790999999999 O
atom 4.8696520000000003 8.8249266500000001 3.1778101400000001 O
atom 4.7368666599999996 8.8594035400000006 8.5414303599999997 O
atom 2.6972540000000000 1.1156200100000000 2.7401825199999998 O
atom 2.6663073200000000 1.2128985900000000 8.2045078300000007 O
atom 2.7776362400000001 6.3645911999999996 3.1308858300000000 O
atom 2.7308336199999999 6.3686996699999998 8.3661629499999997 O
atom 3.4334810000000000 1.5502058400000001 0.0380051700000000 O
atom 2.7271867200000002 1.3196339800000001 5.5492296300000001 O
atom 2.7448134799999999 6.4934465299999999 0.4947213100000000 O
atom 2.7525467600000000 6.3847356399999997 5.7645036799999998 O
atom 2.2808393800000002 3.7856323700000001 3.1180221399999999 O
atom 2.1583636799999999 3.7759721900000001 8.3626377499999993 O
atom 2.2120617600000001 8.9043215999999994 3.1406785400000001 O
atom 2.1541485200000001 8.8331668699999994 8.4058026399999992 O
atom 2.2903274599999999 3.8943838600000000 0.4941780800000000 O
atom 2.2216832399999999 3.8525862000000002 5.7125009899999997 O
atom 2.1244801000000000 9.3186573100000007 0.6979794900000000 O
atom 2.2687258099999998 8.9454771999999991 5.7604880999999999 O
atom 5.4828961300000003 1.9206834600000000 1.7871290000000000 O
atom 5.1342540699999999 1.4877909100000000 7.1412289099999997 O
atom 5.3262978299999997 6.7248263799999997 1.9412157900000000 O
atom 5.2897011100000002 6.7190148399999998 7.1776666499999999 O
atom 5.3101993900000002 0.9755526300000000 4.4234406399999999 O
atom 5.2975780400000003 6.1105607800000001 4.5660251599999997 O
atom 5.2942561100000001 6.1322588900000001 9.7968768799999992 O
atom 9.8428329399999992 4.1499889799999998 1.9645775800000000 O
atom 9.7520109000000001 4.1817371999999997 7.1946386499999999 O
atom 9.9248437799999998 9.3603933900000005 1.9491880200000000 O
atom 9.7478121099999999 9.2714874900000002 7.1898395600000002 O
atom 9.7275836099999999 3.4331975199999998 4.5378370500000003 O
atom 9.8136429799999991 3.4001519700000000 9.8535424900000006 O
atom 9.7912271900000007 8.5696143599999992 4.6084733699999996 O
atom 9.7755175800000007 8.5894516299999992 9.8254458299999996 O
atom 7.9096149899999997 1.1998246200000000 10.2698219999999996 O
atom 7.7646771699999997 1.2759685800000000 4.9471660499999999 O
atom 7.7964202800000004 6.3945498199999999 10.1592922399999992 O
atom 7.7905372499999999 6.3601826900000002 4.9137663199999997 O
atom 7.9579674799999998 1.3731211299999999 2.4387479500000002 O
atom 7.7787353000000001 1.2710812199999999 7.4968418300000002 O
atom 7.8105695900000001 6.3701248599999998 2.2790722400000001 O
atom 7.7772294700000000 6.4137118800000001 7.5640889199999997 O
atom 7.4643928300000004 3.8958820300000001 10.2954774300000000 O
atom 7.2994872700000002 3.8438865199999999 4.9163172499999996 O
atom 7.3328601200000003 8.8534888899999995 10.0912237299999994 O
atom 7.3047728000000003 8.9121046899999996 4.8975124900000004 O
atom 7.3599280900000004 3.8688409400000001 2.2825973799999999 O
atom 7.2954124699999996 3.8984134500000001 7.5497570899999999 O
atom 7.6027285200000003 8.8056611900000004 2.4096289299999998 O
atom 7.2701856200000003 8.9562659799999995 7.4880141199999999 O
