lattice_vector 9.9647097400000000 -0.0103479400000000 0.1130315000000000 
lattice_vector 0.0058521900000000 10.3954606199999997 -0.0176768200000000 
lattice_vector 0.0332859100000000 -0.0391597700000000 10.0212132500000006 
atom 1.2143119099999999 0.3645985700000000 1.0788602300000001 Si
atom 1.3392700300000000 0.1522131200000000 6.3046493500000000 Hf
atom 1.3535607900000000 5.3364003699999998 1.2242027099999999 Hf
atom 1.3391002900000000 5.3254742999999998 6.2232183000000001 Hf
atom 6.3222516000000004 0.1674369800000000 1.3292955399999999 Hf
atom 6.2856212700000000 0.1428443800000000 6.3181419099999996 Hf
atom 6.3845578400000003 5.3836884800000000 1.4027489500000001 Hf
atom 6.4341647599999998 5.3896559399999999 6.2676116700000000 Hf
atom 1.3215181600000001 2.3380405600000000 3.6651217599999999 Hf
atom 1.3713594700000000 2.4544166399999998 8.7660642400000004 Hf
atom 1.3618858000000000 7.5589063400000001 3.7764853399999998 Hf
atom 1.2890117299999999 7.6225461699999997 8.7548066400000000 Hf
atom 6.3405703400000002 2.3823816099999999 3.8326607699999999 Hf
atom 6.3529014500000001 2.3944140799999998 8.8288287499999996 Hf
atom 6.3550671400000001 7.6472590900000004 3.8232878100000001 Hf
atom 6.3824579899999998 7.6301991700000000 8.8927149399999994 Hf
atom 3.6758044100000000 2.7271097499999999 1.2489960300000000 Hf
atom 3.6118900500000000 2.6368465099999998 6.1888269700000000 Hf
atom 3.6777044200000000 7.9200444299999999 1.3143206999999999 Hf
atom 3.6461032900000001 7.9734878599999996 6.3347252500000000 Hf
atom 8.6418913199999992 2.7537278800000000 1.2922446299999999 Hf
atom 8.6463424199999999 2.7256786399999999 6.3376206000000002 Hf
atom 8.7603053600000003 7.9977590599999999 1.3339401799999999 Hf
atom 8.6504962699999997 7.9844669200000000 6.3372676700000001 Hf
atom 3.6903446600000001 4.9877845000000001 3.7936196600000001 Hf
atom 3.8024391999999998 5.1430724100000003 8.7247510300000002 La
atom 3.6286387300000000 10.1438563500000001 3.7359345799999999 Hf
atom 3.6150321299999999 10.2150529100000007 8.9004558199999995 Hf
atom 8.6738447000000001 4.9727733599999997 3.8195697800000001 Hf
atom 8.6469572899999996 5.0257667100000001 8.8473538200000004 Hf
atom 8.7134973299999992 10.2285496100000000 3.7973147500000000 Hf
atom 8.6555096599999999 10.2279965700000002 8.8418533600000000 Hf
atom 0.4005580600000000 1.8518892600000001 1.7807107799999999 O
atom 0.3378425700000000 1.8755177400000000 6.9888271000000000 O
atom 0.3702725600000000 7.0714779400000003 1.9767493000000000 O
atom 0.2828808700000000 7.0670066100000000 6.9538843100000003 O
atom 5.2664114000000000 1.8296134799999999 2.1088362799999998 O
atom 5.3182049400000002 1.9533803900000000 7.0274775600000003 O
atom 5.3492492800000004 7.0949358699999996 2.1129443299999999 O
atom 5.2060517500000003 6.8543292200000003 7.1702437899999998 O
atom 0.3499444700000000 0.6711050000000000 4.5167185600000002 O
atom 0.3789342100000000 0.6604288400000000 9.5642655300000001 O
atom 0.3647339300000000 5.8221185899999996 4.4512245799999999 O
atom 0.3829380900000000 5.8369230500000002 9.4347827300000002 O
atom 5.3037387100000002 0.6839206100000000 4.5594714800000000 O
atom 5.3321612399999996 0.6592832700000000 9.5767837700000005 O
atom 5.3885556599999997 5.8800298099999999 4.5271283100000002 O
atom 5.5438640200000000 6.0024126799999999 9.7412332900000003 O
atom 4.6933439799999999 4.4595099100000004 2.0042921300000001 O
atom 4.7336043300000004 9.6367590100000005 2.0400424300000002 O
atom 4.6547504100000001 9.6531489799999992 7.0734612600000002 O
atom 9.6568114999999999 4.4352924299999996 2.0512323800000001 O
atom 9.5957691000000001 4.4681367099999996 7.0211127900000001 O
atom 9.9239451299999999 9.7824956400000005 1.9560550900000000 O
atom 9.6394063400000007 9.6797068799999995 7.0757984399999998 O
atom 4.6939624300000000 3.2917687199999999 4.5504880700000001 O
atom 4.7243756899999996 3.1815122200000001 9.5919028300000004 O
atom 4.7105403800000003 8.4913401099999994 4.6175042800000003 O
atom 4.5935173999999996 8.4718197300000000 9.5098687900000005 O
atom 9.6209264799999996 3.1994415300000001 4.5060986300000003 O
atom 9.5935673500000007 3.2481397699999999 9.4885391600000002 O
atom 9.6339467499999998 8.4681235499999996 4.5243959699999996 O
atom 9.6010673900000008 8.4929611200000004 9.5220578200000006 O
atom 2.4273336300000001 0.8737024100000000 2.4025350099999998 O
atom 2.7061779399999999 1.1760555800000001 7.5272150000000000 O
atom 2.6997455200000000 6.2474014599999999 2.4811677300000001 O
atom 2.5517314400000002 6.5086115500000004 7.4137638199999998 O
atom 7.7040914599999999 1.1962799799999999 2.5465871500000001 O
atom 7.6663689200000000 1.1890196300000000 7.5601427000000001 O
atom 7.7336087200000003 6.4043141900000000 2.6171583300000001 O
atom 7.6632273000000000 6.4332458399999997 7.5985879399999998 O
atom 2.6915413199999998 1.3357542499999999 4.9289368600000003 O
atom 2.6158057600000002 1.3715905399999999 10.0620923300000005 O
atom 2.7413805099999999 6.5399987700000004 4.9888153900000001 O
atom 2.5798879000000001 6.7153677299999996 10.0710746899999997 O
atom 7.6865435499999997 1.3526378900000000 5.0594464800000001 O
atom 7.6886104099999999 1.3500095100000000 10.0718850900000003 O
atom 7.6931691600000001 6.5710580099999998 5.1029753400000004 O
atom 7.8355370100000004 6.5886698900000003 10.1257905800000003 O
atom 2.2823841200000001 3.9156500699999999 4.9520764399999999 O
atom 2.2461103200000001 3.8878365499999998 10.0428598400000002 O
atom 2.2996241300000002 9.1404630299999994 5.1024956100000001 O
atom 2.2215946700000000 9.3876688399999999 10.3017484300000000 O
atom 7.3200231499999999 3.9504114200000000 5.0600989500000004 O
atom 7.3240306500000001 3.9630010900000001 10.0936137200000005 O
atom 7.3208839399999999 9.2017688500000006 5.0439039399999999 O
atom 7.2994846300000003 9.1644206799999992 10.0681987999999993 O
atom 2.3722744400000000 3.6869373200000002 2.5046134300000000 O
atom 2.3360473499999999 3.7428518600000000 7.4025532299999997 O
atom 2.5460241600000000 8.7277630899999998 2.7095413499999998 O
atom 2.2910233199999999 9.0406538699999999 7.6330623400000004 O
atom 7.3113415599999998 3.7640031399999998 2.5713989499999999 O
atom 7.2132438399999996 3.8384461399999998 7.5589779200000002 O
atom 7.4204218600000003 9.0101295799999992 2.5392579600000000 O
atom 7.2735794900000004 9.0020616899999997 7.5523801900000000 O
