lattice_vector 10.2225556700000002 0.0302220500000000 0.8603628900000000 
lattice_vector 0.0081730300000000 10.4371236900000000 0.0110016700000000 
lattice_vector 0.3350515400000000 -0.0094465100000000 5.2091250899999997 
atom 1.4160747700000000 0.0576437800000000 1.5530192899999999 La
atom 1.5236398000000000 5.4722674500000004 1.6138394500000000 Hf
atom 6.5865618899999996 0.1920574000000000 2.1047490500000001 Hf
atom 6.6415761199999999 5.3821031200000000 2.0853877700000001 Hf
atom 1.7404896400000001 2.4349433999999999 4.1325056000000000 Hf
atom 1.7075594300000001 7.5886963200000004 4.2370587000000004 Hf
atom 6.7460156900000001 2.4182541000000000 4.7405547900000000 Hf
atom 6.8051710800000000 7.5656517200000000 4.6970703699999996 Hf
atom 3.7026491300000002 2.8200161000000001 1.3629170700000000 Hf
atom 3.8186182600000000 7.9767652399999998 1.3839651500000001 Hf
atom 9.0051939700000005 2.7456402099999999 1.9254143900000000 La
atom 8.8498606800000008 8.0170149800000008 1.8560416099999999 Hf
atom 3.9410337000000002 5.0086066799999998 3.9624162200000002 Hf
atom 3.9658546399999999 10.1719393599999997 3.9715540499999999 Hf
atom 9.0682730100000004 5.0613031199999998 4.4422853599999996 Hf
atom 8.9418656300000006 10.2024736199999992 4.5437950100000002 Hf
atom 0.9136563200000000 2.2104969699999999 0.9295404900000001 O
atom 0.5351612300000000 7.2154621199999998 0.9925877000000000 O
atom 5.4766435800000002 1.7697885099999999 1.3284597100000000 O
atom 5.5530144500000000 6.9297011700000004 1.2992258000000001 O
atom 0.4875994000000000 0.8310675100000000 3.7208821699999999 O
atom 0.6550476500000000 6.0141479499999999 3.5656053800000000 O
atom 5.6260191400000004 0.8653735299999999 3.9201224699999999 O
atom 5.6886663999999998 6.0595901200000002 3.8964163500000000 O
atom 4.8738916200000002 4.3427273700000004 2.1592372000000002 O
atom 4.8625296599999999 9.5691062799999997 2.1603947099999998 O
atom 9.9002793400000009 4.7707506700000000 2.5118381599999999 O
atom 9.5376779900000006 9.8090839100000000 2.5562870300000000 O
atom 5.0083448700000002 3.4582178699999999 4.7677999099999999 O
atom 5.1203917299999997 8.6718650499999992 4.7892972399999998 O
atom 10.1592938600000000 3.4407759200000001 4.9292779099999997 O
atom 10.1400366799999997 8.6571541500000002 5.1903150599999996 O
atom 3.0215998700000002 1.3785879000000001 2.7629040100000002 O
atom 3.0049315900000000 6.5208478899999998 2.7211555299999999 O
atom 7.8969164699999999 1.2692547400000000 3.3495338600000002 O
atom 8.0723418500000008 6.5975306299999996 3.2089994800000001 O
atom 3.2647426199999998 1.3028564800000000 5.2222378300000001 O
atom 3.1565128300000000 6.4708549800000004 5.3335808000000000 O
atom 8.0926583900000004 1.1505894800000001 5.8279505599999997 O
atom 8.2963252300000008 6.4839251700000000 5.8185199699999997 O
atom 2.3425308999999999 4.0559162899999999 0.1973008000000000 O
atom 2.4855437600000001 9.0575390700000007 0.1690915900000000 O
atom 7.3702607300000000 4.0118723000000003 0.6843990400000000 O
atom 7.3960986599999998 9.1139091000000008 0.7771680700000000 O
atom 2.4758718200000001 3.9076536100000001 2.8138654900000000 O
atom 2.5825652099999998 8.9414350000000002 2.9029076200000001 O
atom 7.5253452899999997 3.9442351100000002 3.4140217200000000 O
atom 7.4693892100000001 9.0570105299999994 3.3994247299999998 O
