lattice_vector 10.1004287599999998 -0.0007650800000000 0.7728144300000001 
lattice_vector -0.0286929200000000 5.1658626200000004 -0.0443629100000000 
lattice_vector 0.7982026800000001 0.0378486700000000 10.3924700600000008 
atom 1.2684697300000001 0.0615691100000000 1.4816614900000000 La
atom 1.9271816200000000 0.2589334700000000 6.7980786100000001 Hf
atom 6.5450916399999999 0.1892005800000000 2.0108410100000000 Hf
atom 6.9465135599999996 0.2582139000000000 7.2270162400000002 Hf
atom 1.6762484200000001 2.3270165399999998 4.1604171799999996 Hf
atom 2.1392954500000001 2.4662732300000001 9.3654206999999996 Hf
atom 6.7055918099999996 2.3660261000000000 4.5986759599999996 Hf
atom 7.1720829300000002 2.4238390000000001 9.7727874600000000 Hf
atom 3.7256347700000001 2.7178125700000000 1.3246858300000000 Hf
atom 4.0914071999999999 2.8301914199999998 6.4980167900000003 Hf
atom 8.6904483599999995 2.7526326299999999 1.7254427900000000 Hf
atom 9.1851851500000006 2.8385264399999999 6.9298836000000001 Hf
atom 3.8581768400000001 4.9421793599999999 3.8723814200000000 Hf
atom 4.3418336399999999 4.9791343100000001 9.0902084399999996 Hf
atom 8.8462470900000003 4.9829814299999997 4.4351678300000001 Hf
atom 9.3659806000000003 5.0083608200000000 9.5041591099999998 Hf
atom 0.4936459500000000 2.2163508200000002 1.0130423300000000 O
atom 0.8381636300000000 1.8341386799999999 6.0949746500000002 O
atom 5.5171439700000002 1.7379719000000000 1.2347664800000000 O
atom 5.8435206900000001 1.7800188299999999 6.4333343699999999 O
atom 0.5166612800000000 0.7847794000000000 3.5857709400000002 O
atom 1.0567007100000001 0.8609604199999999 8.7443031399999995 O
atom 5.6918709099999996 0.7876875900000000 3.8515204500000002 O
atom 6.1115544999999996 0.8578470000000000 9.0415138800000001 O
atom 4.8120118099999996 4.2965965199999996 2.0744425400000002 O
atom 5.1863507599999998 4.3713080800000004 7.2539863200000001 O
atom 10.2356445300000001 4.4150180399999996 7.6586415299999997 O
atom 4.9884369900000003 3.4050701600000002 4.6662983499999999 O
atom 5.4976416199999996 3.4675441899999999 9.8642853699999993 O
atom 9.9978605500000004 3.3994526999999999 5.0150426000000001 O
atom 10.4739284700000006 3.5295883600000000 10.3288369099999997 O
atom 2.9860213299999998 1.2880358900000000 2.7114728800000001 O
atom 3.3733449200000001 1.3850162500000001 7.8584815199999998 O
atom 8.0365758300000003 1.2972866199999999 3.1089742199999999 O
atom 8.4499058500000004 1.3931055600000000 8.2968314700000008 O
atom 3.1480983999999999 1.2600129499999999 5.2804688600000000 O
atom 3.5980138600000000 1.3040827100000001 10.3958215299999992 O
atom 8.1760911899999993 1.2862888100000001 5.7394170600000001 O
atom 8.6681984399999994 1.3045499199999999 10.9061196400000000 O
atom 2.4326909300000001 3.8253401100000000 0.0919619300000000 O
atom 2.6237973100000000 3.9497359799999998 5.4003985300000004 O
atom 7.3031521300000000 3.9351182300000001 0.6199176500000000 O
atom 7.6531636100000000 3.9349505800000002 5.8591495599999996 O
atom 2.4967186200000002 3.7192077499999998 2.8273474099999998 O
atom 2.8278750300000000 3.8829688700000000 7.9810479100000000 O
atom 7.5599647100000000 3.8012339200000000 3.2297691099999999 O
atom 7.9212449100000004 3.8746613100000000 8.4178868300000005 O
