lattice_vector 10.1480567900000000 0.0169960700000000 0.8154236900000000 
lattice_vector 0.0085288300000000 10.3797460400000006 -0.0596306700000000 
lattice_vector 0.7802292600000000 -0.0573474100000000 10.3880193700000003 
atom 1.3237360700000000 0.0355950000000000 1.4892424600000000 La
atom 1.9096280100000000 0.1876231000000000 6.8289203900000004 Hf
atom 1.5331309700000000 5.4198046000000000 1.5587998800000000 Hf
atom 1.9008288200000001 5.3677804099999999 6.7635562900000004 Hf
atom 6.6117151099999996 0.2175919300000000 2.0584330700000000 Hf
atom 6.9665081999999998 0.1981386100000000 7.2482354200000003 Hf
atom 6.6545186500000000 5.4235683699999999 1.9981777900000000 Hf
atom 6.9650610500000001 5.3819674600000003 7.2105507900000001 Hf
atom 1.6061957099999999 2.4134436500000001 4.0979658900000002 La
atom 2.1027942400000001 2.3751579399999998 9.3886966199999993 Hf
atom 1.7124618400000000 7.5254254700000001 4.1847024800000003 Hf
atom 2.1229292700000002 7.5213068200000004 9.3660299100000000 Hf
atom 6.7866008400000002 2.3995004299999998 4.6378108800000000 Hf
atom 7.2649653499999998 2.3226463599999998 9.8121273900000006 Hf
atom 6.8236337599999999 7.5144037800000003 4.6332335499999999 Hf
atom 7.2099358799999997 7.5412679999999996 9.7653822399999992 Hf
atom 3.8921868100000001 2.9718442600000001 1.1210012000000000 Hf
atom 4.1261224099999998 2.7703433999999998 6.5146630900000000 Hf
atom 3.8198861800000001 7.9794596100000001 1.3208027700000000 Hf
atom 4.1187786700000002 7.9454510899999997 6.5647318500000003 Hf
atom 8.8262688100000002 2.8530504300000001 1.7847783800000001 Hf
atom 9.1675308700000002 2.7783968300000002 7.0150683400000000 Hf
atom 8.7624942499999996 7.9656475300000000 1.7415401500000001 Hf
atom 9.2329454700000007 7.9737368599999998 6.9508728900000003 Hf
atom 3.9886674000000002 4.9774137600000001 3.9008564300000002 Hf
atom 4.3208777100000004 4.9761949899999998 9.0598081199999996 Hf
atom 4.0624359600000002 9.9909155900000002 4.0266641600000002 Hf
atom 4.3797875399999997 10.1310690000000001 9.1016599100000004 Hf
atom 9.0041726099999995 4.9954504300000000 4.3686284799999999 Hf
atom 9.4350903800000001 4.9408843600000001 9.5308815700000000 Hf
atom 8.9183938000000005 10.1192113599999995 4.3786305800000003 Hf
atom 9.4479716099999997 10.1083600100000002 9.5515219600000005 Hf
atom 0.5064879100000000 2.0701636899999998 0.9297857800000000 O
atom 0.7815479100000000 1.7648392799999999 6.2646010700000003 O
atom 0.4968887600000000 7.0941382400000004 0.9261973700000000 O
atom 0.8521585400000000 6.9542544800000003 6.0558404799999996 O
atom 5.5125823199999999 1.7840247899999999 1.2569147300000001 O
atom 5.8789724999999997 1.7425377000000000 6.4672012700000003 O
atom 5.5802848999999997 7.0035252400000001 1.2559172400000000 O
atom 5.8932670900000002 6.9206069699999997 6.4622263200000001 O
atom 0.5522976400000000 0.5070242700000001 3.6140104399999999 O
atom 1.0943459799999999 0.6835556200000000 8.8111818100000008 O
atom 0.7224853500000000 5.8509251700000000 3.4998251400000000 O
atom 1.0546203500000000 5.9213961800000003 8.6700478200000006 O
atom 5.6835389300000001 0.8150934000000000 3.8804055900000001 O
atom 6.1051206100000002 0.8269886500000000 9.0639328500000005 O
atom 5.7330162700000002 6.0024923399999999 3.8497400599999998 O
atom 6.0824265999999998 6.0058638599999998 9.0353636799999997 O
atom 4.9444280100000002 4.4209500100000003 2.0569494399999999 O
atom 5.2059256600000001 4.3361084800000000 7.2728501200000002 O
atom 4.7926732999999997 9.6379254900000007 2.0791705199999999 O
atom 5.2286320100000001 9.5223422699999993 7.2768421900000000 O
atom 9.8755714200000000 4.4858348000000001 2.4788132400000000 O
atom 10.2729784500000001 4.3925320200000000 7.6533126500000002 O
atom 9.4488958299999997 9.6936915599999995 2.4041739799999999 O
atom 10.3151190300000000 9.5331192100000006 7.6997974200000003 O
atom 5.0054492200000000 3.3720237599999998 4.6488450400000003 O
atom 5.5301096799999998 3.4799931399999999 9.8308601000000007 O
atom 5.0590153700000000 8.5310432100000000 4.7583971099999998 O
atom 5.5314080299999997 8.6205178599999996 9.8803529799999996 O
atom 9.8002280800000001 3.3455247099999998 5.1333464900000001 O
atom 10.4517857000000003 3.3383506600000001 10.2341765999999996 O
atom 10.0226906499999995 8.4621911399999998 5.0262791099999999 O
atom 10.5103283300000001 8.5425663499999995 10.3059434499999991 O
atom 3.3723531900000001 1.3106384400000000 7.9060717000000000 O
atom 3.0010454100000001 6.5038638300000002 2.6587689100000000 O
atom 3.3679474699999998 6.4861601400000000 7.8720728400000004 O
atom 8.0167284999999993 1.3928835600000000 3.1689060900000001 O
atom 8.4608734000000005 1.2898664399999999 8.3650754400000000 O
atom 8.0889676999999995 6.5444166299999997 3.1287840899999999 O
atom 8.4662171300000004 6.5021521299999998 8.2929033499999996 O
atom 3.2410079500000002 1.1321426800000001 5.2935542199999999 O
atom 3.6828310700000002 1.2970384800000001 10.5035830200000007 O
atom 3.2019689400000000 6.4449105199999996 5.2651146600000001 O
atom 3.5893631799999999 6.3917423500000004 10.4666471899999998 O
atom 8.2027555900000007 1.2162886300000000 5.7774040800000002 O
atom 8.6694940999999996 1.2095306200000000 10.9523041200000009 O
atom 8.2618762900000000 6.4055914700000001 5.7276880099999996 O
atom 8.6749398899999992 6.3909046600000003 10.8794527199999997 O
atom 2.3095448799999998 4.0148523000000003 0.1246295000000000 O
atom 2.7558250000000002 4.0119496899999998 5.4401382700000003 O
atom 2.4586465600000000 8.9987828600000004 0.0914575700000000 O
atom 2.6675542200000000 9.0536297399999999 5.4582560200000003 O
atom 7.3842893900000002 3.9629203300000002 0.6570290400000000 O
atom 7.6133354200000003 3.9315723199999999 5.8934230400000001 O
atom 7.3577136699999999 9.1377071799999996 0.6255589499999999 O
atom 7.7339102500000001 9.0821247700000001 5.8767007500000004 O
atom 2.6649200600000000 3.8439451700000000 2.6186865300000002 O
atom 2.8513046200000001 3.7994338299999999 7.9933599600000003 O
atom 2.6145774099999999 8.9459307700000004 2.8993530299999999 O
atom 2.8754686199999999 8.9875155299999996 8.0120262600000007 O
atom 7.5603434299999996 3.8817411800000001 3.2657082900000001 O
atom 7.9503048600000001 3.8053408100000001 8.4678569299999999 O
atom 7.3606661400000002 8.9820945900000009 3.2757582400000000 O
atom 7.9754413499999997 9.0079262900000003 8.4348488199999991 O
