lattice_vector 10.0850135499999993 -0.0404628600000000 0.8066722500000000 
lattice_vector -0.0158059200000000 10.3616149899999996 0.0060556200000000 
lattice_vector 0.3854225800000000 -0.0181606900000000 5.2007164599999998 
atom 1.2945402500000001 0.0553231800000000 1.5097189300000000 La
atom 1.5007156800000001 5.3989141900000002 1.6142340900000001 Hf
atom 6.5549261999999997 0.2163817000000000 2.0637588899999999 Hf
atom 6.4969411299999997 5.3202813500000001 2.0371765599999998 Hf
atom 1.6811554399999999 2.3672081199999999 4.1940040099999996 Hf
atom 1.7296706100000001 7.5245945000000001 4.2153709900000003 Hf
atom 6.7186502099999998 2.3609504299999999 4.6495660799999996 Hf
atom 6.7312500200000001 7.4942128700000001 4.6157833000000004 Hf
atom 3.6573662800000002 2.7360215700000001 1.3596018200000000 Hf
atom 3.7628201099999998 7.9462078299999996 1.3555922300000001 Hf
atom 8.7585915799999992 2.8227536199999999 1.7831558999999999 Hf
atom 8.6851317500000000 7.8515054400000004 1.7723463500000001 Hf
atom 3.8846074900000001 4.9062127499999999 3.9621957299999999 Hf
atom 3.9120296500000000 10.1203392599999997 3.9405905200000002 Hf
atom 8.9517740499999991 4.9188707699999998 4.3675415400000004 Hf
atom 8.8710566499999999 10.1476436400000001 4.5521571200000004 Hf
atom 0.4522434700000000 2.0349848100000001 0.9103077100000000 O
atom 0.4750067700000000 7.1144665199999997 0.9881955400000000 O
atom 5.4529724799999997 1.7365242000000001 1.2892010800000000 O
atom 5.4925089600000003 6.8881561299999996 1.2495729499999999 O
atom 0.5575036300000000 0.7642482000000000 3.6774003500000001 O
atom 0.6217351000000000 5.9794993099999996 3.5161548400000000 O
atom 5.7184559300000002 0.7677179700000000 3.8891072200000001 O
atom 5.6312354500000001 5.9618540700000002 3.8687330100000001 O
atom 4.7700925800000000 4.2920796699999997 2.1311364500000001 O
atom 4.8369265300000004 9.4914237000000004 2.1351401600000002 O
atom 9.7617240600000006 4.4667193100000002 2.4664446600000001 O
atom 4.9850229700000002 3.3753509500000001 4.7264227800000000 O
atom 5.0887588399999997 8.5925291599999998 4.7260052200000002 O
atom 9.9676425399999999 3.3412824699999999 5.0559864499999998 O
atom 10.0747464799999999 8.6218548899999998 5.2272728199999996 O
atom 2.9729956600000000 1.3326868500000000 2.7358930500000000 O
atom 2.9789714500000000 6.4581862799999996 2.7042715300000002 O
atom 8.0687269700000002 1.3022873699999999 3.1676349500000001 O
atom 7.9618702499999996 6.4570375799999997 3.1318044999999999 O
atom 3.1913395800000002 1.2553957600000001 5.2369525100000001 O
atom 3.1354083300000002 6.3738763799999996 5.3139073500000000 O
atom 8.1639563099999997 1.2434280900000001 5.7975226400000004 O
atom 8.2298961700000000 6.3940132500000004 5.7300686799999996 O
atom 2.2438869000000001 3.9384625899999999 0.2449004300000000 O
atom 2.4137861500000000 8.9844290800000000 0.1503638200000000 O
atom 7.2745645100000003 3.9324001599999998 0.6687065400000000 O
atom 7.2718268000000004 9.0678649500000006 0.7334960600000000 O
atom 2.3960349200000000 3.8331798899999998 2.8363315000000000 O
atom 2.5305532899999998 8.8917965900000002 2.8651914700000001 O
atom 7.4718245500000000 3.7941196700000002 3.2784196699999999 O
atom 7.6413312500000004 8.9630372200000004 3.2940795700000001 O
