lattice_vector 10.0383720000000007 0.0222680000000000 -0.1121250000000000 
lattice_vector 0.0497490000000000 10.2424119999999998 0.0491320000000000 
lattice_vector -0.0440530000000000 0.0173550000000000 10.4631609999999995 
atom 1.1186039999999999 0.1718000000000000 2.2195369999999999 Si
atom 1.3454109999999999 0.2210160000000000 6.9542080000000004 Hf
atom 1.4150320000000001 5.3858110000000003 1.8086690000000001 Hf
atom 1.3843740000000000 5.3610559999999996 7.0495250000000000 Hf
atom 1.3827940000000001 2.4175659999999999 4.3916719999999998 Hf
atom 1.5087910000000000 2.2951830000000002 9.5623989999999992 Hf
atom 1.3681070000000000 7.4954299999999998 4.4310739999999997 Hf
atom 1.4183850000000000 7.5174989999999999 9.6442390000000007 Hf
atom 3.5797490000000001 2.7752569999999999 1.7394540000000001 Hf
atom 3.6307909999999999 2.8055010000000000 6.9726699999999999 Hf
atom 3.6061440000000000 7.9333309999999999 1.7202260000000000 Hf
atom 3.6441270000000001 7.9117329999999999 6.9956370000000003 Hf
atom 3.6110380000000002 4.9525110000000003 4.3893870000000001 Hf
atom 3.6212659999999999 4.9211289999999996 9.6312359999999995 Hf
atom 3.6335620000000000 10.0813570000000006 4.3723510000000001 Hf
atom 3.6330130000000000 10.0141890000000000 9.6092530000000007 Hf
atom 6.3674640000000000 0.2180620000000000 0.7572940000000000 Hf
atom 6.3578450000000002 0.2442850000000000 6.0119889999999998 Hf
atom 6.4724890000000004 5.3140510000000001 0.7823750000000000 Hf
atom 6.4191330000000004 5.3587999999999996 6.0309929999999996 Hf
atom 6.3549210000000000 2.3977050000000002 3.4043999999999999 Hf
atom 6.4270129999999996 2.4019819999999998 8.6349889999999991 Hf
atom 6.3719169999999998 7.4757210000000001 3.3767109999999998 Hf
atom 6.4402410000000003 7.4731329999999998 8.6569149999999997 Hf
atom 8.9086049999999997 2.5952989999999998 0.9248790000000000 La
atom 8.6211280000000006 2.8066110000000002 5.9850940000000001 Hf
atom 8.7120759999999997 7.9333250000000000 0.7794880000000000 Hf
atom 8.6297619999999995 7.9135739999999997 6.0251279999999996 Hf
atom 8.6310640000000003 4.9862770000000003 3.3951609999999999 Hf
atom 8.6891660000000002 4.8864299999999998 8.6474229999999999 Hf
atom 8.5509629999999994 10.0229180000000007 3.4650349999999999 Hf
atom 8.6661839999999994 10.0558619999999994 8.6182710000000000 Hf
atom 0.9384720000000000 1.2808100000000000 0.9638690000000000 O
atom 0.3240160000000000 1.7341920000000000 6.0815500000000000 O
atom 0.4427070000000000 6.9611640000000001 0.9688890000000000 O
atom 0.3493940000000000 6.8728439999999997 6.1687459999999996 O
atom 0.2412990000000000 0.8877790000000000 3.4773160000000001 O
atom 0.3327110000000000 0.8504530000000000 8.7100679999999997 O
atom 0.3639950000000000 5.9769949999999996 3.6036700000000002 O
atom 0.3619670000000000 5.9723970000000000 8.7836470000000002 O
atom 4.7041579999999996 4.2511060000000001 0.8499420000000000 O
atom 4.6764370000000000 4.2968510000000002 6.0697000000000001 O
atom 4.7659110000000000 9.3495249999999999 0.8345650000000000 O
atom 4.6800079999999999 9.4051799999999997 6.0766809999999998 O
atom 4.6120250000000000 3.4240940000000002 3.4861689999999999 O
atom 4.6953040000000001 3.4644770000000000 8.6641469999999998 O
atom 4.6260560000000002 8.5847020000000001 3.4366539999999999 O
atom 4.7251830000000004 8.5770260000000000 8.6714850000000006 O
atom 2.5784039999999999 1.2267020000000000 2.9553349999999998 O
atom 2.7507000000000001 1.2504459999999999 8.1753119999999999 O
atom 2.7641290000000001 6.4944579999999998 3.0907670000000000 O
atom 2.7902909999999999 6.4076250000000003 8.3078280000000007 O
atom 3.1555300000000002 1.4845330000000001 0.1867740000000000 O
atom 2.7542930000000001 1.3358179999999999 5.6071109999999997 O
atom 2.8105980000000002 6.3949400000000001 0.4574750000000000 O
atom 2.7613629999999998 6.4373610000000001 5.7003510000000004 O
atom 2.2179220000000002 3.8735070000000000 3.0803129999999999 O
atom 2.2754770000000000 3.8246000000000002 8.2886410000000001 O
atom 2.0899310000000000 9.1029780000000002 2.9564970000000002 O
atom 2.2506990000000000 8.9451920000000005 8.2519869999999997 O
atom 2.2128820000000000 3.8745609999999999 0.4626530000000000 O
atom 2.2212580000000002 3.8885999999999998 5.6793060000000004 O
atom 2.3859960000000000 8.9489909999999995 0.3607130000000000 O
atom 2.2554069999999999 9.0175310000000000 5.6382589999999997 O
atom 5.3065490000000004 1.7114940000000001 1.7086650000000001 O
atom 5.3405870000000002 1.7285649999999999 6.9247620000000003 O
atom 5.3404610000000003 6.8164819999999997 1.6943969999999999 O
atom 5.3671499999999996 6.8385369999999996 6.9445980000000000 O
atom 5.2893369999999997 0.9006760000000000 4.3201549999999997 O
atom 5.3089069999999996 0.9103720000000000 9.5195880000000006 O
atom 5.3373879999999998 6.0133369999999999 4.3257899999999996 O
atom 5.3497120000000002 6.0098560000000001 9.5588650000000008 O
atom 9.6806889999999992 4.5458679999999996 1.6457210000000000 O
atom 9.6921049999999997 4.3169769999999996 6.8487010000000001 O
atom 9.7938690000000008 9.5189369999999993 1.7382550000000001 O
atom 9.6928839999999994 9.4346859999999992 6.8690129999999998 O
atom 9.6424719999999997 3.3992559999999998 4.1868400000000001 O
atom 9.8296679999999999 3.3960889999999999 9.4123699999999992 O
atom 9.6707439999999991 8.5564630000000008 4.2926180000000000 O
atom 9.7012239999999998 8.5693970000000004 9.5128780000000006 O
atom 7.7129040000000000 1.1951909999999999 9.8928150000000006 O
atom 7.7466489999999997 1.2812530000000000 4.7330819999999996 O
atom 7.8348000000000004 6.4124260000000000 9.9802190000000000 O
atom 7.7721080000000002 6.4310330000000002 4.7235709999999997 O
atom 7.5906680000000000 1.1770010000000000 2.2017319999999998 O
atom 7.7788830000000004 1.3380490000000000 7.3058170000000002 O
atom 7.7938720000000004 6.4640060000000004 2.1055750000000000 O
atom 7.8121749999999999 6.4327139999999998 7.3526480000000003 O
atom 7.2623220000000002 3.8749240000000000 9.9151760000000007 O
atom 7.2512590000000001 3.8636689999999998 4.7492989999999997 O
atom 7.2695679999999996 8.9524889999999999 9.9722349999999995 O
atom 7.2131580000000000 8.9626190000000001 4.7403709999999997 O
atom 7.2090569999999996 3.9174419999999999 2.1968030000000001 O
atom 7.2756129999999999 3.8796400000000002 7.3334270000000004 O
atom 7.3363069999999997 8.9483680000000003 2.1143660000000000 O
atom 7.2765100000000000 8.9980220000000006 7.3535899999999996 O
