lattice_vector 10.1026570499999995 0.0153321300000000 0.8273277500000000 
lattice_vector 0.0303567600000000 10.2484869399999994 0.0168181200000000 
lattice_vector 0.8679949900000000 -0.0245969800000000 10.4249444499999999 
atom 1.4115173999999999 0.0277030100000000 1.8319892499999999 Si
atom 1.9193527900000000 0.2152829300000000 6.8234919300000003 Hf
atom 1.5602894199999999 5.3819917700000000 1.6565302200000001 Hf
atom 1.9910867800000001 5.3071811400000000 6.8707771600000003 Hf
atom 6.5155118700000001 0.2110551100000000 2.0520005499999998 Hf
atom 7.0155007300000003 0.2238902700000000 7.2614113900000001 Hf
atom 6.6138845799999997 5.3042217400000000 2.0484266799999999 Hf
atom 6.9987190200000002 5.3320940999999999 7.2609919400000003 Hf
atom 1.7236198800000000 2.3098286699999999 4.1584937499999999 Hf
atom 2.3965787199999999 2.1983971100000002 9.4407453399999994 Hf
atom 1.7511286800000001 7.4622439700000003 4.2894491199999996 Hf
atom 2.1767183700000001 7.4626227800000002 9.4729673699999992 Hf
atom 6.7719304999999999 2.3479900699999998 4.6628361199999997 Hf
atom 7.2628098400000001 2.3574925900000001 9.8805521100000000 Hf
atom 6.7801559800000000 7.4649571400000001 4.6592687499999998 Hf
atom 7.2216848799999998 7.4638250599999996 9.9243518000000002 Hf
atom 3.7313719900000000 2.7477065700000001 1.3713733200000000 Hf
atom 4.1618538999999997 2.7818334700000000 6.5696214599999996 Hf
atom 3.7100258400000001 7.9490015900000000 1.4088152500000000 Hf
atom 4.1855810499999997 7.9083461200000000 6.6280827999999996 Hf
atom 9.0690888600000008 2.5685934499999998 1.9114588900000000 La
atom 9.2266612200000004 2.7747180500000002 7.0030600600000001 Hf
atom 8.8292341499999996 7.9327382499999999 1.8320952800000001 Hf
atom 9.2293606199999996 7.8983334799999998 7.0372627999999997 Hf
atom 3.9697201400000002 4.9129843099999997 3.9872371300000000 Hf
atom 4.4149550099999999 4.9053426099999999 9.2247992599999993 Hf
atom 3.9330401899999998 10.0396116400000004 3.9836012900000002 Hf
atom 4.4691049500000002 10.0381128400000001 9.2297395800000004 Hf
atom 9.0072426100000005 4.9471944900000002 4.4083949999999996 Hf
atom 9.3982100400000004 4.9715502400000000 9.5906422700000000 Hf
atom 9.0028736200000008 10.0084145800000002 4.4495853099999998 Hf
atom 9.4536322500000001 10.0183051100000000 9.6252182699999995 Hf
atom 0.9099144000000000 1.3183575199999999 0.8149726800000000 O
atom 0.8217141500000000 1.6504398700000000 5.9519447699999999 O
atom 0.5021157700000000 6.9381370499999999 0.9021447700000000 O
atom 0.8597651700000000 6.8055126499999998 6.1222182199999997 O
atom 5.4987834199999996 1.7555183200000000 1.2757187600000000 O
atom 5.8929839800000003 1.7099676200000000 6.4708594899999996 O
atom 5.4677411999999999 6.8311519900000004 1.2800144099999999 O
atom 5.9005366700000002 6.8337942900000002 6.4702676300000004 O
atom 0.6220979900000000 0.8079388600000000 3.2905920599999998 O
atom 1.0206267700000000 0.9426981200000000 8.6278676200000000 O
atom 0.6864715900000000 5.9517726599999996 3.5303763400000001 O
atom 1.1071173900000000 5.8978930600000004 8.7574980100000008 O
atom 5.5591185599999999 0.9079136400000000 3.8425497900000001 O
atom 6.2064331900000003 0.8117979400000001 9.0745104100000002 O
atom 5.6974470400000001 5.9704117400000003 3.8674495599999998 O
atom 6.1281122500000000 5.9969135199999997 9.0643392600000006 O
atom 4.8614409199999997 4.2721764799999997 2.1841432300000001 O
atom 5.2736379299999996 4.2727836100000003 7.3897891500000004 O
atom 4.8504681800000000 9.3650965599999996 2.2240880199999999 O
atom 5.3193686700000002 9.3879477399999995 7.4030234999999998 O
atom 9.9129073999999999 4.5081857100000002 2.5703589700000000 O
atom 10.3805387000000007 4.2094002000000001 7.8779003300000001 O
atom 10.0123411600000001 9.4247172999999993 2.6256841099999999 O
atom 10.3559892399999995 9.3847843799999993 7.8254825600000002 O
atom 5.0529720200000003 3.4278263700000000 4.7976419100000003 O
atom 5.5928737699999997 3.5072681700000001 10.0408641299999992 O
atom 5.0516042499999996 8.5378701699999997 4.7867926299999999 O
atom 5.4764482299999999 8.5106763099999991 10.0342717700000001 O
atom 10.0866463700000004 3.3705154099999999 5.1200694200000001 O
atom 10.1253267299999994 8.5285949900000002 5.2475155300000003 O
atom 10.5658640399999992 8.5406762900000004 10.4253814699999996 O
atom 2.8672341399999999 1.1682570999999999 2.5561726999999999 O
atom 3.4288261000000002 1.2563924600000000 7.8429344800000003 O
atom 3.0182356700000001 6.5014142799999997 2.7744702600000002 O
atom 3.4277446100000000 6.4325846200000001 7.9598275999999997 O
atom 7.9015911200000000 1.1850842699999999 3.2683190400000002 O
atom 8.5132915199999992 1.3295403500000000 8.3396594900000007 O
atom 8.0569325299999992 6.4606859600000002 3.1590218100000000 O
atom 8.4994162699999993 6.4236645000000001 8.3888363199999993 O
atom 3.1800361700000002 1.2579729100000001 5.2655644400000003 O
atom 4.0320062999999999 1.4475770200000000 10.2683389300000005 O
atom 3.2277588599999998 6.3559659999999996 5.3704782800000004 O
atom 3.6698763500000000 6.4029780299999999 10.5593173199999999 O
atom 8.2721781599999993 1.2374597199999999 5.7663436600000004 O
atom 8.6241240799999996 1.1340869200000001 10.9345799400000008 O
atom 8.2661898699999998 6.3740559799999996 5.7766512700000003 O
atom 8.7302045899999996 6.3890367599999998 10.9907727499999996 O
atom 2.2564802500000001 3.9058484600000001 0.2819194200000000 O
atom 2.6745392300000002 3.8728148199999999 5.4864373899999999 O
atom 2.2897492300000000 9.2977714900000006 0.4805226000000000 O
atom 2.7105030700000001 9.0058655400000003 5.5287828000000001 O
atom 7.4724037499999998 3.9203142199999998 0.6172851700000000 O
atom 7.7664411199999996 3.8816908400000001 5.9339495800000002 O
atom 7.3286646600000003 8.9925883500000001 0.7406280800000000 O
atom 7.7579322499999996 8.9973551300000008 5.9369508399999997 O
atom 2.5101714600000000 3.7738206700000001 2.8848279300000002 O
atom 2.9541139099999998 3.7578190299999998 8.1173790500000003 O
atom 2.3349445800000002 8.9955640100000007 2.8881545100000001 O
atom 2.9463319800000001 8.9226654199999995 8.1718480600000003 O
atom 7.5033013400000002 3.8393442000000002 3.3834243300000000 O
atom 7.9758148100000001 3.8111849300000000 8.4981288599999996 O
atom 7.5975454600000001 8.9095862399999994 3.3283427200000002 O
atom 7.9943995499999998 8.9076022100000003 8.5449097300000005 O
