lattice_vector 9.9785657499999996 0.0241067200000000 0.1098795300000000 
lattice_vector 0.0557629000000000 10.3802226399999995 -0.0247911600000000 
lattice_vector 0.0569720500000000 -0.0253137600000000 10.0148040999999992 
atom 1.0374101099999999 0.2069658500000000 0.8914842400000000 Si
atom 1.3619001300000000 0.1587831900000000 6.3331815200000001 Hf
atom 1.4269755500000001 5.3927092300000004 1.3082835300000000 Hf
atom 1.4154107000000000 5.3725669500000004 6.2382029899999996 Hf
atom 6.3130041400000003 0.1766440400000000 1.3220755900000001 Hf
atom 6.3015998900000003 0.1286930100000000 6.2560162200000002 Hf
atom 6.3519974299999999 5.4301839799999998 1.3901694300000000 Hf
atom 6.3763625700000004 5.3577221699999997 6.3108454199999997 Hf
atom 1.4949180700000000 2.3085745400000000 3.7622509000000002 Hf
atom 1.4219595599999999 2.4603110600000000 8.7569534699999991 Hf
atom 1.4506854199999999 7.6274164300000002 3.7870441000000001 Hf
atom 1.3990167300000000 7.5949170600000002 8.8096124699999994 Hf
atom 6.3796967000000002 2.4336475000000002 3.7845087600000000 Hf
atom 6.2812077000000004 2.3240498000000001 8.7261097700000008 Hf
atom 6.4402682499999999 7.6485803199999998 3.8182029200000001 Hf
atom 6.3571257799999996 7.5854244700000004 8.8391665600000007 Hf
atom 3.6808689800000001 2.7479256799999998 1.3174751899999999 Hf
atom 3.6840978199999999 2.7804388300000000 6.2920007699999996 Hf
atom 3.6808664300000000 7.9822800200000001 1.3519773900000001 Hf
atom 3.7220054400000002 7.9737824899999996 6.3455312299999997 Hf
atom 8.8515125300000008 2.6465471300000001 1.3302244900000000 La
atom 8.6892051200000004 2.7452967300000002 6.3198320600000004 Hf
atom 8.7517169100000007 7.9408133699999999 1.2876347200000000 Hf
atom 8.7233004100000002 7.9595362400000003 6.3195991400000002 Hf
atom 3.7265322900000002 5.0073916199999999 3.7996437699999999 Hf
atom 3.7296770499999998 5.0368417499999998 8.8082712500000007 Hf
atom 3.7275475500000002 10.1950968700000004 3.8079892100000001 Hf
atom 3.6562506199999998 10.2061416099999995 8.8811425300000000 Hf
atom 8.7309366500000003 5.0240749700000000 3.8492176400000000 Hf
atom 8.8083708299999994 5.1237081099999999 8.7169136100000006 Hf
atom 8.7878203599999996 10.2255307000000002 3.8093053000000001 Hf
atom 8.6157753899999996 10.1705872900000003 8.7781250100000001 Hf
atom 0.7876943600000000 1.5234511399999999 1.9450259700000001 O
atom 0.4028227500000000 1.9053059699999999 6.9621953999999997 O
atom 0.4728595800000000 7.1688787899999999 1.9327087800000000 O
atom 0.3957840200000000 7.0637193199999997 7.0044992600000002 O
atom 5.4852727200000002 1.9929504700000000 1.9098560499999999 O
atom 5.3674430199999996 1.8861652099999999 6.9585885100000002 O
atom 5.3982345299999999 7.1245540399999996 2.0297470099999999 O
atom 5.3746109600000000 7.0658665999999997 7.0570081499999997 O
atom 0.4233353600000000 0.6414822300000000 4.4984136499999998 O
atom 0.2677584700000000 0.7277043500000000 9.5311525400000008 O
atom 0.4435980400000000 5.8778085300000003 4.4456127199999997 O
atom 0.4573559700000000 5.8723153899999998 9.4905078300000003 O
atom 5.3948026400000000 0.7003194500000000 4.4854871699999999 O
atom 5.2596522300000004 0.6795283400000000 9.5563901799999993 O
atom 5.4308170400000000 5.8825981699999996 4.4869024199999998 O
atom 5.4386383199999999 5.8339293999999997 9.5474909500000003 O
atom 4.6415357300000002 4.5148531299999997 1.9775436700000000 O
atom 4.6841083799999996 4.4992291499999997 7.0040788999999997 O
atom 4.7543743599999999 9.6647740199999994 2.0275763300000000 O
atom 4.6812375800000003 9.7079466900000000 7.0477351099999996 O
atom 9.7359856699999998 4.6354737899999998 2.0975000700000002 O
atom 9.6325582099999991 4.5552519499999997 6.8607582200000001 O
atom 9.8172198500000007 9.7537892500000005 1.7950031000000000 O
atom 9.6804915999999999 9.6963799900000005 7.0224222200000002 O
atom 4.7044799800000003 3.2916975000000002 4.5259526899999996 O
atom 4.6901035499999999 3.2765790300000002 9.4697415599999992 O
atom 4.7875758299999998 8.5015379299999996 4.6085410199999997 O
atom 4.6074455099999998 8.4577551000000000 9.5105992399999995 O
atom 9.6693619399999999 3.2205159499999998 4.4101053200000004 O
atom 9.6609439800000008 3.3708357200000001 9.2726485600000004 O
atom 9.7095842099999992 8.4785800400000007 4.5138770499999996 O
atom 9.6370753899999997 8.4687909700000006 9.4472232300000005 O
atom 3.1155995700000001 1.4115964000000001 2.7376637599999998 O
atom 2.7322247000000002 1.2350055799999999 7.6142680599999997 O
atom 2.7833918099999999 6.4029756500000001 2.5430903699999998 O
atom 2.7425214100000002 6.4161084700000002 7.5483738000000002 O
atom 7.6416646500000001 1.0947444700000000 2.6166203299999999 O
atom 7.6849242599999998 1.1737556099999999 7.4859096799999998 O
atom 7.7773993499999996 6.4420289300000002 2.5660702199999998 O
atom 7.7121662799999999 6.4391034100000004 7.5394375699999996 O
atom 2.7254071999999998 1.3305169200000000 5.1390417599999996 O
atom 2.5670025999999999 1.2859478300000000 10.1622993000000008 O
atom 2.7950780000000002 6.5582198700000003 5.0468837899999999 O
atom 2.7909168800000002 6.6016560599999998 10.0498619500000004 O
atom 7.7512182799999998 1.3793876400000000 5.0383045500000003 O
atom 7.5965517800000004 1.3018940000000001 9.9484778200000008 O
atom 7.7472610299999998 6.5823622000000004 5.0686837300000001 O
atom 7.7710772500000003 6.5027412499999997 10.0633895700000000 O
atom 2.3580149700000002 3.9400946000000001 5.0192612499999996 O
atom 2.3611557500000000 3.9543970599999998 10.0222197899999994 O
atom 2.3666249100000001 9.1289462100000005 5.1068404500000000 O
atom 2.1527831300000000 9.2818693099999994 10.2087218800000006 O
atom 7.3486021099999999 3.9555325699999999 5.1015791000000004 O
atom 7.4131588700000002 9.1818221700000002 5.0249457599999996 O
atom 7.3029631300000002 9.1017279500000008 10.0394722099999996 O
atom 2.3099493799999999 3.8348865100000000 2.5208999300000001 O
atom 2.3289917600000001 3.8410129600000000 7.5196473099999999 O
atom 2.4900037199999998 8.9568706700000007 2.6556640699999998 O
atom 2.3382605700000001 9.0155300799999996 7.6183853199999998 O
atom 7.2468218000000002 3.9306027100000001 2.5621844000000000 O
atom 7.3370960199999997 3.8185140500000001 7.6841210300000000 O
atom 7.4674431600000002 8.9802744099999998 2.5275857899999998 O
atom 7.3158179199999998 8.9762445799999995 7.5335316600000004 O
