lattice_vector 10.0858148700000001 0.0168923600000000 0.8113353800000001 
lattice_vector 0.0296681700000000 10.2795636100000003 0.0196177400000000 
lattice_vector 0.8308967700000000 -0.0155493600000000 10.3983633300000005 
atom 1.3574112400000000 0.0797338100000000 1.8171811000000000 Si
atom 1.8879966600000000 0.2190613100000000 6.7905217799999997 Hf
atom 1.5429649200000000 5.3701241599999996 1.6474810200000001 Hf
atom 1.8964988100000000 5.4410891000000001 6.9554953599999996 Hf
atom 6.5547830800000000 0.2315889000000000 2.0254093800000001 Hf
atom 7.0013499499999998 0.2011959700000000 7.2678185500000003 Hf
atom 6.6160674799999999 5.3392206900000003 1.9951987300000000 Hf
atom 6.9864131199999999 5.3686058100000000 7.2462334100000003 Hf
atom 1.6518372100000001 2.2463428500000000 4.0720928199999999 Hf
atom 2.2055015500000001 2.2880957400000002 9.4161710999999997 Hf
atom 1.6667073100000001 7.5232048599999999 4.2664774799999998 Hf
atom 2.1767005400000001 7.5348900499999996 9.4805408300000007 Hf
atom 6.7996442500000001 2.3378093700000000 4.6379937800000004 Hf
atom 7.2073598800000003 2.3584588900000001 9.8482433100000009 Hf
atom 6.8094502900000000 7.5119080000000000 4.6386732999999998 Hf
atom 7.1581209399999999 7.4943945200000002 9.8896581599999998 Hf
atom 3.7094173200000000 2.7671811800000001 1.3239667700000000 Hf
atom 4.2338590600000003 2.7219950700000002 6.6154031800000004 Hf
atom 3.6852829800000002 8.0216817599999999 1.4025766000000000 Hf
atom 4.1543808999999996 7.9549196000000002 6.6176784299999998 Hf
atom 8.9034735999999999 2.7156708799999998 1.8124598500000000 Hf
atom 9.1994607399999992 2.7998173999999998 6.9797056199999998 Hf
atom 8.8272419499999994 7.9589291099999997 1.7986116299999999 Hf
atom 9.1463106100000005 7.9237074500000002 7.0373800199999996 Hf
atom 4.0115923000000002 5.0174220900000002 4.0547695499999996 La
atom 4.3641068799999996 4.9346620600000000 9.1831971899999996 Hf
atom 3.9380971200000001 10.0710314800000003 3.9562628000000002 Hf
atom 4.3863178200000004 10.1286303199999992 9.2083896400000000 Hf
atom 8.9724799199999996 4.9440387699999997 4.3740525699999999 Hf
atom 9.4165200700000007 4.8881617400000001 9.6290924600000007 Hf
atom 8.9507979599999992 10.0458909199999997 4.4080037599999997 Hf
atom 9.4254587599999997 10.0750872600000001 9.6071323000000000 Hf
atom 0.6194990100000000 1.4782463600000000 0.9071160700000001 O
atom 0.8278235500000000 1.7052441300000001 5.9596720899999998 O
atom 0.4648232300000000 6.8866247100000004 0.8754739400000000 O
atom 0.7489014600000000 6.8649062199999999 6.1087887199999997 O
atom 5.4863935799999997 1.7488110900000000 1.2748584000000001 O
atom 5.9874590200000002 1.7810543999999999 6.5704636499999998 O
atom 5.4761684600000002 6.9315038800000002 1.3327171099999999 O
atom 5.8814232500000001 6.8930505999999996 6.4666556399999999 O
atom 0.6201906300000000 0.7229626900000000 3.3424604699999998 O
atom 1.0325691800000001 0.8519634600000000 8.6094373300000004 O
atom 0.6702397100000000 5.9177145099999997 3.5211679299999998 O
atom 1.0571260300000000 6.0079226200000004 8.7266561500000002 O
atom 5.7031065500000002 0.7668577600000001 3.9007285999999999 O
atom 6.1680878500000000 0.7753935500000000 9.1085220800000002 O
atom 6.0381282299999999 5.8574884000000003 3.8937801699999999 O
atom 6.0972023999999996 5.9819620699999998 9.0763525699999992 O
atom 4.9035364699999997 4.3070373300000000 1.9757032800000001 O
atom 5.2185966400000003 4.3587086599999996 7.2981090699999998 O
atom 4.8336093299999998 9.4688610000000004 2.1720758000000000 O
atom 5.2529517900000000 9.4986955700000006 7.3352050000000002 O
atom 9.9244215199999992 4.2812508500000002 2.5701151499999999 O
atom 10.3335543600000008 4.2723992300000004 7.8052079499999998 O
atom 9.9955543799999997 9.4431055700000002 2.5947968800000001 O
atom 10.2732215100000008 9.4559151499999992 7.7657100500000000 O
atom 5.0111123400000004 3.1659230400000000 4.7826897800000001 O
atom 5.5046750900000001 3.4262563600000000 9.8863671199999992 O
atom 4.9754135699999997 8.4460130400000004 4.6893120100000001 O
atom 5.3723094500000004 8.5238666999999992 9.9568997699999997 O
atom 10.0739299399999993 3.3911344899999998 5.1347658799999998 O
atom 10.5784473499999994 3.3902362300000002 10.4309618700000009 O
atom 10.0244241200000008 8.5403634400000001 5.1908614000000002 O
atom 10.5190786900000006 8.5690620299999996 10.3756867600000007 O
atom 2.7973037900000000 1.1427286299999999 2.4806024799999999 O
atom 3.3752705399999998 1.2717084700000001 7.8291672400000003 O
atom 2.8797492800000000 6.6288985000000000 2.7108050299999999 O
atom 3.4156990500000002 6.4979778599999998 8.0014904599999994 O
atom 8.0452230300000007 1.2875508499999999 3.1295844100000001 O
atom 8.4738773700000003 1.3487123200000000 8.3362685499999998 O
atom 8.1971187600000004 6.4952036399999997 3.1125405300000000 O
atom 8.4410926199999992 6.4580628800000000 8.3771980599999996 O
atom 3.1620290299999998 1.3167777899999999 5.2091282000000003 O
atom 3.8378942999999999 1.4587519600000001 10.2780350800000004 O
atom 3.0331988000000001 6.4842507999999999 5.5149438799999997 O
atom 3.6347537200000000 6.4378021700000003 10.5515955199999993 O
atom 8.2673991600000001 1.2268043099999999 5.7359092100000000 O
atom 8.6908642399999998 1.2331431700000000 10.9504646399999999 O
atom 8.2408602599999998 6.3912345600000000 5.7641686800000000 O
atom 8.6647690599999994 6.3778801600000001 10.9352505999999998 O
atom 2.2799003899999999 3.9626489299999998 0.2479847200000000 O
atom 2.2181461300000000 9.3655657199999993 0.4643246500000000 O
atom 2.6981593099999999 9.0834097400000005 5.4871359300000000 O
atom 7.4143293600000000 3.8618977200000000 0.6987894300000000 O
atom 7.7346601499999998 3.9022919100000002 5.8886820699999998 O
atom 7.3229752599999998 9.0550144299999999 0.7114110600000000 O
atom 7.6984173900000004 9.0403096900000008 5.9090560999999999 O
atom 2.4403883799999999 3.6911569200000001 2.8330073200000001 O
atom 2.9055763200000002 3.7874957299999998 8.0189538000000002 O
atom 2.3289702600000002 9.0545100999999999 2.8841946100000002 O
atom 2.9058251300000002 8.9660763499999998 8.1332144000000000 O
atom 7.5862138899999998 3.7498466700000002 3.2638150000000001 O
atom 7.9561281800000003 3.8291119299999998 8.4973729200000001 O
atom 7.5708935500000001 8.9525354099999994 3.2888506000000000 O
atom 7.9347645399999998 8.9463019100000007 8.5356336899999992 O
