lattice_vector 10.0535380700000001 -0.0000008500000000 0.0434260600000000 
lattice_vector 0.0329059400000000 10.2658769799999998 0.0085240300000000 
lattice_vector 0.0172838400000000 -0.0287897000000000 10.4919555700000000 
atom 1.4410011500000000 0.8310047699999999 1.8103622699999999 Si
atom 1.3926787500000000 0.1811037300000000 7.0385720000000003 Hf
atom 1.4144065699999999 5.3280055300000004 1.8265480199999999 Hf
atom 1.4193254300000000 5.3358330799999996 7.1104377200000002 Hf
atom 1.4671953499999999 2.4259034100000001 4.4797443799999996 Hf
atom 1.4066982299999999 2.3140514300000001 9.6273055599999999 Hf
atom 1.4730297500000000 7.4112837899999997 4.4523846400000000 Hf
atom 1.4502492800000000 7.4950960599999998 9.7391981899999998 Hf
atom 3.6795746000000000 2.8068408699999998 1.8270204699999999 Hf
atom 3.6776324599999999 2.7653215000000002 7.0854545299999998 Hf
atom 3.6388045800000000 7.9415557899999998 1.8393728199999999 Hf
atom 3.6370394300000002 7.9030498400000004 7.0723288399999999 Hf
atom 3.6863616299999999 4.9349881800000004 4.4533160299999999 Hf
atom 3.6456468000000002 4.8930693999999999 9.6989492599999991 Hf
atom 3.6408053100000002 9.9960337599999995 4.4208529900000002 Hf
atom 3.6760353499999998 9.9835613900000002 9.7316959500000006 Hf
atom 6.4345472399999997 0.2041364100000000 0.8431131700000000 Hf
atom 6.3821910500000003 0.1665106700000000 6.0889973099999999 Hf
atom 6.4038290599999996 5.3329603299999997 0.8811183100000000 Hf
atom 6.4515081500000004 5.3318225899999998 6.0940048100000004 Hf
atom 6.3923173999999996 2.3365537500000002 3.4790801099999999 Hf
atom 6.4345175100000001 2.2976421100000000 8.7283830299999998 Hf
atom 6.4933213199999997 7.4962997600000003 3.4667256100000001 Hf
atom 6.4093322900000000 7.4488525200000000 8.6958838299999996 Hf
atom 8.6467040599999994 2.7778019999999999 0.8661646200000001 Hf
atom 8.6539936999999991 2.7570979599999998 6.1053988700000001 Hf
atom 8.5924270899999993 7.7709867399999997 0.7466735200000000 Hf
atom 8.6903400299999998 7.8387455199999998 6.1236535500000002 Hf
atom 8.6912028499999998 4.8928741799999997 3.4979339700000001 Hf
atom 8.6993914100000005 4.8412016700000002 8.7245338799999992 Hf
atom 8.9408555900000000 10.1951085700000004 3.6011829299999998 La
atom 8.6901582099999999 10.0172792600000005 8.7098440999999998 Hf
atom 0.3059168600000000 1.5347762599999999 0.7136372100000000 O
atom 0.2191667900000000 1.4245651699999999 5.8298030799999996 O
atom 0.3360219100000000 6.8953164600000001 0.9609383700000000 O
atom 0.3544860000000000 6.7203600500000000 6.1629463099999997 O
atom 0.4452482800000000 1.4506227000000000 3.0377165399999999 O
atom 0.2773257100000000 0.9645241900000000 8.5782848400000002 O
atom 0.3850494300000000 5.9483994899999999 3.5038889800000002 O
atom 0.3211271700000000 6.0063772799999997 8.7908542599999997 O
atom 4.7050973400000000 4.2613318600000003 0.8950189100000000 O
atom 4.7485201799999999 4.2193839999999998 6.1310560499999998 O
atom 4.7810043400000000 9.3721728500000001 0.8971094900000000 O
atom 4.6912360099999999 9.3529367499999996 6.1239345700000003 O
atom 4.7136589899999999 3.4567321899999999 3.5111431700000000 O
atom 4.7306034700000001 3.4236086600000002 8.7682393100000002 O
atom 4.8151322399999996 8.6311153800000007 3.4674757000000000 O
atom 4.7229616200000004 8.5689573699999997 8.7396325499999996 O
atom 2.7627570700000001 1.2353241100000001 3.0506804900000000 O
atom 2.7846936699999998 1.2336254499999999 8.3820566000000003 O
atom 2.8431197500000001 6.3550182900000003 3.1105293199999999 O
atom 2.7933846800000000 6.3896950600000002 8.3916615399999994 O
atom 2.6698540999999998 1.2809636900000001 0.5876881100000000 O
atom 2.7671659900000001 1.2989879799999999 5.7435380299999998 O
atom 2.7558572200000002 6.3672492299999996 0.5151800500000000 O
atom 2.8304377600000001 6.4008047299999999 5.7705379700000003 O
atom 2.3023767999999998 3.8518761900000000 3.1172189800000001 O
atom 2.2943939200000001 3.8136107699999999 8.3689558399999999 O
atom 2.3283729100000001 8.8713515300000001 3.1954220499999999 O
atom 2.2607406800000001 8.9572067299999993 8.3511586799999993 O
atom 2.2642804900000000 3.8132442100000001 0.4858966300000000 O
atom 2.2969434600000000 3.8742114499999998 5.7608451000000001 O
atom 2.4234966299999998 8.8781040299999994 0.4261645500000000 O
atom 2.2622287499999998 8.9634425899999997 5.7541780300000003 O
atom 5.3218677200000002 1.6600773099999999 1.7905675900000000 O
atom 5.3439182699999996 1.6323713600000000 7.0672637299999996 O
atom 5.3974302400000003 6.8313544300000002 1.7798893300000000 O
atom 5.3646929300000004 6.7978554600000001 7.0231706500000000 O
atom 5.3043057200000003 0.8689125100000000 4.4037533199999999 O
atom 5.3518190099999998 0.8721596800000000 9.6927366999999993 O
atom 5.4041171099999996 6.0287771499999998 4.4042910700000002 O
atom 5.3737724299999998 5.9767872999999998 9.6584155099999993 O
atom 9.7627550900000006 4.1930869900000003 1.8177989600000000 O
atom 9.8102375399999993 4.1191124900000000 7.1346284999999998 O
atom 9.7836145200000004 9.2806293499999999 7.0970469500000002 O
atom 9.7761138299999999 3.5104038200000001 4.5366367399999996 O
atom 9.7669141800000006 3.4261682800000002 9.7109042300000006 O
atom 9.7989505700000006 8.3754817500000005 4.4705206600000000 O
atom 9.8066277100000008 8.6893981599999996 9.8464225400000007 O
atom 7.8222513700000000 1.2270910900000001 10.0384498299999994 O
atom 7.6459688300000002 1.3666174400000000 4.8884182300000001 O
atom 7.8046111299999996 6.3481710099999997 10.0500384500000006 O
atom 7.8473352900000002 6.3635821400000001 4.8108920800000003 O
atom 7.7259039899999999 1.3589923200000000 2.1245309699999999 O
atom 7.7933311700000001 1.2440668200000000 7.4358959499999999 O
atom 7.8298243999999997 6.3739719299999997 2.1856793200000002 O
atom 7.8167062899999999 6.3681459000000000 7.4446968199999999 O
atom 7.3128918699999996 3.7929886399999999 10.0617999299999994 O
atom 7.3080113000000004 3.8412861000000000 4.8050854500000000 O
atom 7.2910286700000002 8.9144853400000006 9.9921483299999991 O
atom 7.2650611899999999 8.8906182299999994 4.8781721600000001 O
atom 7.2820426400000002 3.8652958700000002 2.1906860300000002 O
atom 7.3054319200000002 3.8196991300000001 7.4265269199999997 O
atom 7.5348271799999997 8.9544914900000006 2.0647723999999998 O
atom 7.3167186700000002 8.9571151300000000 7.4369319899999997 O
