lattice_vector 9.8840170900000004 -0.0332790200000000 0.0223992400000000 
lattice_vector -0.0210176800000000 10.4136791700000000 -0.0053908100000000 
lattice_vector -0.0304223600000000 -0.0233350000000000 9.9519163800000001 
atom 1.2084962800000001 0.3541972400000000 1.0696386800000000 Si
atom 1.3247087000000000 0.1923169800000000 6.2564871200000001 Hf
atom 1.2987562900000000 5.3057563999999999 1.2041621800000000 Hf
atom 1.2379504800000001 5.3291847099999998 6.1710213300000003 Hf
atom 6.2481212900000003 0.0997520000000000 1.2409274200000000 Hf
atom 6.1728846600000002 0.1365385400000000 6.2009913299999999 Hf
atom 6.3737790299999997 5.3378293499999998 1.4038387699999999 Hf
atom 6.2706695899999998 5.4087091599999999 6.1826664600000001 Hf
atom 1.3189560700000000 2.3315178200000002 3.6347532000000000 Hf
atom 1.2804253999999999 2.4838858400000001 8.6969593799999991 Hf
atom 1.2166879399999999 7.5302690600000002 3.7378501800000001 Hf
atom 1.2408935600000000 7.6130815099999998 8.7010555600000004 Hf
atom 6.2002346900000003 2.3773573099999998 3.7004397299999998 Hf
atom 6.2428156200000000 2.3985599400000002 8.6666675499999997 Hf
atom 6.2589901499999998 7.6732438600000004 3.7677770599999998 Hf
atom 6.2098702000000001 7.5967252299999997 8.7906247600000000 Hf
atom 3.6957744400000001 2.7853366600000000 1.1281926300000000 Hf
atom 3.5803651200000002 2.7737758900000000 6.2324950399999999 Hf
atom 3.6328657299999998 7.8891187499999997 1.2958534100000001 Hf
atom 3.5582125599999999 7.9733991599999996 6.2810121299999997 Hf
atom 8.5521679699999993 2.6932610000000001 1.2447967200000001 Hf
atom 8.5486956500000009 2.7972171499999998 6.1473052199999998 Hf
atom 8.7022671099999993 8.0133139900000003 1.2170659800000001 Hf
atom 8.5217912299999998 8.0146930899999997 6.2564570200000000 Hf
atom 3.6117982600000000 4.9756013599999998 3.7384004399999999 Hf
atom 3.6417932799999999 5.1073179000000000 8.6490273900000005 Hf
atom 3.5154508999999998 10.1368022900000003 3.7293722900000001 Hf
atom 3.4883850199999999 10.2363824200000000 8.8300118899999998 Hf
atom 8.6812922599999993 4.7762707600000001 3.6035496000000000 Si
atom 8.4826473399999998 5.0000809000000004 8.7390350800000007 Hf
atom 8.5956165299999991 10.2463194400000006 3.6999764700000002 Hf
atom 8.4909209699999995 10.2469030799999992 8.6881380499999992 Hf
atom 0.3761575800000000 1.8329070100000000 1.7776782900000001 O
atom 0.3033037500000000 1.9486015299999999 6.9310113600000003 O
atom 0.3831323700000000 7.0747556600000001 1.8926906400000001 O
atom 0.3039476400000000 7.1095874400000003 6.8747126099999996 O
atom 5.2219556300000001 1.8168367500000000 1.9775863800000000 O
atom 5.2425977100000001 1.8841059499999999 6.9162520699999996 O
atom 5.3557256100000004 7.0541287900000000 1.9904874500000000 O
atom 5.1626588299999998 7.0421199600000000 7.0827035199999999 O
atom 0.2950478700000000 0.7410048600000000 4.5174399599999999 O
atom 0.3210216100000000 0.6639440100000000 9.4849345399999994 O
atom 0.0455798800000000 5.7587632299999996 4.3579865299999998 O
atom 0.2699699200000000 5.8897877100000002 9.4084875799999992 O
atom 5.2377624799999998 0.6623398200000000 4.4082689899999998 O
atom 5.1908425300000003 0.7298688100000000 9.4785617599999998 O
atom 5.2107790300000003 5.9153968399999997 4.4521717799999996 O
atom 5.2594495600000002 5.8855567799999999 9.5358630000000009 O
atom 4.6884566200000002 4.4153247400000000 1.9979504400000001 O
atom 4.5531953600000001 4.5124704099999997 6.8851469999999999 O
atom 4.6630937100000001 9.6076390299999996 2.0359558999999998 O
atom 4.5015923500000001 9.7113563200000002 6.9989120700000003 O
atom 9.5349807299999991 4.4513294800000001 2.0706677099999999 O
atom 9.5067290999999994 4.4662968500000000 6.9929370799999999 O
atom 9.8160909899999993 9.7597081100000000 1.8498126100000001 O
atom 9.5051786000000007 9.7407979900000008 6.9435202800000004 O
atom 4.6554746500000004 3.3083547100000001 4.5142113600000000 O
atom 4.5525346899999999 3.2956049599999999 9.3282802300000007 O
atom 4.6234540900000001 8.5025320200000003 4.5945827399999999 O
atom 4.5032324800000003 8.5269318799999994 9.4588688399999992 O
atom 9.4911296400000005 3.2508916999999999 4.2494907099999999 O
atom 9.5153177400000004 3.2871356800000000 9.4727057000000006 O
atom 9.4987914300000007 8.4818069600000001 4.4150833900000004 O
atom 9.4448001000000001 8.4690019499999991 9.3378139699999991 O
atom 2.3413894499999999 0.7905751700000000 2.4130250100000001 O
atom 2.6455629799999998 1.2360350600000001 7.5050016499999996 O
atom 2.6595525000000002 6.2030745700000001 2.4205866000000000 O
atom 2.5632162699999999 6.4069471000000000 7.4348431200000000 O
atom 7.6038465300000002 1.1253759000000001 2.4359371400000001 O
atom 7.5712826099999999 1.1958531999999999 7.4183368300000003 O
atom 7.7171469899999998 6.1200389800000004 2.8210891800000000 O
atom 7.5654648900000003 6.4133597099999999 7.5723363199999998 O
atom 2.6806239700000001 1.3697580100000000 4.9205666800000003 O
atom 2.5005167099999999 1.4009043800000001 10.0275701599999998 O
atom 2.5590373500000001 6.5392956399999997 4.9476002399999999 O
atom 2.5982400499999998 6.6320866900000004 9.9172825000000007 O
atom 7.5459742199999997 1.4682862500000000 4.9322948799999997 O
atom 7.5652625100000002 1.3501899799999999 9.9138125400000003 O
atom 7.3338163800000000 6.8596253699999998 5.1967709700000002 O
atom 7.5998641400000002 6.5589052700000003 10.1070979199999993 O
atom 2.2129653700000000 3.9342516299999999 4.9110853099999998 O
atom 2.2901511800000001 4.0336687099999997 9.8794161400000000 O
atom 2.1946596299999999 9.1725701700000002 5.0686846499999998 O
atom 2.1195674599999998 9.3805110900000006 10.2310495899999996 O
atom 7.5109332300000000 4.3003346799999997 4.8979916799999996 O
atom 7.1563120600000003 3.9333578500000002 9.9719843200000007 O
atom 7.2456107100000002 9.3346993099999995 4.9356886500000003 O
atom 7.1692394400000001 9.1772194599999999 9.9369204700000004 O
atom 2.3369939700000000 3.6394625399999998 2.4061770999999998 O
atom 2.2198847200000000 3.8351687700000001 7.4197705300000001 O
atom 2.4870526800000001 8.6508452899999995 2.7117447100000001 O
atom 2.2056702600000002 9.0386038299999996 7.5825649600000000 O
atom 7.3107701799999996 3.7125521099999998 2.5458920300000001 O
atom 7.1574800600000001 3.7905498299999998 7.3959387100000002 O
atom 7.3585998300000002 8.9336972100000001 2.4565564200000001 O
atom 7.1247761799999996 9.0086279800000000 7.4614288999999996 O
