lattice_vector 10.1424470000000007 0.0030510000000000 -0.0462090000000000 
lattice_vector 0.0070940000000000 10.3027549999999994 0.0247810000000000 
lattice_vector 0.0088200000000000 -0.0360820000000000 10.4766119999999994 
atom 1.3380010000000000 0.1249060000000000 1.7047930000000000 La
atom 1.4590900000000000 0.1416440000000000 7.0515499999999998 Hf
atom 1.4123010000000000 5.3552540000000004 1.7938520000000000 Hf
atom 1.4334800000000001 5.3686860000000003 7.0560900000000002 Hf
atom 1.5026440000000001 2.3556020000000002 4.3848399999999996 Hf
atom 1.4068900000000000 2.3707069999999999 9.5999890000000008 Hf
atom 1.4307380000000001 7.4865740000000001 4.4362159999999999 Hf
atom 1.4472100000000001 7.4716230000000001 9.6762999999999995 Hf
atom 3.6549849999999999 2.7689170000000001 1.7537820000000000 Hf
atom 3.6574300000000002 2.7619150000000001 7.0069270000000001 Hf
atom 3.7242080000000000 7.8897399999999998 1.8039360000000000 Hf
atom 3.6778179999999998 7.8928500000000001 7.0420369999999997 Hf
atom 3.6840389999999998 4.9227980000000002 4.3966450000000004 Hf
atom 3.6683370000000002 4.8974940000000000 9.6517879999999998 Hf
atom 3.6714690000000001 10.0500989999999994 4.4145640000000004 Hf
atom 3.7257929999999999 10.0597080000000005 9.6514959999999999 Hf
atom 6.4967740000000003 0.2083420000000000 0.8196410000000000 Hf
atom 6.4194529999999999 0.1498490000000000 6.0664749999999996 Hf
atom 6.4713079999999996 5.3361549999999998 0.7952840000000000 Hf
atom 6.5023749999999998 5.3217590000000001 6.0369229999999998 Hf
atom 6.4569390000000002 2.3571309999999999 3.4124620000000001 Hf
atom 6.4514069999999997 2.3387479999999998 8.6806319999999992 Hf
atom 6.5041380000000002 7.4796529999999999 3.4459580000000001 Hf
atom 6.4845780000000000 7.4687440000000000 8.6511990000000001 Hf
atom 8.7068870000000000 2.8120579999999999 0.7543110000000000 Hf
atom 8.8166989999999998 2.6567010000000000 6.1042969999999999 La
atom 8.6984279999999998 7.8994999999999997 0.7975730000000000 Hf
atom 8.7536020000000008 7.9211710000000002 6.0497420000000002 Hf
atom 8.7362610000000007 4.9191130000000003 3.3891559999999998 Hf
atom 8.7412150000000004 4.9566299999999996 8.6447830000000003 Hf
atom 8.6545430000000003 10.0708889999999993 3.4787040000000000 Hf
atom 8.7361740000000001 10.0434909999999995 8.6995269999999998 Hf
atom 0.3451980000000000 1.9560940000000000 0.8432480000000000 O
atom 0.7366130000000000 1.8265260000000001 6.2530419999999998 O
atom 0.3741160000000000 6.9469200000000004 0.9591880000000000 O
atom 0.3997470000000000 6.9382380000000001 6.1906260000000000 O
atom 0.2013360000000000 0.9032110000000000 3.7327119999999998 O
atom 0.3519000000000000 0.7898680000000000 8.7861379999999993 O
atom 0.3426600000000000 6.0141900000000001 3.5244610000000001 O
atom 0.3841530000000000 5.9685480000000002 8.8291710000000005 O
atom 4.7445160000000000 4.2466439999999999 0.8449020000000000 O
atom 4.7616680000000002 4.2378840000000002 6.0851240000000004 O
atom 4.7798049999999996 9.4249880000000008 0.8906630000000000 O
atom 4.7379449999999999 9.3553599999999992 6.1006840000000002 O
atom 4.7422420000000001 3.4559739999999999 3.4558659999999999 O
atom 4.7100039999999996 3.4043969999999999 8.7210730000000005 O
atom 4.8016389999999998 8.5893230000000003 3.4908489999999999 O
atom 4.7892409999999996 8.5913640000000004 8.6933749999999996 O
atom 2.8504719999999999 1.3078879999999999 3.1324779999999999 O
atom 2.8063129999999998 1.2367250000000001 8.2924819999999997 O
atom 2.8085230000000001 6.3838780000000002 3.0963110000000000 O
atom 2.8259150000000002 6.4102730000000001 8.3498959999999993 O
atom 2.8885580000000002 1.3823620000000001 0.3400630000000000 O
atom 2.9274499999999999 1.2582709999999999 5.6798180000000000 O
atom 2.7900670000000001 6.3875010000000003 0.4996230000000000 O
atom 2.8161010000000002 6.4369389999999997 5.7116759999999998 O
atom 2.3016230000000002 3.8502269999999998 3.0431789999999999 O
atom 2.2791090000000001 3.8429370000000000 8.3006469999999997 O
atom 2.3813680000000002 8.8736110000000004 3.1651760000000002 O
atom 2.3117160000000001 8.9553189999999994 8.3322199999999995 O
atom 2.2615370000000001 3.8913730000000002 0.4397210000000000 O
atom 2.3147139999999999 3.8886539999999998 5.6747249999999996 O
atom 2.4823379999999999 8.8804529999999993 0.3803620000000000 O
atom 2.2842199999999999 9.0104659999999992 5.7328619999999999 O
atom 5.3983299999999996 1.6860160000000000 1.7271110000000001 O
atom 5.3793090000000001 1.6815439999999999 6.9622299999999999 O
atom 5.4126260000000004 6.7906760000000004 1.7615140000000000 O
atom 5.4048860000000003 6.7885689999999999 6.9866409999999997 O
atom 5.3448279999999997 0.8749810000000000 4.3597169999999998 O
atom 5.4389770000000004 0.8338980000000000 9.5983020000000003 O
atom 5.4022090000000000 6.0266900000000003 4.3710550000000001 O
atom 5.3914450000000000 6.0032909999999999 9.6100490000000001 O
atom 9.7535209999999992 4.3981240000000001 1.5977809999999999 O
atom 9.8030880000000007 4.5240809999999998 6.9157080000000004 O
atom 9.4941759999999995 9.4683750000000000 1.7092909999999999 O
atom 9.7798680000000004 9.5107049999999997 6.9155879999999996 O
atom 9.9448369999999997 3.4902890000000002 4.1572110000000002 O
atom 9.7483839999999997 3.3727740000000002 9.4064320000000006 O
atom 9.8162509999999994 8.5733390000000007 4.3055389999999996 O
atom 9.8406110000000009 8.5454919999999994 9.5881869999999996 O
atom 7.8905079999999996 1.2393840000000000 10.0111919999999994 O
atom 7.6969459999999996 1.1584410000000001 4.7061469999999996 O
atom 7.8506999999999998 6.3866769999999997 9.9736449999999994 O
atom 7.9012500000000001 6.4078340000000003 4.7496359999999997 O
atom 7.8572800000000003 1.3185300000000000 2.1351700000000000 O
atom 7.6851929999999999 1.1174800000000000 7.4879610000000003 O
atom 7.8667299999999996 6.4444350000000004 2.1203159999999999 O
atom 7.8805880000000004 6.4483389999999998 7.3535360000000001 O
atom 7.3385759999999998 3.8275920000000001 9.9829799999999995 O
atom 7.3145600000000002 3.8879649999999999 4.6456549999999996 O
atom 7.3633600000000001 8.9602059999999994 9.9976769999999995 O
atom 7.3461770000000000 8.9442299999999992 4.7910560000000002 O
atom 7.3415809999999997 3.8661500000000002 2.1014290000000000 O
atom 7.2622159999999996 3.9236949999999999 7.4459830000000000 O
atom 7.2175430000000000 9.0043030000000002 2.1735750000000000 O
atom 7.3767500000000004 8.9377680000000002 7.3766980000000002 O
