lattice_vector 10.1921193799999994 -0.0254335000000000 -0.0141708300000000 
lattice_vector 0.0128729200000000 5.2081404100000004 -0.0312735900000000 
lattice_vector 0.0200987600000000 -0.0331757900000000 10.1813818600000001 
atom 1.2421799899999999 0.0337337400000000 1.2052331700000001 La
atom 1.3438339900000000 0.0857802200000000 6.3417928300000002 Hf
atom 6.4570864900000000 0.1351536600000000 1.2567868799999999 Hf
atom 6.5448081100000000 0.1310582400000000 6.4098376200000002 Hf
atom 1.3434542199999999 2.4100127499999999 3.8055890099999998 Hf
atom 1.4473874900000001 2.4105783000000001 8.8353179599999994 Hf
atom 6.4651171200000004 2.3775953099999998 3.7995095299999999 Hf
atom 6.5763301099999998 2.3742877400000002 8.9471892700000009 Hf
atom 3.7691582900000000 2.7007500400000000 1.2323243699999999 Hf
atom 3.8692890499999999 2.6151528499999999 6.2756571100000000 La
atom 8.7602670099999997 2.7463818299999998 1.2998769500000000 Hf
atom 8.8486400199999995 2.7172411200000002 6.3281340699999999 Hf
atom 3.6865713000000002 5.0266495999999998 3.7253715900000000 Hf
atom 3.7915605800000001 4.9925499799999997 8.8779370800000006 Hf
atom 8.7504975100000006 4.9905915099999998 3.8385191600000002 Hf
atom 8.8611928700000000 4.9597057099999997 8.8702804400000002 Hf
atom 0.2912338800000000 2.0858966900000002 2.0438918600000000 O
atom 0.4011225900000000 1.9286272700000000 6.9633638199999996 O
atom 5.4898665299999996 1.8740585800000000 1.9549365299999999 O
atom 5.8005556299999999 1.8945782000000000 7.1406478800000004 O
atom 0.2374671500000000 0.6897358200000000 4.4943170200000004 O
atom 0.2844074200000000 0.8168014800000000 9.3881662800000001 O
atom 5.3310167499999999 0.7908981600000000 4.6494438599999999 O
atom 5.5068196399999998 0.6632942100000000 9.6344551000000003 O
atom 4.7230715600000002 4.5383380300000002 1.8519527499999999 O
atom 4.8342020699999999 4.6607624899999998 7.1131254600000000 O
atom 9.5137669299999992 4.5071234999999996 2.0272893600000002 O
atom 9.8256866600000006 4.4510772300000001 7.0225373700000002 O
atom 4.8430614700000003 3.4265688000000001 4.2753341599999999 O
atom 4.8911968200000002 3.2664095899999999 9.5641930399999993 O
atom 9.8128722300000000 3.2732147500000002 4.5210241099999999 O
atom 9.9900363599999995 3.3674492599999999 9.7168914199999996 O
atom 2.8409373800000002 1.2544484700000000 2.5181136700000000 O
atom 2.6434951899999999 1.0648934200000000 7.6493086200000002 O
atom 7.7979632199999998 1.1997203500000000 2.5575710699999998 O
atom 8.0091511600000000 1.1723138900000001 7.6267398000000002 O
atom 2.5778665300000001 1.2258740600000000 4.9757322899999998 O
atom 2.8554728599999999 1.3420244500000000 10.0681526399999992 O
atom 7.8100438099999998 1.3298268000000000 5.0873738599999996 O
atom 7.8981397199999996 1.2984069300000001 10.1846047100000003 O
atom 2.2780890299999998 3.9640654899999999 4.9627593499999998 O
atom 2.5551097600000001 3.8132846100000002 10.0509938299999995 O
atom 7.4267315299999996 3.9201569100000002 5.0792153500000001 O
atom 7.5157094100000004 3.9182434000000002 10.1629212399999993 O
atom 2.4791109499999999 3.6868258300000001 2.5431469799999999 O
atom 2.2805161799999998 3.8431801700000001 7.5939828199999999 O
atom 7.3052330500000000 3.7949648400000000 2.5214540099999998 O
atom 7.5172770800000004 3.7879497899999999 7.6329578600000003 O
