lattice_vector 10.1246764999999996 0.0994201400000000 0.7827752600000000 
lattice_vector 0.0517530200000000 10.2274632000000008 0.0300343600000000 
lattice_vector 0.8394037000000000 0.0208474100000000 10.5041619799999992 
atom 1.3476080399999999 0.0523302300000000 1.8142642099999999 Si
atom 1.8418436400000000 0.2366789000000000 6.8591984799999999 Hf
atom 1.5739507900000000 5.3383825099999997 1.6019714700000001 Hf
atom 1.9557317700000001 5.3458633000000004 6.8935810100000001 Hf
atom 6.5699010800000002 0.2309194700000000 2.0178958499999999 Hf
atom 6.9783509700000002 0.3422704200000000 7.2665935599999996 Hf
atom 6.6728876899999996 5.3418756500000004 2.0444467000000000 Hf
atom 6.9914959100000003 5.4366285599999999 7.3202119799999998 Hf
atom 1.6528915900000001 2.4862130499999999 4.0679705600000000 La
atom 2.1864387299999999 2.2805297100000002 9.5660129200000004 Hf
atom 1.6759431800000000 7.5460212999999996 4.2976353999999999 Hf
atom 2.1380959000000002 7.4817494900000003 9.4908897700000008 Hf
atom 6.5894271699999996 2.6500365200000000 4.4776885999999996 La
atom 7.2711463099999998 2.4169213799999998 9.9418437900000001 Hf
atom 6.8074013700000000 7.5767838100000002 4.6824526200000003 Hf
atom 7.2225937199999999 7.5061073199999999 9.9559047899999999 Hf
atom 3.7967772700000002 2.7481169300000001 1.3237655600000000 Hf
atom 4.0850072500000003 2.6969510400000001 6.8040938700000000 Hf
atom 3.7146032099999999 8.0101115299999996 1.3668029600000000 Hf
atom 4.1717939299999998 7.9744488400000000 6.6618210600000003 Hf
atom 8.9977433399999995 2.7772494499999998 1.8411622900000000 Hf
atom 9.1954670899999993 2.9125025299999998 7.0751982199999999 Hf
atom 8.8667449400000002 7.9862485599999999 1.7895597800000000 Hf
atom 9.1921539800000005 7.9806892500000002 7.0756698299999998 Hf
atom 3.9681109499999998 5.1850996299999998 3.9071897500000001 Hf
atom 4.3994692899999999 4.9521057099999997 9.2624796600000003 Hf
atom 3.9116611699999999 10.0490990199999999 3.9672269899999999 Hf
atom 4.4321032000000002 10.1172423600000005 9.2998390499999992 Hf
atom 9.0979597200000004 5.1031928799999999 4.4471461400000001 Hf
atom 9.5010623200000008 4.9561952700000003 9.7103721400000005 Hf
atom 9.0001644800000005 10.1417208300000006 4.4404547100000000 Hf
atom 9.4576950199999992 10.1089437499999999 9.6709877199999994 Hf
atom 0.6247793500000000 1.4003552500000001 0.8685146800000000 O
atom 0.7156487000000000 1.6308404000000001 6.0771957099999998 O
atom 0.3590368400000000 6.6805575399999997 0.7384573100000000 O
atom 0.7667456700000000 6.7311442200000000 6.0574197500000002 O
atom 5.5004691100000001 1.6716974300000000 1.1610474900000001 O
atom 5.8059382499999996 1.7934271700000000 6.5168091900000000 O
atom 5.4242199400000004 6.7368704299999997 1.2554046200000000 O
atom 5.8805179200000000 6.8874353800000003 6.4839490900000003 O
atom 0.6087301300000000 0.6527566800000000 3.2885749000000000 O
atom 0.9718288100000000 0.9012584600000000 8.6916242100000005 O
atom 0.6391369900000000 6.1071982299999998 3.3442832199999999 O
atom 1.0536394800000000 6.0453814699999997 8.6434895600000008 O
atom 5.5509931999999997 0.8338451800000000 3.7341889199999998 O
atom 6.1147163000000004 0.9695391900000000 9.0795985899999998 O
atom 5.8213468900000001 5.8990502100000004 3.9775206299999999 O
atom 6.0688317100000004 6.1063448200000003 9.0872739700000000 O
atom 5.2009782400000004 3.9363729400000000 2.6342076099999998 O
atom 5.3129827399999998 4.2440382200000002 7.4714631400000000 O
atom 4.9190525999999997 9.2948512000000001 2.2218269799999999 O
atom 5.2934389800000003 9.4565466399999991 7.4529106199999999 O
atom 10.2887913999999991 4.0407140300000002 2.8605413999999998 O
atom 10.4793200100000004 4.2084435300000003 8.0455860500000007 O
atom 10.0702748999999994 9.3773544100000006 2.5756159200000002 O
atom 10.3657126399999999 9.3967347700000001 7.8952304599999996 O
atom 5.6573145599999997 3.6788559699999999 10.2326225100000006 O
atom 5.0160746999999999 8.5437508999999991 4.7969253500000004 O
atom 5.4817923000000004 8.6053307599999993 10.1095711000000001 O
atom 10.1857797899999998 3.9489360699999998 5.5858929000000002 O
atom 10.7013255100000002 3.5990869900000000 10.6709681100000005 O
atom 10.0847013299999997 8.6594411600000001 5.2913936000000001 O
atom 10.5732886799999992 8.6523049899999993 10.4915078600000005 O
atom 2.8594285600000000 1.1177861600000001 2.3744986199999998 O
atom 3.2875295900000001 1.2760391499999999 7.9733498799999998 O
atom 3.0242241900000000 6.5502539100000003 2.7418141899999999 O
atom 3.4097237100000002 6.4396170300000000 7.9538718199999998 O
atom 8.0638434100000005 1.3505144800000000 3.0549782599999999 O
atom 8.4493145900000002 1.4098026500000000 8.3985685100000005 O
atom 8.0431371600000006 6.5650573400000001 3.1212470400000001 O
atom 8.4808505499999995 6.4967136400000003 8.4213556399999998 O
atom 3.2918594699999999 1.2564856600000001 5.3779408599999998 O
atom 3.9026689600000002 1.5554318400000000 10.3359608600000001 O
atom 3.1467494700000000 6.4576360099999999 5.3571919499999998 O
atom 3.6242694200000001 6.4831217700000003 10.5924605300000003 O
atom 8.3023873699999999 1.3431203100000000 5.7825192999999997 O
atom 8.7386717399999991 1.3169657100000001 11.0110446900000003 O
atom 8.2614312499999993 6.5120458799999996 5.7710608099999998 O
atom 8.7011084299999997 6.4235034899999999 11.0225894600000007 O
atom 2.3324709299999999 3.9369476900000002 0.2381698100000000 O
atom 3.2593296199999999 3.9754858000000000 5.4477655499999997 O
atom 2.2630398899999999 9.3416981299999993 0.4649912800000000 O
atom 2.6611073699999999 9.0267643100000008 5.5482896000000004 O
atom 7.4545374300000002 3.8795992699999999 0.7207994200000000 O
atom 7.7692732299999996 4.0655020000000004 5.9828656200000001 O
atom 7.3524792799999998 9.0172569899999999 0.7031629700000001 O
atom 7.7100590899999997 9.0799586300000001 5.9604039100000001 O
atom 2.7945698499999998 4.0041529799999998 2.7233527000000000 O
atom 2.9232691399999999 3.7961270800000002 8.1877916899999992 O
atom 2.3610333899999998 8.9739273700000002 2.8734927400000001 O
atom 2.9503896500000000 8.9296951599999996 8.2309120599999996 O
atom 7.9073201900000001 4.0089501299999997 3.1866303399999998 O
atom 8.0214157400000001 3.9093206500000002 8.6123613100000007 O
atom 7.6212130399999998 9.0052316300000008 3.3374487700000000 O
atom 7.9614051999999997 8.9880222100000005 8.5913994099999993 O
