lattice_vector 5.1065254800000002 -0.0305037700000000 0.3825442600000000 
lattice_vector -0.0524338200000000 10.4809340800000008 -0.0209009700000000 
lattice_vector 0.8667671300000001 0.0175365800000000 10.4832903799999997 
atom 1.4593214200000000 0.1289862800000000 1.5705350899999999 La
atom 2.0430055800000000 0.2205501800000000 6.8301619300000000 Hf
atom 1.5016590700000001 5.4258474300000001 1.6461231500000000 Hf
atom 1.9716698300000000 5.4719160300000000 6.8590020999999997 Hf
atom 1.7269298099999999 2.3918591100000000 4.2796284499999997 Hf
atom 2.1599021299999999 2.5495337299999998 9.4863426600000000 Hf
atom 1.7011353800000000 7.5816565200000001 4.2607071599999999 Hf
atom 2.2336667299999999 7.6024407800000002 9.4535738299999998 Hf
atom 3.6872186299999998 2.8654126000000000 1.3913853400000000 Hf
atom 4.2198004899999999 2.8861713899999999 6.5842147700000000 Hf
atom 3.7609191499999999 7.9185404200000002 1.3585728100000001 Hf
atom 4.1938762399999998 8.0762563699999994 6.5652749699999999 Hf
atom 3.9490917099999998 4.9960844099999999 3.9859238000000001 Hf
atom 4.4190981999999996 5.0421330199999996 9.1987976299999996 Hf
atom 3.8779701200000001 10.2473821600000008 4.0148128900000000 Hf
atom 4.4615961500000001 10.3389689300000001 9.2744092400000007 La
atom 0.3076625100000000 1.9672715199999999 0.7894962900000000 O
atom 0.8629897600000001 1.8153469000000000 6.1742990100000004 O
atom 0.4618796600000000 6.9952063400000002 0.9316004000000000 O
atom 0.8406212700000000 7.0172244099999999 6.1082352499999999 O
atom 0.5653837000000000 0.8519663000000000 3.6543199899999999 O
atom 1.4684458600000001 0.7597177400000000 8.7977423899999998 O
atom 0.6035691000000000 6.0598601099999998 3.5087491900000001 O
atom 1.1108405200000000 6.0370673200000002 8.7120233200000001 O
atom 4.8099298099999999 4.4308914200000000 2.1329166599999998 O
atom 5.3172122499999999 4.4080962599999998 7.3361822999999999 O
atom 4.4524766299999996 9.7082422400000006 2.0472023500000001 O
atom 5.3555570699999997 9.6160161100000003 7.1906291400000004 O
atom 5.0801450600000004 3.4507977699999999 4.7366932999999998 O
atom 5.4588980600000001 3.4728013199999999 9.9133508500000005 O
atom 5.0579859500000000 8.6525495699999997 4.6706098000000003 O
atom 5.6132734600000003 8.5006768899999994 10.0554302000000000 O
atom 3.0362702700000002 1.4389191299999999 2.8460185600000001 O
atom 3.4368588099999999 1.4970717200000001 7.8690547999999998 O
atom 2.9749246899999999 6.5064357599999996 2.7367616300000002 O
atom 3.4821733199999998 6.5778730400000001 7.9359504300000001 O
atom 3.1983991899999999 1.2585092000000000 5.3569210399999996 O
atom 3.5922060899999999 1.5457045500000000 10.6121662400000005 O
atom 3.2043134200000001 6.4921041800000001 5.3390905499999999 O
atom 3.6710557900000000 6.4337980200000002 10.5894087100000007 O
atom 2.2498528000000002 4.0341557300000002 0.2556282700000000 O
atom 2.7166162699999998 3.9758461999999999 5.5059695399999997 O
atom 2.3285908599999998 8.9222726600000009 0.2326974700000000 O
atom 2.7223737099999998 9.2094798400000002 5.4878831799999999 O
atom 2.4386949000000002 3.8901210300000000 2.9088644200000000 O
atom 2.9459518600000001 3.9615089100000000 8.1080234699999991 O
atom 2.4840118699999998 8.9709202700000006 2.9759818500000002 O
atom 2.8845856799999998 9.0290136099999998 7.9990415700000002 O
