lattice_vector 10.1103550000000002 -0.0215100000000000 -0.0944130000000000 
lattice_vector 0.0033990000000000 10.2780699999999996 -0.0096850000000000 
lattice_vector -0.0474620000000000 -0.0401940000000000 10.4943609999999996 
atom 1.1825520000000000 0.0217470000000000 1.5964689999999999 La
atom 1.1585989999999999 0.0014610000000000 6.8432110000000002 La
atom 1.4042800000000000 5.3564420000000004 1.7309200000000000 Hf
atom 1.3806740000000000 5.3363430000000003 6.9781820000000003 Hf
atom 1.3939049999999999 2.3666049999999998 4.3358230000000004 Hf
atom 1.3701680000000001 2.3463289999999999 9.5828869999999995 Hf
atom 1.3704890000000001 7.5097839999999998 4.3631240000000000 Hf
atom 1.3461770000000000 7.4902340000000001 9.6103609999999993 Hf
atom 3.6014390000000001 2.7279860000000000 1.7291060000000000 Hf
atom 3.5776990000000000 2.7078099999999998 6.9763669999999998 Hf
atom 3.6916560000000000 7.8911629999999997 1.7234490000000000 Hf
atom 3.6680020000000000 7.8710779999999998 6.9707489999999996 Hf
atom 3.6162830000000001 4.8918609999999996 4.3543849999999997 Hf
atom 3.5923280000000002 4.8718070000000004 9.6015350000000002 Hf
atom 3.6662119999999998 10.0630369999999996 4.3106960000000001 Hf
atom 3.6423250000000000 10.0428280000000001 9.5578070000000004 Hf
atom 6.4521040000000003 0.2102880000000000 0.7900960000000000 Hf
atom 6.4284929999999996 0.1900330000000000 6.0374049999999997 Hf
atom 6.4314190000000000 5.3149329999999999 0.7322800000000000 Hf
atom 6.4077669999999998 5.2948100000000000 5.9795610000000003 Hf
atom 6.4405570000000001 2.3384710000000002 3.3701819999999998 Hf
atom 6.4168120000000002 2.3183300000000000 8.6173540000000006 Hf
atom 6.4441110000000004 7.4584859999999997 3.3750520000000002 Hf
atom 6.4204520000000000 7.4382679999999999 8.6221650000000007 Hf
atom 8.6774050000000003 2.8065400000000000 0.7136830000000000 Hf
atom 8.6537670000000002 2.7864659999999999 5.9607559999999999 Hf
atom 8.6837119999999999 7.8634529999999998 0.8203560000000000 Hf
atom 8.6600629999999992 7.8432659999999998 6.0673069999999996 Hf
atom 8.6870639999999995 4.9222510000000002 3.3445800000000001 Hf
atom 8.6634770000000003 4.9021660000000002 8.5918489999999998 Hf
atom 8.6507950000000005 10.0089159999999993 3.4886210000000002 Hf
atom 8.6270869999999995 9.9889309999999991 8.7358919999999998 Hf
atom 0.3433210000000000 1.9574760000000000 0.8496030000000000 O
atom 0.3196410000000000 1.9374870000000000 6.0970440000000004 O
atom 0.2906600000000000 6.7431179999999999 0.7384620000000000 O
atom 0.2671310000000000 6.7231740000000002 5.9856790000000002 O
atom 0.1937150000000000 0.9286980000000000 3.5976279999999998 O
atom 0.1702040000000000 0.9083380000000000 8.8445309999999999 O
atom 0.2713780000000000 6.0983020000000003 3.3924940000000001 O
atom 0.2478130000000000 6.0781559999999999 8.6397700000000004 O
atom 4.7191850000000004 4.2245090000000003 0.7862670000000000 O
atom 4.6956680000000004 4.2043970000000002 6.0335450000000002 O
atom 4.7749860000000002 9.3961640000000006 0.7939210000000000 O
atom 4.7513779999999999 9.3760870000000001 6.0411999999999999 O
atom 4.7184520000000001 3.4354200000000001 3.4110190000000000 O
atom 4.6947789999999996 3.4153490000000000 8.6582790000000003 O
atom 4.7900049999999998 8.5966240000000003 3.3889600000000000 O
atom 4.7664869999999997 8.5766320000000000 8.6361249999999998 O
atom 2.7948439999999999 1.2850470000000001 3.0365020000000000 O
atom 2.7711980000000001 1.2648969999999999 8.2835830000000001 O
atom 2.7736790000000000 6.3733380000000004 3.0165210000000000 O
atom 2.7499419999999999 6.3533010000000001 8.2635039999999993 O
atom 2.8587340000000001 1.3514330000000001 0.3034740000000000 O
atom 2.8350559999999998 1.3312820000000001 5.5505730000000000 O
atom 2.7478319999999998 6.3985010000000004 0.3865510000000000 O
atom 2.7243889999999999 6.3783070000000004 5.6337539999999997 O
atom 2.2396280000000002 3.8375360000000001 3.0270609999999998 O
atom 2.2158460000000000 3.8174020000000000 8.2741950000000006 O
atom 2.3640330000000001 8.8810520000000004 3.0491150000000000 O
atom 2.3402120000000002 8.8609679999999997 8.2961259999999992 O
atom 2.2603939999999998 3.8816660000000001 0.4127320000000000 O
atom 2.2368429999999999 3.8615059999999999 5.6599930000000001 O
atom 2.4914999999999998 8.8577209999999997 0.3035320000000000 O
atom 2.4678700000000000 8.8375050000000002 5.5506799999999998 O
atom 5.3893480000000000 1.6902010000000001 1.6764079999999999 O
atom 5.3656910000000000 1.6701010000000001 6.9236700000000004 O
atom 5.3765060000000000 6.7753459999999999 1.6895690000000001 O
atom 5.3528859999999998 6.7552690000000002 6.9368210000000001 O
atom 5.4146210000000004 0.8352640000000000 4.2817550000000004 O
atom 5.3907600000000002 0.8152509999999999 9.5290110000000006 O
atom 5.3424290000000001 6.0084689999999998 4.3147380000000002 O
atom 5.3185539999999998 5.9885159999999997 9.5619589999999999 O
atom 9.7441910000000007 4.2926229999999999 1.6386010000000000 O
atom 9.7205189999999995 4.2725020000000002 6.8857900000000001 O
atom 9.7172090000000004 8.7779939999999996 2.2875850000000000 O
atom 9.6941170000000003 8.7568260000000002 7.5356420000000002 O
atom 9.7503050000000009 3.4842960000000001 4.2406779999999999 O
atom 9.7265180000000004 3.4641180000000000 9.4877529999999997 O
atom 9.9189139999999991 8.9203419999999998 4.8234159999999999 O
atom 9.8948429999999998 8.8997539999999997 10.0701680000000007 O
atom 7.7700659999999999 1.2484020000000000 10.0088080000000001 O
atom 7.7936920000000001 1.2684660000000001 4.7615559999999997 O
atom 7.7970879999999996 6.3588870000000002 9.9474280000000004 O
atom 7.8207779999999998 6.3790250000000004 4.7001150000000003 O
atom 7.8805500000000004 1.2553840000000001 2.1175519999999999 O
atom 7.8569529999999999 1.2351449999999999 7.3646630000000002 O
atom 7.7839369999999999 6.3911629999999997 2.0747080000000002 O
atom 7.7604430000000004 6.3709650000000000 7.3218889999999996 O
atom 7.2626549999999996 3.8137919999999998 9.9150580000000001 O
atom 7.2863899999999999 3.8340250000000000 4.6677980000000003 O
atom 7.3165170000000002 8.8912969999999998 9.9838159999999991 O
atom 7.3400119999999998 8.9116269999999993 4.7366180000000000 O
atom 7.3102859999999996 3.8395090000000001 2.0577510000000001 O
atom 7.2866730000000004 3.8193030000000001 7.3048919999999997 O
atom 7.2636640000000003 9.0142270000000000 2.0922980000000000 O
atom 7.2402300000000004 8.9940160000000002 7.3394560000000002 O
