lattice_vector 9.9075549600000006 -0.0098700800000000 0.0618429000000000 
lattice_vector 0.0193318000000000 10.3894995399999992 -0.0455369100000000 
lattice_vector 0.0290865100000000 -0.1337911700000000 9.9639460700000004 
atom 1.1297092000000000 0.2655989900000000 1.1784378300000000 Si
atom 1.1438679300000001 0.1984459100000000 6.1604359500000001 Si
atom 1.3483122700000001 5.3030110600000002 1.2103035499999999 Hf
atom 1.3626942900000001 5.2358671200000000 6.1921743999999999 Hf
atom 6.2474352199999998 0.1343702500000000 1.2668984000000001 Hf
atom 6.2619140000000000 0.0674344700000000 6.2487575900000003 Hf
atom 6.2786971100000004 5.3804984700000000 1.2596578800000000 Hf
atom 6.2932970099999999 5.3134757500000003 6.2415779699999998 Hf
atom 1.3201289599999999 2.3584981200000001 3.6264345800000002 Hf
atom 1.3345492500000000 2.2914035600000000 8.6082530399999992 Hf
atom 1.3061803299999999 7.5177711699999996 3.7391003199999999 Hf
atom 1.3204104299999999 7.4504987600000003 8.7206556400000004 Hf
atom 6.3028043599999997 2.3634163899999998 3.7571363199999999 Hf
atom 6.3171948300000000 2.2964178500000001 8.7391728600000000 Hf
atom 6.2888308600000000 7.6416813899999996 3.7546834200000001 Hf
atom 6.3033242700000001 7.5747329499999996 8.7366999599999993 Hf
atom 3.6629212199999999 2.7248041000000001 1.1444101799999999 Hf
atom 3.6776801699999999 2.6580228799999999 6.1262369300000001 Hf
atom 3.6192503100000000 7.9837137299999998 1.3061837999999999 Hf
atom 3.6339010100000002 7.9167134600000004 6.2883420799999996 Hf
atom 8.5746805100000003 2.7409230999999998 1.2519859400000000 Hf
atom 8.5890667199999999 2.6739084300000000 6.2339042400000002 Hf
atom 8.6634804899999995 7.9495609700000003 1.2332043699999999 Hf
atom 8.6777593100000008 7.8825367200000001 6.2150857400000001 Hf
atom 3.6763703900000002 4.9980398499999996 3.7125961799999998 Hf
atom 3.6908586099999998 4.9309184000000004 8.6945957699999994 Hf
atom 3.5733671600000001 10.1918970200000008 3.7611858400000000 Hf
atom 3.5877559200000002 10.1250554800000003 8.7431254299999992 Hf
atom 8.5698428599999996 4.9736819600000004 3.7504189000000001 Hf
atom 8.5842899799999994 4.9065804200000001 8.7324999400000003 Hf
atom 8.6795123899999993 10.2108692399999992 3.7198943099999999 Hf
atom 8.6939319099999999 10.1439424999999996 8.7018357599999998 Hf
atom 0.2960611300000000 1.7592965500000000 1.8901365600000000 O
atom 0.3102965100000000 1.6922340800000000 6.8721887300000004 O
atom 0.3635910900000000 7.0475752399999996 1.9370888500000001 O
atom 0.3778408400000000 6.9804515699999996 6.9189679200000000 O
atom 5.2310243300000003 1.8543761299999999 2.0310042500000001 O
atom 5.2453897700000001 1.7872628699999999 7.0131087599999997 O
atom 5.2908885000000003 7.0862714300000000 2.0082024700000001 O
atom 5.3052826299999998 7.0191590100000001 6.9903016300000003 O
atom 0.4080246100000000 0.6244046599999999 4.6309950600000001 O
atom 0.4221890200000000 0.5575471700000000 9.6131229400000002 O
atom 0.3216556100000000 5.8020588000000002 4.4561668000000001 O
atom 0.3359232800000000 5.7352669100000000 9.4382765800000001 O
atom 5.2830996199999998 0.6946123600000000 4.5310894199999998 O
atom 5.2976234299999998 0.6275008399999999 9.5131101499999993 O
atom 5.3238418699999999 5.8963143400000000 4.4518015899999996 O
atom 5.3383875099999996 5.8292774900000000 9.4336057199999992 O
atom 4.6176518299999998 4.4765347499999999 1.9162263500000001 O
atom 4.6322366800000001 4.4096350199999996 6.8981826100000001 O
atom 4.7090439300000000 9.6487757100000007 2.0748273500000001 O
atom 4.7235307799999999 9.5817419499999996 7.0568243600000002 O
atom 9.6060753000000005 4.4082537200000003 2.0043953700000001 O
atom 9.6204687199999999 4.3411445200000003 6.9864968000000003 O
atom 9.8547665500000008 9.6984628199999996 1.9435761100000000 O
atom 9.8689323600000005 9.6313201500000005 6.9254910100000000 O
atom 4.6874598799999996 3.3144159300000000 4.4495050699999998 O
atom 4.7019177200000000 3.2473809299999998 9.4315830399999996 O
atom 4.6424826799999996 8.5292605800000008 4.5667660200000002 O
atom 4.6571790100000001 8.4624199600000001 9.5486273700000002 O
atom 9.5649863699999997 3.1934174400000002 4.4388679399999997 O
atom 9.5793109600000008 3.1262099499999998 9.4206466500000001 O
atom 9.5767675200000006 8.4509703599999995 4.4268190199999999 O
atom 9.5913673900000003 8.3840208999999994 9.4087767200000005 O
atom 2.4022243900000002 0.8922596400000000 2.2640672600000000 O
atom 2.4163417699999998 0.8247690500000000 7.2459483799999997 O
atom 2.6530943900000001 6.2676827299999998 2.4657210699999998 O
atom 2.6674625299999999 6.2002978600000000 7.4476523500000003 O
atom 7.6240702400000000 1.1584609800000001 2.4821312899999999 O
atom 7.6384069200000004 1.0914204800000000 7.4641095499999999 O
atom 7.6493517200000003 6.3728217599999999 2.4966479100000001 O
atom 7.6638837500000001 6.3057401799999999 7.4786099300000002 O
atom 2.7594237800000001 1.4725619000000001 4.7405385000000004 O
atom 2.7737921499999998 1.4057195000000000 9.7223067200000006 O
atom 2.6842702100000002 6.5778705700000000 4.9768137100000001 O
atom 2.6986772100000000 6.5112592999999999 9.9586639699999999 O
atom 7.6615703100000001 1.3175188300000000 4.9701878500000003 O
atom 7.6758921700000000 1.2506382400000000 9.9522726600000002 O
atom 7.6381625099999999 6.5624805300000002 4.9917300999999998 O
atom 7.6527245400000004 6.4955994600000002 9.9738049800000006 O
atom 2.3019844900000002 3.9589609000000001 4.8923974799999996 O
atom 2.3164255599999999 3.8920757799999999 9.8743554200000005 O
atom 2.2158903099999998 9.3839992100000007 5.3168911999999997 O
atom 2.2307214700000002 9.3176421699999992 10.2990250999999997 O
atom 7.2628086400000003 3.9309696700000001 4.9949580100000004 O
atom 7.2771814299999997 3.8640079599999999 9.9769762899999996 O
atom 7.3067163800000001 9.1618172700000002 4.9479451100000000 O
atom 7.3213041700000003 9.0949247700000004 9.9299172900000006 O
atom 2.3274314399999998 3.6677405500000000 2.4087200499999999 O
atom 2.3419652900000001 3.6004767499999999 7.3906053500000004 O
atom 2.5035748299999998 8.7522627400000008 2.7918389399999999 O
atom 2.5181458999999999 8.6850881100000006 7.7739602799999998 O
atom 7.2253362000000001 3.7696821100000002 2.4891631500000000 O
atom 7.2397462099999998 3.7026861000000002 7.4710905299999997 O
atom 7.3836212999999997 8.9765402099999996 2.4682754299999998 O
atom 7.3978278800000004 8.9095954600000002 7.4500846500000000 O
