lattice_vector 10.0573470599999997 0.0491285400000000 0.7818634100000000 
lattice_vector 0.0582526200000000 10.2602664400000005 0.0175548300000000 
lattice_vector 0.8294269600000000 -0.0043733600000000 10.4293526399999994 
atom 1.3532343899999999 0.1771042600000000 1.7518581600000001 Si
atom 1.8762531600000001 0.2341920200000000 6.8126222500000004 Hf
atom 1.5592010800000000 5.3475706100000000 1.6447980200000001 Hf
atom 1.9484902000000000 5.3186505200000003 6.8508121300000004 Hf
atom 6.5736633199999996 0.2353726700000000 2.0356994899999998 Hf
atom 6.9540294800000000 0.2605745800000000 7.2341991300000004 Hf
atom 6.5515543000000003 5.3284610299999997 1.9963655400000000 Hf
atom 6.9573419899999998 5.4269925600000004 7.2250579200000002 Hf
atom 1.6610757100000000 2.3879575300000000 4.1887522099999996 Hf
atom 2.1819468299999998 2.3146264699999999 9.4157513599999998 Hf
atom 1.7737556600000000 7.4471603399999999 4.2597281100000002 Hf
atom 2.1307323299999998 7.4444011699999999 9.4664127800000006 Hf
atom 6.7638872699999997 2.3750490900000001 4.6144631599999997 Hf
atom 7.2031196700000004 2.3722466500000001 9.8583850799999997 Hf
atom 6.5265331399999997 7.7193666500000004 4.4970568599999998 La
atom 7.1823948800000004 7.5117272699999997 9.8768723000000005 Hf
atom 3.6997856699999998 2.7525855400000001 1.3128125300000000 Hf
atom 4.1427529700000001 2.8035935500000000 6.5682243900000001 Hf
atom 3.7181086300000001 7.9895508900000003 1.4253745700000000 Hf
atom 4.0791419299999996 7.9116655800000002 6.7450195099999997 Hf
atom 8.8597529700000006 2.7773327100000000 1.7958958899999999 Hf
atom 9.1277721900000000 2.8484033000000002 6.9712458000000002 Hf
atom 8.8388823999999993 7.9731721100000001 1.7691784399999999 Hf
atom 9.1766537199999991 7.9279337600000002 6.9859895700000001 Hf
atom 3.9503341500000002 4.8842541800000001 3.9544777999999998 Hf
atom 4.3838504599999997 4.9300601899999998 9.2138202299999996 Hf
atom 3.8492913000000000 10.1310482999999998 3.9458361100000001 Hf
atom 4.3988223199999998 10.1411419699999996 9.2342991199999993 Hf
atom 8.9172272600000007 5.0178874699999998 4.3643970100000002 Hf
atom 9.3856780299999993 4.9287137400000001 9.6102909000000007 Hf
atom 9.0792196100000009 10.1025385300000003 4.4063076700000003 Hf
atom 9.4144974500000007 10.0804650400000000 9.5869219599999997 Hf
atom 0.6305938900000000 1.5208450600000001 0.8856189300000000 O
atom 0.7798891400000000 1.6861889200000000 5.9862528199999998 O
atom 0.4844047200000000 6.8529359599999999 0.8664631900000000 O
atom 0.8980323000000000 6.8569250000000004 6.1009963699999998 O
atom 5.4466646399999998 1.6916516300000000 1.2543235900000000 O
atom 5.8874546199999997 1.7788834899999999 6.4691773100000001 O
atom 5.4691315100000004 6.8806499299999997 1.2768634800000001 O
atom 5.7889178899999996 6.9132818100000000 6.5668072600000000 O
atom 0.7087916100000000 0.8028565500000000 3.3342477300000000 O
atom 1.0205985500000001 0.8651084600000000 8.6234178400000001 O
atom 0.6609781600000000 5.9616792600000004 3.4767897799999998 O
atom 1.0547103000000000 5.9653209800000004 8.6981795999999996 O
atom 5.6695868000000003 0.7486677400000000 3.9251606799999998 O
atom 6.1234260999999996 0.8455767400000000 9.0707666499999995 O
atom 5.7104956800000002 5.7638695300000000 3.8499671700000002 O
atom 6.0846401900000000 6.0227222899999999 9.0843492399999999 O
atom 4.8034913799999996 4.2759739200000002 2.0988649300000000 O
atom 5.2250385599999998 4.3243330899999997 7.3591591000000003 O
atom 5.0168069400000004 9.2031615000000002 2.4468398499999999 O
atom 5.2559923499999996 9.4584263699999997 7.3356964600000003 O
atom 9.9243681000000006 4.2838576799999997 2.5744427399999998 O
atom 10.2875443600000001 4.2988780699999998 7.7921172500000004 O
atom 10.0974243599999998 9.4730646299999997 2.5758918199999998 O
atom 10.3165942699999995 9.4243210499999996 7.7925754600000001 O
atom 4.9836142600000004 3.3281902300000001 4.7158506700000000 O
atom 5.5352756599999999 3.4873150800000001 9.9946488999999996 O
atom 5.4224462100000004 8.6067570199999999 10.0616516699999998 O
atom 10.0250430999999995 3.4819470600000000 5.1548667899999998 O
atom 10.5284323600000000 3.4370151700000000 10.4376342500000003 O
atom 10.1386903700000008 8.5916858900000008 5.1945574499999996 O
atom 10.5155052900000001 8.6022160599999999 10.3999733200000009 O
atom 2.8533440300000001 1.1269200600000000 2.4567364299999999 O
atom 3.3577789800000000 1.3045247400000000 7.8170712199999999 O
atom 3.0154231800000000 6.4457164100000002 2.7385073200000001 O
atom 3.3681034699999999 6.4359271800000002 7.9860040300000001 O
atom 8.0119551700000002 1.3643883500000000 3.1142741200000001 O
atom 8.4353609699999996 1.3688051200000000 8.3200377499999991 O
atom 8.0770763799999994 6.4580217500000003 3.0190428499999999 O
atom 8.4411956000000004 6.4824714800000001 8.3550856200000005 O
atom 3.1368898900000000 1.3120423200000000 5.2303755100000000 O
atom 3.8285908000000002 1.5136866300000000 10.2604898299999991 O
atom 3.2575966799999998 6.3805852300000003 5.3573066999999996 O
atom 3.6452070499999998 6.4705732300000003 10.5650439200000008 O
atom 8.2408679199999995 1.3208565000000001 5.7008159100000002 O
atom 8.6737940400000006 1.2600216900000001 10.9550572699999993 O
atom 8.2537054500000000 6.4036549400000000 5.7740318799999999 O
atom 8.6574962600000003 6.4069216899999999 10.9219553000000005 O
atom 2.2828502300000002 3.9656887799999998 0.2592014000000000 O
atom 2.6514521800000002 3.9016178600000000 5.4728876399999997 O
atom 2.3198932999999999 9.4508971499999994 0.5452865600000000 O
atom 2.8108676099999998 9.0582667299999997 5.5153277100000002 O
atom 7.3604588399999997 3.8779192000000000 0.6910823200000000 O
atom 7.6625379300000001 3.9364053299999999 5.8698407000000001 O
atom 7.3133856799999997 9.0533578299999995 0.6757638700000000 O
atom 7.8311298499999999 9.1527406399999993 5.9229877699999998 O
atom 2.4914881100000001 3.7356256700000001 2.8602969800000002 O
atom 2.9113580600000000 3.7958887899999998 8.0998773199999992 O
atom 2.4747357299999999 8.9233112099999996 2.9402013299999998 O
atom 2.9087669300000001 8.9500185099999996 8.2238022799999992 O
atom 7.5507724400000003 3.8058935900000002 3.2590217600000000 O
atom 7.9168838299999997 3.8472980799999998 8.5009845899999998 O
atom 7.7887792999999999 9.0988111200000006 3.1780251499999999 O
atom 7.9441257299999997 8.9604214700000000 8.5128549600000003 O
