lattice_vector 10.1578267699999998 -0.0177137600000000 0.7718459900000000 
lattice_vector -0.0150990000000000 5.1677305799999997 -0.0157111200000000 
lattice_vector 0.8101557200000000 0.0326221500000000 10.4123712800000003 
atom 1.4755193900000001 0.1218765300000000 1.5819573300000001 La
atom 1.9422033599999999 0.2149229000000000 6.8431515000000003 Hf
atom 6.6152685099999999 0.1506858900000000 2.0163967500000002 Hf
atom 7.0142969600000002 0.2338906100000000 7.2180375400000001 Hf
atom 1.6655657399999999 2.3175085300000000 4.3041013899999996 Hf
atom 2.1467198000000001 2.4087492500000001 9.3985321099999997 Hf
atom 6.7723780400000004 2.3735511200000001 4.6259909700000001 Hf
atom 7.2846678400000000 2.3677606700000000 9.7795180800000008 Hf
atom 3.8654579600000001 2.6967724700000000 1.2469160699999999 Hf
atom 4.1420877300000001 2.8013248800000001 6.5520343900000002 Hf
atom 8.7967769899999997 2.7601477999999999 1.7384046300000000 Hf
atom 9.2393818799999998 2.8179552000000001 6.9514464299999998 Hf
atom 3.9970191300000000 4.9886534300000003 4.0087886299999997 Hf
atom 4.4102968799999998 4.9494656099999998 9.1249981899999995 Hf
atom 8.9430211400000008 4.9512191999999997 4.3749021700000004 Hf
atom 9.4544066099999995 4.9519764100000003 9.5454083799999996 Hf
atom 0.4968517300000000 2.0523115399999998 0.9006148000000000 O
atom 0.8653556800000000 1.8308310299999999 6.1674758699999996 O
atom 5.5821138899999996 1.7141728000000001 1.2233420100000001 O
atom 5.8849753299999996 1.7561188700000001 6.4635451899999996 O
atom 0.5496854500000000 0.7933404900000000 3.6641462800000002 O
atom 1.1003371900000001 0.7746242100000000 8.7474846799999995 O
atom 5.7082549900000004 0.8297748500000000 3.8521002499999999 O
atom 6.1723557400000004 0.8341128799999999 9.0428870799999999 O
atom 4.6796736299999999 4.3771399899999999 2.1161006400000000 O
atom 5.2510782300000001 4.3488944700000003 7.2863261200000000 O
atom 9.5476231200000008 4.4559133600000003 2.4678644699999999 O
atom 10.3101087800000002 4.3908321199999998 7.6662574899999996 O
atom 5.0116945800000003 3.4133315500000001 4.7241019700000004 O
atom 5.5990006000000001 3.4543692500000001 9.8823843599999996 O
atom 10.0920400600000004 3.3848311099999999 5.0658241899999998 O
atom 10.4935295800000006 3.3726143600000000 10.2363634099999992 O
atom 3.0005218000000000 1.5939814000000001 2.8196066399999999 O
atom 3.4079740100000002 1.3493936700000000 7.9060093800000004 O
atom 8.0156231400000006 1.3478086400000000 3.1218069100000001 O
atom 8.5217197999999996 1.3458804799999999 8.2992398900000008 O
atom 3.1874026799999999 1.2365483399999999 5.3584324099999998 O
atom 3.7190271600000000 1.2814906100000001 10.4219276199999999 O
atom 8.2352181400000006 1.2663547900000001 5.7268176899999998 O
atom 8.7091404699999995 1.2198587000000001 10.9181093400000009 O
atom 2.4579530200000002 3.7868872200000001 0.1248890600000000 O
atom 2.6582724700000000 3.9341981700000002 5.3951300499999997 O
atom 7.3450456199999996 3.8814294899999999 0.6358111700000000 O
atom 7.7452128199999999 3.9223119299999998 5.8644894100000000 O
atom 2.8830208700000002 3.8472900399999999 8.0120165300000004 O
atom 7.3760398000000000 3.8142456199999999 3.2853331600000000 O
atom 7.9950960100000001 3.8388042400000000 8.4320220799999994 O
