lattice_vector 10.0902377800000007 0.0178714200000000 -0.0336783400000000 
lattice_vector 0.0161790200000000 10.3262676399999993 -0.0291457200000000 
lattice_vector 0.0098189400000000 -0.0097332400000000 10.3745419099999996 
atom 1.0622998900000000 0.3376844200000000 2.1792705200000002 Si
atom 1.3987524300000000 0.2088507900000000 6.9336835099999998 Hf
atom 1.3790782800000001 5.3701029499999997 1.6929308000000001 Hf
atom 1.4204475700000001 5.3662939300000003 6.9301694899999999 Hf
atom 1.4507755300000000 2.4239814599999998 4.3822102300000001 Hf
atom 1.4987989500000001 2.3010429299999999 9.5643572599999995 Hf
atom 1.4703300399999999 7.5718306300000000 4.2676207000000002 Hf
atom 1.5053859199999999 7.5540795699999999 9.4313426000000007 Hf
atom 3.5932705000000000 2.7524085600000001 1.7006756400000000 Hf
atom 3.6912527800000001 2.8005221699999998 6.9462167900000003 Hf
atom 3.4816042399999998 8.0136663299999995 1.6390510599999999 Hf
atom 3.6988258100000002 7.9724147700000003 6.8315077500000001 Hf
atom 3.6531270100000000 4.9290905199999999 4.3119217399999998 Hf
atom 3.6481266899999998 4.9445852300000004 9.4804200699999992 Hf
atom 3.5517960500000001 10.2138853399999991 4.2219819200000002 Hf
atom 3.7003529600000000 10.1225018900000006 9.4860056200000002 Hf
atom 6.4385866900000002 0.2047047500000000 0.8054186800000001 Hf
atom 6.4449942199999999 0.2050590000000000 6.0263610300000003 Hf
atom 6.3917375099999996 5.3838519299999996 0.9859608500000000 La
atom 6.4790555100000002 5.3136847600000001 5.9890990000000004 Hf
atom 6.4133481600000000 2.3278847100000002 3.4156261300000001 Hf
atom 6.4803996100000001 2.3780192100000002 8.6349584400000001 Hf
atom 6.0837932600000002 7.8098466899999996 3.6961398100000000 La
atom 6.4870732300000000 7.5217901400000002 8.5491430099999999 Hf
atom 8.7753948099999999 2.7197351300000001 0.8517175500000000 Hf
atom 8.6912141500000004 2.7706182799999999 6.0665952000000001 Hf
atom 8.8910538599999995 8.1697641099999991 0.6396743300000000 Hf
atom 8.7796369900000002 7.9224968300000000 5.9708217599999998 Hf
atom 8.8098541600000004 4.8418332700000004 3.5355329599999998 Hf
atom 8.7570174299999994 4.9349787300000001 8.6548217600000008 Hf
atom 8.6692268499999994 10.1005613200000006 3.4074853900000002 Hf
atom 8.7162714099999992 10.1591319799999997 8.5191079399999996 Hf
atom 0.5721924900000001 1.5934065200000000 1.0742252000000001 O
atom 0.3682143100000000 1.7308992999999999 6.0740067599999996 O
atom 0.3761060600000000 6.9611548000000001 0.8643439300000000 O
atom 0.4465800200000000 6.8943318199999997 6.0193283400000004 O
atom 0.2716298200000000 0.8876814200000001 3.5608284900000000 O
atom 0.3682069400000000 0.8576035300000000 8.6560244300000004 O
atom 0.3291421700000000 6.0280162800000001 3.4548999600000001 O
atom 0.3973872600000000 5.9909536699999997 8.6591874099999995 O
atom 4.4726764599999997 4.3584538799999999 0.8817751400000000 O
atom 4.6740882499999996 4.3857197399999999 6.1262074300000000 O
atom 4.6841771899999998 9.6056193699999994 0.9550238500000000 O
atom 4.7216601300000001 9.5027031300000004 5.9363199199999999 O
atom 4.5822593200000004 3.1921222700000000 3.5816181199999999 O
atom 4.7208762300000000 3.3642445599999999 8.6868566900000008 O
atom 3.9540239100000001 8.3653166500000005 3.6503612699999999 O
atom 4.7503552700000000 8.5793298999999994 8.5635364799999998 O
atom 2.5352619399999998 1.2792659300000000 2.8909701399999999 O
atom 2.8145737500000001 1.2437859300000000 8.1462194900000000 O
atom 2.7071995499999999 6.4157837600000001 2.9165239299999999 O
atom 2.8246421300000000 6.4446230900000003 8.1229133699999991 O
atom 3.0279056299999998 1.4457063800000001 0.2598286000000000 O
atom 2.8123948799999998 1.3355108200000001 5.5700825500000004 O
atom 2.7458452000000002 6.4477257000000003 0.3448378600000000 O
atom 2.8369237300000001 6.4627790699999998 5.5448728200000001 O
atom 2.2356791100000000 3.8792722799999999 3.0327653400000001 O
atom 2.2967539800000001 3.8351420500000000 8.2183508900000000 O
atom 2.0055788899999998 9.3151364300000008 2.7710336600000001 O
atom 2.3196633699999998 9.0096168500000005 8.0903923599999992 O
atom 2.1501012400000001 3.8880821499999998 0.4294882700000000 O
atom 2.2771075900000000 3.8795720500000002 5.6386077900000000 O
atom 2.3748670100000000 9.0078195500000007 0.2178995100000000 O
atom 2.2424173999999999 9.1072071200000000 5.5363547700000000 O
atom 5.4569211600000003 1.8575345900000000 1.6060616500000000 O
atom 5.4413472900000004 1.7919218100000001 6.7983516499999999 O
atom 5.2660853300000001 7.1977936900000001 1.6302015900000000 O
atom 5.5052915100000002 7.0084916899999996 6.6395559500000001 O
atom 5.4646013000000000 0.5448150700000000 4.0614435200000001 O
atom 5.5072633000000000 0.7689936100000000 9.4114916999999991 O
atom 5.4783771999999997 5.6638671499999997 4.1198285400000003 O
atom 5.3865270199999999 5.9774013100000003 9.2666057800000008 O
atom 9.6808521200000008 4.3959238799999998 1.6774004100000000 O
atom 9.7667091199999998 4.3040541499999998 6.9084446399999999 O
atom 9.8785843900000003 9.6710238200000003 1.6547516900000001 O
atom 9.7817565799999997 9.4747146499999992 6.8299488000000004 O
atom 9.7935262900000009 3.4325323800000000 4.3665463400000002 O
atom 9.8316458499999992 3.3870605199999999 9.5559813299999998 O
atom 9.7943399299999996 8.5739928299999999 4.2037520199999996 O
atom 9.8662238700000007 8.6989232300000001 9.3798515800000004 O
atom 7.9129555500000004 1.2638198300000001 9.9317206200000001 O
atom 7.7890473900000003 1.3156252200000000 4.7325812599999999 O
atom 7.9641378800000000 6.5386111299999996 9.9461439299999999 O
atom 7.9144241400000004 6.3768584300000004 4.6827609800000003 O
atom 7.8149243999999998 1.2194147099999999 2.1296941999999999 O
atom 7.8411021400000003 1.3108720300000001 7.3267461500000000 O
atom 7.8785181499999997 6.4400323300000002 7.3160142500000003 O
atom 7.4276782099999998 3.7616101999999998 9.9344469400000008 O
atom 7.3343356499999999 3.7999130100000000 4.8067325900000002 O
atom 7.3674304499999996 9.0628701300000003 9.8348145799999998 O
atom 7.5316896699999996 9.1608018399999995 4.8454212200000004 O
atom 7.4909621399999997 3.7289403200000000 2.3058217800000000 O
atom 7.3392975199999997 3.8875228300000000 7.3695372499999996 O
atom 7.5039280100000001 8.9495554199999994 2.0628583200000001 O
atom 7.3363506899999997 9.0559224000000000 7.2929745099999996 O
