lattice_vector 10.1166020000000003 -0.0369190000000000 -0.0556640000000000 
lattice_vector -0.0186840000000000 10.3113519999999994 0.0080890000000000 
lattice_vector -0.0238940000000000 -0.0184940000000000 10.4985809999999997 
atom 1.3159390000000000 0.1063000000000000 1.6914910000000001 La
atom 1.3965540000000001 0.1885300000000000 7.0720850000000004 Hf
atom 1.4738979999999999 5.3390409999999999 1.7101630000000001 Hf
atom 1.3705490000000000 5.3527899999999997 7.0165530000000000 Hf
atom 1.4059459999999999 2.2965390000000001 4.4572029999999998 Hf
atom 1.3661829999999999 2.3786879999999999 9.6273400000000002 Hf
atom 1.4024799999999999 7.5598850000000004 4.4652180000000001 Hf
atom 1.3894740000000001 7.4800570000000004 9.6337250000000001 Hf
atom 3.6430340000000001 2.7472970000000001 1.7687900000000001 Hf
atom 3.6247500000000001 2.7595360000000002 7.0298990000000003 Hf
atom 3.6803689999999998 7.9108060000000000 1.7566090000000001 Hf
atom 3.6260690000000002 7.9246910000000002 7.0392310000000000 Hf
atom 3.6019470000000000 4.8975229999999996 4.3800679999999996 Hf
atom 3.6340849999999998 4.8997679999999999 9.6297969999999999 Hf
atom 3.6331669999999998 10.0973690000000005 4.4205800000000002 Hf
atom 3.6602980000000001 10.0788720000000005 9.6413609999999998 Hf
atom 6.4934700000000003 0.2117550000000000 0.8178000000000000 Hf
atom 6.4372819999999997 0.1910990000000000 6.0664340000000001 Hf
atom 6.4435219999999997 5.3236489999999996 0.7852820000000000 Hf
atom 6.3924149999999997 5.3237249999999996 6.0627649999999997 Hf
atom 6.4524049999999997 2.3620930000000002 3.4289299999999998 Hf
atom 6.4465640000000004 2.3313139999999999 8.6664539999999999 Hf
atom 6.3962820000000002 7.5101509999999996 3.4489399999999999 Hf
atom 6.4265660000000002 7.4776319999999998 8.6649980000000006 Hf
atom 8.6896059999999995 2.8131379999999999 0.7403850000000000 Hf
atom 8.7051689999999997 2.7122139999999999 6.0689250000000001 Hf
atom 8.6743760000000005 7.8609419999999997 0.7403360000000000 Hf
atom 8.6631940000000007 7.9224350000000001 6.0704260000000003 Hf
atom 8.7794139999999992 5.0029849999999998 3.5062560000000000 La
atom 8.6747949999999996 4.9022690000000004 8.6241210000000006 Hf
atom 8.6029350000000004 10.0820740000000004 3.4956499999999999 Hf
atom 8.6819869999999995 10.0496850000000002 8.6877969999999998 Hf
atom 0.3398320000000000 1.9467460000000001 0.8517479999999999 O
atom 0.3710120000000000 1.7482230000000001 6.2908270000000002 O
atom 0.3707160000000000 6.9468589999999999 0.9184000000000000 O
atom 0.2874520000000000 6.8723850000000004 6.1436830000000002 O
atom 0.2832140000000000 0.7559460000000000 3.7320609999999999 O
atom 0.3593050000000000 0.7681570000000000 8.8535690000000002 O
atom 0.6838560000000000 5.9744270000000004 3.5120119999999999 O
atom 0.3224090000000000 5.9678519999999997 8.7544989999999991 O
atom 4.7148960000000004 4.2403449999999996 0.8270140000000000 O
atom 4.6628819999999997 4.2485960000000000 6.1021010000000002 O
atom 4.7536189999999996 9.4268389999999993 0.8479970000000000 O
atom 4.7118140000000004 9.3858859999999993 6.0938410000000003 O
atom 4.7173460000000000 3.4502609999999998 3.4603489999999999 O
atom 4.7105249999999996 3.4223479999999999 8.7099480000000007 O
atom 4.7356480000000003 8.6374650000000006 3.4598830000000000 O
atom 4.7208410000000001 8.5999669999999995 8.6983370000000004 O
atom 2.8428960000000001 1.2889310000000000 3.1577410000000001 O
atom 2.7689990000000000 1.2587320000000000 8.3160950000000007 O
atom 2.9413469999999999 6.3622660000000000 3.0118909999999999 O
atom 2.7599580000000001 6.4101759999999999 8.3103020000000001 O
atom 2.8823810000000001 1.3549940000000000 0.3522200000000000 O
atom 2.7868189999999999 1.2574700000000001 5.7390109999999996 O
atom 2.7822589999999998 6.3949559999999996 0.4152140000000000 O
atom 2.7505150000000000 6.4406379999999999 5.6995630000000004 O
atom 2.2411900000000000 3.7980450000000001 3.0408529999999998 O
atom 2.2451260000000000 3.8439649999999999 8.2986310000000003 O
atom 2.3475329999999999 8.8743710000000000 3.1523740000000000 O
atom 2.2476970000000001 8.9754909999999999 8.3169810000000002 O
atom 2.2893889999999999 3.8653490000000001 0.4095380000000000 O
atom 2.2269359999999998 3.8539590000000001 5.6948129999999999 O
atom 2.4395129999999998 8.8790399999999998 0.3371520000000000 O
atom 2.2497270000000000 9.0417819999999995 5.7430029999999999 O
atom 5.3779640000000004 1.6591540000000000 1.7374069999999999 O
atom 5.3608300000000000 1.6682990000000000 6.9863090000000003 O
atom 5.3410859999999998 6.7837449999999997 1.7456980000000000 O
atom 5.3319419999999997 6.8026330000000002 7.0057309999999999 O
atom 5.3805090000000000 0.8694580000000000 4.3707890000000003 O
atom 5.4085140000000003 0.8423079999999999 9.5942129999999999 O
atom 5.3230009999999996 5.9940800000000003 4.3577959999999996 O
atom 5.3408129999999998 6.0161980000000002 9.6101930000000007 O
atom 9.8123579999999997 4.3538209999999999 1.4656760000000000 O
atom 9.7120020000000000 4.3228030000000004 6.8428509999999996 O
atom 9.3925730000000005 9.4467269999999992 1.6936100000000001 O
atom 9.7302099999999996 9.4344750000000008 6.9499029999999999 O
atom 9.7554549999999995 3.1627179999999999 4.3464499999999999 O
atom 9.7004370000000009 3.3423539999999998 9.4057019999999998 O
atom 9.7057579999999994 8.4745220000000003 4.2873039999999998 O
atom 9.7653850000000002 8.5298639999999999 9.5602119999999999 O
atom 7.8441859999999997 1.2371350000000001 10.0017560000000003 O
atom 7.8059560000000001 1.2439960000000001 4.7885390000000001 O
atom 7.8029409999999997 6.3606429999999996 9.9610599999999998 O
atom 7.6372629999999999 6.5419039999999997 4.8684529999999997 O
atom 7.8538899999999998 1.3114280000000000 2.1569170000000000 O
atom 7.8261250000000002 1.2467660000000000 7.3977709999999997 O
atom 7.7293729999999998 6.5467170000000001 2.0533120000000000 O
atom 7.8051570000000003 6.4269619999999996 7.3874610000000001 O
atom 7.2844650000000000 3.8334800000000002 9.9572570000000002 O
atom 7.2130150000000004 3.7544149999999998 4.8458069999999998 O
atom 7.3022489999999998 8.9617369999999994 10.0044819999999994 O
atom 7.2944350000000000 9.0258529999999997 4.7904590000000002 O
atom 7.2523099999999996 3.8204500000000001 2.0397520000000000 O
atom 7.3024300000000002 3.8321350000000001 7.3800869999999996 O
atom 7.1353130000000000 9.0587879999999998 2.1940819999999999 O
atom 7.2928100000000002 8.9921989999999994 7.3940049999999999 O
