lattice_vector 9.9766161300000000 -0.0498407200000000 0.1174255300000000 
lattice_vector -0.0043602500000000 10.3777587300000000 -0.0601154700000000 
lattice_vector 0.0257236300000000 -0.0585231000000000 10.0050620600000002 
atom 1.1515183200000001 0.3507561100000000 1.0652856700000000 Si
atom 1.3547290500000000 0.1438768700000000 6.2888930299999997 Hf
atom 1.3719734400000001 5.3013808500000001 1.2372656000000000 Hf
atom 1.3429119800000000 5.3123709899999998 6.2221364000000001 Hf
atom 6.4072807500000000 0.1264933900000000 1.3889508800000001 Hf
atom 6.2846094700000004 0.0619114400000000 6.2815748999999999 Hf
atom 6.3579226000000002 5.3328297600000001 1.3394040800000000 Hf
atom 6.3362647799999996 5.3111974200000001 6.2830469500000001 Hf
atom 1.3406763300000000 2.3339337800000002 3.6808841000000001 Hf
atom 1.3087749200000001 2.4175958899999999 8.7319718900000005 Hf
atom 1.3777640200000001 7.5382489899999996 3.7498879000000001 Hf
atom 1.3057187200000000 7.5887049400000004 8.7791675999999992 Hf
atom 6.3889784399999998 2.3575434000000000 3.8844460000000001 Hf
atom 6.4093814099999999 2.3108872800000002 8.7433730300000008 Hf
atom 6.3622230200000001 7.5824026800000004 3.7963526900000000 Hf
atom 6.3171072900000000 7.5332558599999997 8.8140105099999992 Hf
atom 3.7543345600000002 2.5686940200000001 1.2512518900000000 La
atom 3.6653602799999998 2.7095522900000000 6.2761941800000001 Hf
atom 3.6827652199999998 7.9014255499999999 1.2773089799999999 Hf
atom 3.6667392200000002 7.9463408400000004 6.2926867099999999 Hf
atom 8.6374219700000001 2.7008798800000000 1.3165992500000001 Hf
atom 8.6780644299999992 2.6878149800000002 6.3034108000000000 Hf
atom 8.7482167099999995 7.9100343500000001 1.2957456500000000 Hf
atom 8.6700797999999999 7.8742041599999997 6.3013916099999996 Hf
atom 3.6655491200000001 4.9661499100000004 3.7799657400000002 Hf
atom 3.6268191299999999 5.0833263200000003 8.6844765800000001 Hf
atom 3.6141174800000000 10.1241832800000005 3.7126776100000001 Hf
atom 3.5615819399999999 10.1563428600000005 8.8395545599999998 Hf
atom 8.6661110800000003 4.9548229499999996 3.8021993400000000 Hf
atom 8.6356252999999992 4.9501971700000000 8.8206465800000000 Hf
atom 8.7416154000000006 10.1455916899999998 3.7851333600000001 Hf
atom 8.6145182499999997 10.1025355599999997 8.7765248699999994 Hf
atom 0.4131755600000000 1.8683234900000001 1.7539340500000000 O
atom 0.3361765400000000 1.8635973400000001 6.9878877399999997 O
atom 0.3876276900000000 7.0559156800000000 1.9222287600000001 O
atom 0.3573697400000000 7.0664457100000000 6.9278326899999998 O
atom 5.5995990800000000 1.8162697600000000 2.1379766999999998 O
atom 5.3704526799999996 1.8483945600000000 6.9862536300000002 O
atom 5.4006003600000003 7.1190482199999998 1.9880336599999999 O
atom 5.2978962699999999 7.0020621500000004 7.0488084400000002 O
atom 0.3574584900000000 0.6777894200000000 4.5369819199999997 O
atom 0.2524791900000000 0.6033161400000000 9.5648244899999995 O
atom 0.3823721400000000 5.7987498400000002 4.4264697899999996 O
atom 0.3511874700000000 5.8248146700000003 9.4214491700000007 O
atom 5.3532268299999997 0.6278950700000000 4.5204306900000004 O
atom 5.1495772700000000 0.8795273100000000 9.6523970800000001 O
atom 5.3680427399999999 5.8654054499999999 4.5024687200000004 O
atom 5.3200937699999997 5.7670319900000004 9.5321235499999997 O
atom 4.7257386600000002 4.5352151999999997 2.0664558799999999 O
atom 4.6531358699999998 4.4343842499999999 6.9930809800000002 O
atom 4.6939800700000003 9.6821100399999995 1.9567911600000001 O
atom 4.6230616800000002 9.6545885699999996 7.0427533499999999 O
atom 9.6218070600000001 4.4176615799999999 1.9915938799999999 O
atom 9.6265706800000004 4.4222472200000000 7.0216825099999998 O
atom 9.9089739399999992 9.6916130900000006 1.9213450100000000 O
atom 9.6310816700000004 9.6105065700000001 7.0087513599999998 O
atom 4.6835782500000001 3.2433382800000001 4.4990999499999997 O
atom 4.7147793499999997 8.4721431200000001 4.5704881200000003 O
atom 4.5962548099999996 8.4629085499999999 9.4565757300000008 O
atom 9.6344482100000004 3.1678986099999999 4.4867831100000002 O
atom 9.5863536800000002 3.1944806200000002 9.4995912100000002 O
atom 9.6618058500000004 8.3866215299999993 4.4940227400000001 O
atom 9.5636120099999999 8.3600903899999999 9.4655311100000006 O
atom 2.3452680699999999 0.7970140900000000 2.4408978200000000 O
atom 2.7120544099999999 1.1907272400000000 7.5144538299999999 O
atom 2.7236927500000001 6.2709754100000001 2.4618882399999999 O
atom 2.6629535799999999 6.3957639600000000 7.4841431399999996 O
atom 7.8647253299999997 1.1450833300000001 2.5775984799999998 O
atom 7.6590661999999998 1.1145452800000000 7.5697274900000000 O
atom 7.7318231500000003 6.3656236300000000 2.5576742800000001 O
atom 7.6668242700000002 6.3264459400000002 7.5566801200000002 O
atom 2.7304993299999998 1.3428949800000001 4.9451355200000000 O
atom 2.4112665000000000 1.2079982800000000 9.9830577900000002 O
atom 2.7354767999999998 6.5248900100000000 5.0036488300000004 O
atom 2.6801182799999999 6.5698309600000000 9.9812934799999997 O
atom 7.7206698999999999 1.2848957500000000 5.0894150199999997 O
atom 7.6500469600000001 1.2664418000000000 10.0521198700000003 O
atom 7.7010882299999999 6.5124297599999998 5.0501268799999997 O
atom 7.7011857199999998 6.4931287700000002 10.0592130999999991 O
atom 2.3158795500000000 3.8985931800000002 5.0096096200000000 O
atom 2.3765363200000000 3.9660941699999999 9.8992755300000006 O
atom 2.3002016200000002 9.1170137100000002 5.0584727500000000 O
atom 2.1487380500000000 9.2306959299999995 10.2105358000000006 O
atom 7.3383361899999997 3.9279475100000001 5.0679678600000004 O
atom 7.2241039799999998 3.8483524899999999 10.0405970199999999 O
atom 7.3463211800000003 9.1060924700000001 5.0003318900000000 O
atom 7.2493059500000001 9.0802734699999998 9.9961940800000004 O
atom 2.2135099100000000 3.8042041200000001 2.5407779100000001 O
atom 2.2805075600000002 3.7882646699999998 7.4701593300000004 O
atom 2.5604578899999999 8.7003901500000005 2.6761270800000001 O
atom 2.2745638399999999 8.9812334200000006 7.5761559099999998 O
atom 7.3238678100000003 3.7596176600000000 2.5726235000000002 O
atom 7.3028840600000002 3.7348807000000002 7.5336250099999997 O
atom 7.4237920900000001 8.9643043000000002 2.5009773300000000 O
atom 7.2608291899999999 8.8875784099999997 7.5028112499999997 O
