lattice_vector 10.1345807800000003 -0.1816717600000000 0.0197516100000000 
lattice_vector 0.0120164600000000 10.1338677100000005 -0.1588539000000000 
lattice_vector -0.0044102100000000 0.1417858700000000 10.0711938399999994 
atom 1.2239523000000001 0.0462385700000000 1.3343923099999999 Si
atom 1.2783342099999999 0.0599135200000000 6.3190344100000004 Hf
atom 1.2581245999999999 5.1197914700000000 1.2582336999999999 Hf
atom 1.2762810600000001 5.2012127699999997 6.2438355699999999 Hf
atom 6.2838452599999997 -0.0728029200000000 1.3485817600000001 Hf
atom 6.2711410000000001 -0.0212172600000000 6.3335045799999996 Hf
atom 6.5317513500000004 4.7826153099999997 1.2494343900000000 Hf
atom 6.4788910499999997 4.9044454999999996 6.2255725000000002 Hf
atom 1.3320623899999999 2.6069388700000000 3.7871904199999999 Hf
atom 1.2039709500000000 2.6432048799999999 8.7931860700000009 Hf
atom 1.2504071000000001 7.7018820200000002 3.6342328699999999 Hf
atom 1.3146782600000000 7.6915139200000002 8.7484985799999997 Hf
atom 6.3505351399999999 2.4177371900000000 3.8190285799999999 Hf
atom 6.3495150799999998 2.5322949600000002 8.8577448499999996 Hf
atom 6.2706938200000000 7.4900911800000003 3.6871483500000002 La
atom 6.5043458500000000 7.7175079599999998 8.7554990799999999 Hf
atom 3.7962474600000000 2.4845950299999999 1.2885939500000001 Hf
atom 3.7940263100000000 2.5544441000000000 6.2964373000000000 Hf
atom 3.9337782400000001 7.4262766500000001 0.8986184900000000 Hf
atom 3.6725723700000001 7.7648702199999997 6.1835573999999998 Hf
atom 8.9344237000000000 2.3350873000000001 1.3344762900000000 Hf
atom 8.9356040300000004 2.4005990300000000 6.2670478400000000 Hf
atom 8.8817108000000005 7.4722316600000003 1.2185101199999999 Hf
atom 8.8810009099999991 7.5444716200000004 6.2266990099999999 Hf
atom 3.7356590500000002 0.0165735900000000 3.7582091300000000 Hf
atom 3.8148664900000000 0.0198099900000000 8.8721972099999995 Hf
atom 3.8634301999999998 5.1295152300000000 3.7200642400000001 La
atom 3.6999333600000002 4.9677125699999998 8.7938910600000000 Hf
atom 8.8307079000000002 -0.1611035300000000 3.8421932999999999 Hf
atom 8.8640406899999995 0.0341999600000000 8.8461222199999998 Hf
atom 8.9357325999999997 4.9531790400000002 3.7844986100000000 Hf
atom 8.8888485500000005 5.0242356099999999 8.8210780500000006 Hf
atom -0.3156695100000000 1.5932693600000001 -0.2453719800000000 O
atom -0.1695664000000000 1.5141039199999999 4.8125468500000004 O
atom -0.0644787600000000 6.5863190400000002 -0.0778136900000000 O
atom -0.0834970700000000 6.6015165299999996 4.9581861800000002 O
atom 4.8242202199999999 1.2584105600000000 0.0147008300000000 O
atom 4.8786737200000001 1.3463464700000001 5.0488632000000004 O
atom 4.8936277199999996 6.4250942899999997 -0.7772595600000000 O
atom 0.2481343500000000 1.0528549300000001 2.2598254000000000 O
atom 0.1418968900000000 1.2333135000000000 7.4523082900000004 O
atom 0.1604243800000000 6.1663669700000003 2.5275675099999999 O
atom 0.0635396100000000 6.2798923000000002 7.5057371300000000 O
atom 5.2756052499999999 1.0628006600000000 2.6159732899999999 O
atom 5.2328842499999997 1.2298283400000001 7.5925722699999998 O
atom 5.1960318799999996 6.1540049400000001 1.9212303200000000 O
atom 5.0522610500000003 6.3528123100000000 5.6986206599999996 O
atom -0.0600780300000000 3.6281215200000001 2.5492097700000000 O
atom -0.1821331100000000 3.7379712100000000 7.5881866300000000 O
atom -0.3526971400000000 8.5896949800000009 2.7264377700000000 O
atom -0.1473006500000000 8.7891646699999999 7.6931657600000003 O
atom 5.1368543899999999 3.5339681000000001 2.4178000599999998 O
atom 4.9130552900000000 3.8929670299999999 7.4829467799999998 O
atom 4.6579252899999997 8.7729556399999993 2.3355212299999999 O
atom 4.9516412799999996 8.7381326300000008 7.5296274900000002 O
atom 0.1648588500000000 4.0517400700000001 -0.0589735000000000 O
atom 0.1404453700000000 4.0353980399999996 5.0227192399999998 O
atom 0.3000524100000000 9.1949742200000006 0.2027443700000000 O
atom 0.0647118200000000 9.1054216300000004 5.0746655599999997 O
atom 5.2148184500000001 3.8333039300000000 -0.0825707700000000 O
atom 5.2959995400000004 3.7559311000000002 5.0191212700000003 O
atom 5.3181301699999999 8.8436206700000000 -0.0862324800000000 O
atom 5.0322670399999998 9.0171644999999998 5.0005115399999998 O
atom 2.8661641800000002 1.6246643599999999 2.8423742500000002 O
atom 2.7304392399999999 1.4882485100000000 7.8125980200000003 O
atom 2.5947616099999999 6.7488528499999996 2.3647158300000002 O
atom 2.6945293900000000 6.5223385900000004 7.5607376999999998 O
atom 7.8185239400000004 1.2323078800000000 2.5984894299999999 O
atom 7.7795567300000004 1.4220072800000001 7.6365109200000001 O
atom 7.8240088800000001 6.1679952199999999 2.3820829099999998 O
atom 7.5425812399999996 6.4640136799999999 7.4500482999999997 O
atom 2.2123507199999999 0.9517433700000000 0.3365798400000000 O
atom 2.3733997800000002 1.2507250999999999 5.2024150799999997 O
atom 2.4756857499999998 6.0584506700000000 -0.0467464100000000 O
atom 2.3779195400000002 6.4154464400000002 5.0370267200000001 O
atom 7.3542134600000004 0.9820464300000000 0.0006516500000000 O
atom 7.4404832299999999 1.0747733799999999 5.0799932099999996 O
atom 7.4873153400000003 6.0645195000000003 -0.1117309200000000 O
atom 7.6335167500000001 6.0495818100000003 4.9885766900000004 O
atom 2.6870677700000001 3.4589961499999999 -0.1187627200000000 O
atom 2.6013502300000000 3.7013867399999998 5.0559855400000000 O
atom 2.7964831200000000 8.5700431100000003 -0.3311573300000000 O
atom 2.5975474799999998 8.8427954599999996 4.7837080800000003 O
atom 7.7800728899999996 3.4955059300000002 0.0696274800000000 O
atom 7.7550825899999998 3.5899740499999999 5.1206134600000004 O
atom 7.9115808300000001 8.5831510800000004 -0.1909960500000000 O
atom 7.7425237800000000 8.7429232500000005 4.9845828100000000 O
atom 2.4173124200000000 3.9381444200000000 2.3717038600000002 O
atom 2.3221884500000001 3.9928839200000001 7.5231382499999997 O
atom 2.0679178100000000 9.3482723300000004 2.3406516900000001 O
atom 2.4155216300000002 9.0606976800000005 7.3559255300000004 O
atom 7.5835348600000003 3.7291814900000002 2.6350623500000001 O
atom 7.4423045200000004 3.9403369200000000 7.7181874500000003 O
atom 7.4703786699999997 8.8931199999999997 2.3018027200000000 O
atom 7.4868038200000004 9.0559525000000001 7.4506621099999997 O
