lattice_vector 10.0897454799999995 0.0553342200000000 -0.1326454900000000 
lattice_vector 0.0580316100000000 10.2322917699999998 0.0350496900000000 
lattice_vector -0.0654488200000000 0.0569339800000000 10.5401998999999993 
atom 0.9922972799999999 0.2639637000000000 2.2174960100000001 Si
atom 1.4115258100000001 0.2397284800000000 6.9218234000000001 Hf
atom 1.4023766900000001 5.4104524300000003 1.7743175200000001 Hf
atom 1.3560581400000000 5.3473626899999998 7.0712960100000002 Hf
atom 1.3575769499999999 2.4535848300000000 4.4259497799999998 Hf
atom 1.4624425400000001 2.3893615800000001 9.7543839800000001 Hf
atom 1.3227251000000000 7.4961775299999998 4.4051520000000002 Hf
atom 1.6850490499999999 7.4289768599999997 9.5990487000000009 Hf
atom 3.6002847600000001 2.7742521800000000 1.7800529899999999 Hf
atom 3.6288480299999999 2.8000358099999998 7.0285510100000002 Hf
atom 3.6257414099999998 7.9958200300000000 1.6832641699999999 Hf
atom 3.6135659000000002 7.9374551499999999 6.9106643200000004 Hf
atom 3.6280444500000000 4.9542875999999998 4.4290639799999996 Hf
atom 3.6646403300000001 4.8555258300000004 9.7096171899999995 Hf
atom 3.6227990999999999 10.1334354300000005 4.3100096299999997 Hf
atom 3.7029236800000001 10.1595243300000000 9.6756279900000006 Hf
atom 6.5062540799999997 0.2631306000000000 0.7986527200000000 Hf
atom 6.3542492800000003 0.2955606800000000 6.0294912700000003 Hf
atom 6.4412278900000004 5.3257991000000002 0.8049384500000000 Hf
atom 6.4221947200000002 5.4225306700000004 6.0750663100000004 Hf
atom 6.4022222700000002 2.4109013199999998 3.4127001099999998 Hf
atom 6.4447977500000002 2.4434808900000000 8.6833352000000001 Hf
atom 6.3374568699999996 7.5222034200000003 3.4438540199999998 Hf
atom 6.4001341399999996 7.6907316799999998 8.8312954000000001 La
atom 8.7576836900000004 2.8153088400000001 0.8139338300000000 Hf
atom 8.6570794200000005 2.8829983399999999 6.0484060399999997 Hf
atom 8.7703081899999997 7.7858010699999998 1.0870276200000000 Hf
atom 8.6535797900000002 7.9618794199999998 6.0124277399999997 Hf
atom 8.6579934200000004 4.9857261299999998 3.4138585799999999 Hf
atom 8.6953601200000001 5.0155897800000000 8.7157407800000009 Hf
atom 8.5870372499999998 10.0884937099999998 3.4986111100000001 Hf
atom 8.8698248500000005 10.1894668599999996 8.7332721200000005 La
atom 0.5655878300000000 1.4454993599999999 1.0295562100000000 O
atom 0.2813153900000000 1.7144416499999999 6.0804953299999998 O
atom 0.4705606500000000 6.9844787600000000 0.6923543300000000 O
atom 0.2775376000000000 6.7059828000000001 6.0117240399999998 O
atom 0.2339248500000000 0.8874857500000000 3.5755849500000001 O
atom 0.5848188400000000 1.0062697500000000 8.6615332600000006 O
atom 0.1925269000000000 6.1870010500000001 3.3081326799999999 O
atom 0.3171818600000000 6.1557026099999996 8.7419771599999994 O
atom 4.7432728600000003 4.2111451500000001 0.8986864700000000 O
atom 4.6774675400000003 4.3147545400000000 6.1089107399999998 O
atom 4.8660154599999998 9.3678676900000006 0.8015565100000001 O
atom 4.6517956199999997 9.4726115100000001 6.0650613399999997 O
atom 4.6537132200000002 3.4232200399999999 3.5082451500000000 O
atom 4.6764809400000003 3.3850491699999998 8.7604562399999999 O
atom 4.5834995899999997 8.5880981399999996 3.4426664699999998 O
atom 4.3507793599999998 8.5530011399999992 8.6823604000000003 O
atom 2.5231062099999999 1.3276803900000000 2.9443324199999998 O
atom 2.9219583600000001 1.1836431199999999 8.1659362600000005 O
atom 2.7018725600000000 6.5303069000000002 3.0496034700000001 O
atom 2.8448201300000000 6.2921900500000003 8.3017870800000004 O
atom 3.0980600100000002 1.5153349899999999 0.2292850600000000 O
atom 2.7540337600000000 1.3773209700000000 5.5921645800000004 O
atom 2.9142679899999999 6.3761424900000003 0.4292318700000000 O
atom 2.7046752199999999 6.4341538700000003 5.6764303700000003 O
atom 2.2320269000000001 3.9544910799999999 3.1161827999999998 O
atom 2.2410593300000001 3.7894468600000000 8.3886745299999994 O
atom 2.1117489599999999 9.2100325999999999 2.8456325800000002 O
atom 1.9905517600000000 8.8232272100000007 8.1485615300000003 O
atom 2.2487751500000002 3.9148762700000002 0.5140210600000000 O
atom 2.2199112599999999 3.8881322699999998 5.7433506100000002 O
atom 2.4328248000000001 8.9316382599999997 0.2281561400000000 O
atom 2.2668433600000002 9.0264321899999995 5.5230833199999996 O
atom 5.3862009600000000 1.7101879600000001 1.7138901499999999 O
atom 5.3702453099999996 1.7982892300000000 6.9354638900000003 O
atom 5.3615890500000001 6.8797271699999998 1.6749314500000001 O
atom 5.3036904399999996 6.8823075999999999 6.8334855299999999 O
atom 5.3232184399999998 0.9042844799999999 4.2699579200000004 O
atom 5.5383588200000000 0.7267088600000000 9.4812074299999995 O
atom 5.3350475700000004 6.0002107799999997 4.3010683700000003 O
atom 5.3752299399999997 5.8492110700000000 9.6449163599999999 O
atom 9.7881058299999992 4.3237339400000003 1.7068868300000000 O
atom 9.7694672899999997 4.2552840500000002 7.0552232200000002 O
atom 9.8443038000000005 9.4816975400000008 1.7538122500000000 O
atom 9.8651506500000004 9.3814112299999994 6.7799311900000001 O
atom 9.7553098299999998 3.6090247799999999 4.3574311699999999 O
atom 9.7847329999999992 3.4946246900000002 9.7050376899999993 O
atom 9.6865295800000002 8.6023462599999991 4.2667838600000003 O
atom 7.7284550300000001 1.4971165799999999 10.1244825299999999 O
atom 7.7589910000000000 1.3413929099999999 4.7484817599999998 O
atom 7.9858921299999999 6.3896875299999998 10.2243811299999994 O
atom 7.7659492800000001 6.4527440699999996 4.7327664399999998 O
atom 7.8527412999999999 1.3545799700000001 2.1363085399999999 O
atom 7.7758369600000004 1.4919678300000001 7.3380364399999998 O
atom 7.7192489499999999 6.4462695300000004 2.1990705500000001 O
atom 7.8990810199999997 6.4524473400000000 7.3438954100000000 O
atom 7.3242675699999999 3.9272908000000002 10.0454955300000002 O
atom 7.2807518399999998 3.8942057999999999 4.7580954499999999 O
atom 7.7174239699999996 9.0105169600000004 10.3640411900000000 O
atom 7.2328429600000002 8.9937958499999997 4.7479634700000002 O
atom 7.3524009000000001 3.8782353999999999 2.1327269300000000 O
atom 7.2816658099999998 3.9830982900000000 7.4276060700000004 O
atom 7.3222911799999997 9.0220501500000001 2.2468979999999998 O
atom 7.3394624500000001 9.1154594200000005 7.2364257900000002 O
