lattice_vector 10.1242219999999996 -0.0065960000000000 0.0026200000000000 
lattice_vector 0.0071910000000000 10.2913019999999999 0.0053170000000000 
lattice_vector -0.0026300000000000 -0.0192070000000000 10.5427999999999997 
atom 1.3226899999999999 0.1117080000000000 1.7173290000000001 La
atom 1.4141180000000000 0.2000830000000000 7.0929390000000003 Hf
atom 1.4250670000000001 5.3599750000000004 1.8048770000000001 Hf
atom 1.3993100000000001 5.3561899999999998 7.0952580000000003 Hf
atom 1.4118839999999999 2.3292649999999999 4.4465000000000003 Hf
atom 1.3991210000000001 2.3871470000000001 9.6597460000000002 Hf
atom 1.4023040000000000 7.5075110000000000 4.4725029999999997 Hf
atom 1.4211410000000000 7.4667130000000004 9.7278090000000006 Hf
atom 3.5765739999999999 2.7672330000000001 1.7333480000000001 Hf
atom 3.6660919999999999 2.7660819999999999 7.0573850000000000 Hf
atom 3.7180569999999999 7.8828709999999997 1.8080410000000000 Hf
atom 3.6427079999999998 7.9092510000000003 7.1085760000000002 Hf
atom 3.6111309999999999 4.9605100000000002 4.4588089999999996 Hf
atom 3.6710780000000001 4.9005760000000000 9.7053809999999991 Hf
atom 3.6427299999999998 10.0358149999999995 4.4811930000000002 Hf
atom 3.6965450000000000 10.0537569999999992 9.6926349999999992 Hf
atom 6.4736000000000002 0.2280020000000000 0.8283680000000000 Hf
atom 6.4598950000000004 0.1519270000000000 6.1576680000000001 Hf
atom 6.4639170000000004 5.3421880000000002 0.8075870000000001 Hf
atom 6.4825100000000004 5.3635970000000004 6.0947410000000000 Hf
atom 6.3865879999999997 2.4464250000000001 3.5566849999999999 La
atom 6.4774310000000002 2.3388260000000001 8.7246050000000004 Hf
atom 6.4879970000000000 7.4900669999999998 3.4751940000000001 Hf
atom 6.4629050000000001 7.4741540000000004 8.7274670000000008 Hf
atom 8.7009860000000003 2.8105050000000000 0.8000580000000000 Hf
atom 8.7540359999999993 2.7735340000000002 6.1314190000000002 Hf
atom 8.6761970000000002 7.8860239999999999 0.8225390000000000 Hf
atom 8.7356370000000005 7.9268369999999999 6.1186189999999998 Hf
atom 8.7781520000000004 4.9634919999999996 3.4732859999999999 Hf
atom 8.7022530000000007 4.9178470000000001 8.7155000000000005 Hf
atom 8.6438240000000004 10.0790939999999996 3.5480489999999998 Hf
atom 8.7332439999999991 10.0612619999999993 8.7664960000000001 Hf
atom 0.3375140000000000 1.9159539999999999 0.8108580000000000 O
atom 0.3699080000000000 1.7178350000000000 6.2113440000000004 O
atom 0.3230180000000000 6.8181620000000001 0.8426900000000001 O
atom 0.3094560000000000 6.7996359999999996 6.1374760000000004 O
atom 0.2152560000000000 0.9150730000000000 3.6511260000000001 O
atom 0.3379650000000000 0.8699320000000000 8.8035850000000000 O
atom 0.3384850000000000 6.0817220000000001 3.4883570000000002 O
atom 0.3011280000000000 6.0513599999999999 8.7465940000000000 O
atom 4.7563310000000003 4.2070350000000003 0.7982930000000000 O
atom 4.8010099999999998 4.1671940000000003 6.0431059999999999 O
atom 4.7780920000000000 9.3815050000000006 0.8585770000000000 O
atom 4.7206130000000002 9.3423200000000008 6.2013680000000004 O
atom 4.5135750000000003 3.6187920000000000 3.3423449999999999 O
atom 4.7452839999999998 3.4520520000000001 8.7206910000000004 O
atom 4.7632360000000000 8.5630050000000004 3.5148069999999998 O
atom 4.7600980000000002 8.5757919999999999 8.7679899999999993 O
atom 2.8549959999999999 1.3059639999999999 3.1809900000000000 O
atom 2.7949410000000001 1.2595120000000000 8.3280169999999991 O
atom 2.8005770000000001 6.3761219999999996 3.1158489999999999 O
atom 2.7803979999999999 6.3991160000000002 8.4026789999999991 O
atom 2.8458150000000000 1.3582620000000001 0.3104180000000000 O
atom 2.7984710000000002 1.2695749999999999 5.7545070000000003 O
atom 2.7973319999999999 6.3829549999999999 0.4921010000000000 O
atom 2.7682140000000000 6.4506980000000000 5.7751120000000000 O
atom 2.1307749999999999 3.8175390000000000 3.0817850000000000 O
atom 2.2905199999999999 3.8463210000000001 8.3575929999999996 O
atom 2.3730840000000000 8.8653410000000008 3.1842530000000000 O
atom 2.2841440000000000 8.9799330000000008 8.3800509999999999 O
atom 2.2692770000000002 3.8930910000000001 0.4378890000000000 O
atom 2.2931279999999998 3.8702280000000000 5.7497569999999998 O
atom 2.4716800000000001 8.8538949999999996 0.3732280000000000 O
atom 2.2568160000000002 9.0015549999999998 5.7855480000000004 O
atom 5.2785560000000000 1.6442710000000000 1.6230869999999999 O
atom 5.4009919999999996 1.6703939999999999 7.0136710000000004 O
atom 5.4016590000000004 6.7698450000000001 1.7909480000000000 O
atom 5.3642979999999998 6.7805270000000002 7.0755350000000004 O
atom 5.3971570000000000 0.6443260000000000 4.4641489999999999 O
atom 5.4307280000000002 0.8220900000000000 9.6054080000000006 O
atom 5.3838439999999999 6.0325889999999998 4.4362480000000000 O
atom 5.3704890000000001 6.0318699999999996 9.6843009999999996 O
atom 9.8233879999999996 4.2823620000000000 1.7669520000000001 O
atom 9.8194210000000002 4.2497369999999997 7.0566560000000003 O
atom 9.5809110000000004 9.2246570000000006 1.9410130000000001 O
atom 9.8119479999999992 9.3734389999999994 7.1044729999999996 O
atom 9.8353339999999996 3.4636490000000002 4.4232259999999997 O
atom 9.7781439999999993 3.4831919999999998 9.6233989999999991 O
atom 9.8204519999999995 8.6382320000000004 4.4844030000000004 O
atom 9.8656720000000000 8.6589539999999996 9.7822600000000008 O
atom 7.8596769999999996 1.2675259999999999 10.0640929999999997 O
atom 7.9062109999999999 1.1983140000000001 4.9650509999999999 O
atom 7.8292370000000000 6.3777699999999999 10.0485489999999995 O
atom 7.8582369999999999 6.4650379999999998 4.7887529999999998 O
atom 7.9178910000000000 1.2496380000000000 2.0942120000000002 O
atom 7.8576340000000000 1.2777069999999999 7.4902119999999996 O
atom 7.8628770000000001 6.4713729999999998 2.1652330000000002 O
atom 7.8428649999999998 6.4293810000000002 7.4211739999999997 O
atom 7.3143700000000003 3.8273890000000002 10.0376209999999997 O
atom 7.5288880000000002 3.9942039999999999 4.9072149999999999 O
atom 7.3580470000000000 8.9585980000000003 10.0731610000000007 O
atom 7.3333500000000003 8.9554200000000002 4.8421219999999998 O
atom 7.4324450000000004 3.9829170000000000 2.0960830000000001 O
atom 7.3426869999999997 3.8491179999999998 7.4432939999999999 O
atom 7.1968540000000001 9.0306879999999996 2.1979940000000000 O
atom 7.3564610000000004 8.9827860000000008 7.4652870000000000 O
