lattice_vector 9.9175839999999997 -0.0268070000000000 0.0484230000000000 
lattice_vector 0.0325260000000000 10.3544169999999998 0.0077300000000000 
lattice_vector 0.0509110000000000 0.1113770000000000 9.9703079999999993 
atom 1.0412429999999999 0.2393800000000000 0.8967550000000000 Si
atom 1.4094130000000000 0.3133530000000000 6.2673610000000002 Hf
atom 1.3653379999999999 5.2717049999999999 1.2463299999999999 Hf
atom 1.3786950000000000 5.4667170000000000 6.2335450000000003 Hf
atom 6.3226160000000000 0.1453370000000000 1.2655600000000000 Hf
atom 6.2036680000000004 0.1825160000000000 6.1779060000000001 Hf
atom 6.3232450000000000 5.3094599999999996 1.2814909999999999 Hf
atom 6.3393420000000003 5.4155059999999997 6.2644330000000004 Hf
atom 1.3828959999999999 2.3511739999999999 3.6874639999999999 Hf
atom 1.3824430000000001 2.5338829999999999 8.7690490000000008 Hf
atom 1.3101920000000000 7.6016360000000001 3.6337269999999999 Hf
atom 1.3771070000000001 7.6697879999999996 8.7504059999999999 Hf
atom 6.2458099999999996 2.4069729999999998 3.7530290000000002 Hf
atom 6.2841779999999998 2.4824400000000000 8.7230360000000005 Hf
atom 6.3731130000000000 7.6395379999999999 3.7472940000000001 Hf
atom 6.2864279999999999 7.6908060000000003 8.7361529999999998 Hf
atom 3.6526830000000001 2.6303269999999999 1.3541080000000001 Hf
atom 3.6599480000000000 2.9019110000000001 6.2887779999999998 Hf
atom 3.6471510000000000 7.9215350000000004 1.3644980000000000 Hf
atom 3.6906070000000000 8.1174470000000003 6.2249619999999997 Hf
atom 8.6077650000000006 2.7026469999999998 1.2582990000000001 Hf
atom 8.6157299999999992 2.7684869999999999 6.2467340000000000 Hf
atom 8.6566030000000005 7.8960660000000003 1.1945740000000000 Hf
atom 8.6494879999999998 7.9886460000000001 6.2609550000000000 Hf
atom 3.7165240000000002 5.0766150000000003 3.7384339999999998 Hf
atom 3.6720869999999999 5.1097970000000004 8.7693359999999991 Hf
atom 3.8246780000000000 10.0481040000000004 3.6320039999999998 Si
atom 3.6306069999999999 10.2655560000000001 8.8814410000000006 Hf
atom 8.6262179999999997 4.9752580000000002 3.7861590000000001 Hf
atom 8.6368639999999992 5.0710730000000002 8.7267209999999995 Hf
atom 8.6987609999999993 10.2128119999999996 3.7498619999999998 Hf
atom 8.5991929999999996 10.2532449999999997 8.6485149999999997 Hf
atom 0.5097580000000000 1.6902980000000001 1.7728310000000000 O
atom 0.3051150000000000 1.9575620000000000 7.0709169999999997 O
atom 0.3912520000000000 7.0423929999999997 1.8805010000000000 O
atom 0.3878910000000000 7.1682509999999997 6.9636690000000003 O
atom 5.4265749999999997 1.9092270000000000 1.9204260000000000 O
atom 5.3323070000000001 1.9653050000000001 6.9076540000000000 O
atom 5.3371110000000002 7.0523490000000004 1.9952570000000001 O
atom 5.3542529999999999 7.1852080000000003 6.9264120000000000 O
atom 0.3599380000000000 0.7028690000000000 4.4617690000000003 O
atom 0.3507010000000000 0.7233090000000000 9.4119290000000007 O
atom 0.3725880000000000 5.8932300000000000 4.4161940000000000 O
atom 0.4115190000000000 5.9246639999999999 9.4185750000000006 O
atom 5.1181690000000000 0.6596630000000000 4.3891700000000000 O
atom 5.2700370000000003 0.7916570000000001 9.5262589999999996 O
atom 5.3507600000000002 5.9495079999999998 4.4847149999999996 O
atom 5.3672329999999997 5.9425489999999996 9.4529589999999999 O
atom 4.6434189999999997 4.4332779999999996 1.9634469999999999 O
atom 4.6664180000000002 4.6017029999999997 7.0094060000000002 O
atom 4.7395659999999999 9.6662940000000006 2.1276760000000001 O
atom 4.6978190000000000 9.7302370000000007 7.1471099999999996 O
atom 9.6276560000000000 4.3567330000000002 2.0040010000000001 O
atom 9.5840420000000002 4.5422580000000004 6.9190480000000001 O
atom 9.8734479999999998 9.6363780000000006 1.8464020000000001 O
atom 9.6071740000000005 9.7293869999999991 6.9045249999999996 O
atom 4.6555859999999996 3.3402639999999999 4.4828619999999999 O
atom 4.5950670000000002 3.3049100000000000 9.4449290000000001 O
atom 4.7340669999999996 8.5833610000000000 4.4411350000000001 O
atom 4.5973730000000002 8.5471149999999998 9.5387330000000006 O
atom 9.6145230000000002 3.2381430000000000 4.4612400000000001 O
atom 9.6094360000000005 3.3469009999999999 9.4607480000000006 O
atom 9.6682410000000001 8.4937430000000003 4.4722989999999996 O
atom 9.5769020000000005 8.5081159999999993 9.3622720000000008 O
atom 2.9928509999999999 1.1177100000000000 2.8760319999999999 O
atom 2.7456649999999998 1.3340080000000001 7.6418429999999997 O
atom 2.6796120000000001 6.3272779999999997 2.4720890000000000 O
atom 2.7431800000000002 6.5058299999999996 7.4892200000000004 O
atom 7.7252109999999998 1.1762030000000001 2.4563519999999999 O
atom 7.5774780000000002 1.2359059999999999 7.4258480000000002 O
atom 7.6986819999999998 6.3527170000000002 2.4888880000000002 O
atom 7.6631689999999999 6.4582689999999996 7.5001519999999999 O
atom 2.3844349999999999 1.8079470000000000 5.2711340000000000 O
atom 2.5216850000000002 1.3580080000000001 10.2217800000000008 O
atom 2.6529929999999999 6.8185760000000002 4.9781730000000000 O
atom 2.7378580000000001 6.6691200000000004 10.0006210000000006 O
atom 7.6012190000000004 1.3890709999999999 4.9418210000000000 O
atom 7.6819600000000001 1.4520130000000000 9.9239130000000007 O
atom 7.7005480000000004 6.5956609999999998 4.9920159999999996 O
atom 7.6873069999999997 6.6414080000000002 9.9699120000000008 O
atom 2.4055520000000001 4.2309900000000003 4.9968300000000001 O
atom 2.3456060000000001 4.0160660000000004 9.9997039999999995 O
atom 2.7810079999999999 9.7013200000000008 5.0750830000000002 O
atom 2.1642779999999999 9.3451979999999999 10.2350919999999999 O
atom 7.2583580000000003 3.9966089999999999 5.0097209999999999 O
atom 7.2944180000000003 4.0232099999999997 9.9981469999999995 O
atom 7.3219880000000002 9.1925969999999992 4.9528330000000000 O
atom 7.2701349999999998 9.2251519999999996 9.9402819999999998 O
atom 2.3262190000000000 3.7458380000000000 2.5012120000000002 O
atom 2.2736969999999999 3.9277890000000002 7.5097529999999999 O
atom 2.6491769999999999 8.8982779999999995 2.8427699999999998 O
atom 2.3018220000000000 9.0963309999999993 7.5481150000000001 O
atom 7.2734940000000003 3.7638259999999999 2.5188050000000000 O
atom 7.2861170000000000 3.8474210000000002 7.5023869999999997 O
atom 7.4270199999999997 8.9634099999999997 2.4592939999999999 O
atom 7.2778210000000003 9.0240449999999992 7.4514579999999997 O
