lattice_vector 10.0370828000000003 -0.0298230800000000 0.7932568000000000 
lattice_vector -0.0051305400000000 10.1523976099999995 -0.0111373700000000 
lattice_vector 0.8633391700000000 -0.0140641100000000 10.4327203500000003 
atom 1.4106263600000000 0.0477865000000000 1.8567415400000000 Si
atom 1.9380199000000000 0.1708756800000000 6.7919631899999997 Hf
atom 1.4489953300000000 5.2310641499999999 1.6069768000000000 Hf
atom 1.9400732599999999 5.2563917099999999 6.8461043500000001 Hf
atom 6.6132920000000004 0.2943954100000000 2.0214008899999998 Hf
atom 6.9572426500000004 0.2066740200000000 7.2483685800000002 Hf
atom 6.5257023399999996 5.2585249100000002 2.0127422699999999 Hf
atom 6.9667736500000004 5.2721367800000003 7.2552764500000002 Hf
atom 1.6994752500000001 2.2978909800000000 4.1679474900000004 Hf
atom 2.2212017400000001 2.2747600299999999 9.3987606899999996 Hf
atom 1.6799708700000000 7.3459416400000004 4.2155514800000002 Hf
atom 2.1311331299999998 7.3856549700000000 9.4487039399999997 Hf
atom 6.7600377199999997 2.3759094799999998 4.6208217100000004 Hf
atom 7.2264575500000001 2.3540829900000002 9.8990107700000003 Hf
atom 6.7419440300000000 7.3842890199999998 4.6196006599999997 Hf
atom 7.1511148400000000 7.3892658500000001 9.8757038500000007 Hf
atom 3.6792894399999998 2.7077510500000002 1.3115659700000000 Hf
atom 4.1421217500000003 2.7479362799999998 6.5530417500000002 Hf
atom 3.6737354099999999 7.8882158799999997 1.3751785200000000 Hf
atom 4.1386213900000000 7.8209011600000000 6.5829597199999998 Hf
atom 9.2124969100000005 2.3518807300000000 1.7504852799999999 Si
atom 9.1864705699999991 2.7110544600000002 7.0162525000000002 Hf
atom 8.7374761900000006 7.8387946099999999 1.7745482900000000 Hf
atom 9.1228403700000005 7.7657125499999999 7.0081585000000004 Hf
atom 3.9146952599999998 4.8556298199999999 3.9424853899999999 Hf
atom 4.3596846200000003 4.8632305400000000 9.2005385999999998 Hf
atom 3.9429657900000001 9.9274956400000001 3.9124976800000000 Hf
atom 4.3592041500000001 9.9859396700000005 9.1974219999999995 Hf
atom 8.8743415100000007 4.7584391999999998 4.3568759100000003 Hf
atom 9.3714121699999993 4.7697797700000004 9.7056796199999997 Hf
atom 8.9585377200000007 9.9096802099999994 4.4028479200000001 Hf
atom 9.3885860599999997 9.9256745599999991 9.5904565799999997 Hf
atom 0.5852253200000000 1.4244989500000000 0.8758504499999999 O
atom 0.8124250600000000 1.5828616400000000 5.9520032299999999 O
atom 0.3426827900000000 6.6851530099999996 0.8109437300000000 O
atom 0.7811159800000000 6.6664360199999999 6.0115947800000002 O
atom 5.4521343599999996 1.6886523700000000 1.2201352500000000 O
atom 5.8728097999999997 1.6971471499999999 6.4399299299999999 O
atom 5.3993065700000002 6.7942336900000004 1.2339272699999999 O
atom 5.8580134800000003 6.7591605899999996 6.4324414100000000 O
atom 0.6894518900000000 0.7499961200000000 3.3462753500000000 O
atom 1.0628041800000001 0.8610946600000000 8.5926544499999995 O
atom 0.5522674200000000 5.8710390900000000 3.3607777900000002 O
atom 1.0641996000000000 5.8960503800000001 8.6922791799999999 O
atom 5.7208520399999996 0.8642655500000000 3.8064610700000001 O
atom 6.1366012000000003 0.8174993699999999 9.0742364000000002 O
atom 5.5672805399999996 5.9884011800000003 3.8151518400000000 O
atom 6.0552723500000001 5.9465754500000001 9.0333390799999993 O
atom 4.7648849400000000 4.2365825600000004 2.1326975799999999 O
atom 5.2340063800000003 4.2277141900000004 7.3744122699999997 O
atom 4.8595290999999996 9.3118262800000000 2.1566690799999999 O
atom 5.2337195000000003 9.3095166599999999 7.3661359800000001 O
atom 9.7478168099999998 3.7702185300000002 2.6192320400000000 O
atom 10.3476679199999992 4.0406677599999998 7.9667678600000000 O
atom 9.9755570099999993 9.2451928700000003 2.6009407000000002 O
atom 10.2764988000000006 9.1953412300000004 7.8138624300000004 O
atom 5.0068582099999999 3.3809203900000000 4.7609671899999997 O
atom 5.5086677000000002 3.4231052200000001 9.9793878700000000 O
atom 5.0334303699999996 8.4912377200000009 4.7647164200000001 O
atom 5.3651824499999998 8.4352990999999999 9.9859715199999997 O
atom 10.0742454400000003 3.3827318000000002 5.2447312200000002 O
atom 10.4549906799999999 3.1930011600000001 10.6828185500000004 O
atom 10.0278184899999996 8.4260211500000004 5.1969979000000004 O
atom 10.4944394200000009 8.4606062800000004 10.4235389600000001 O
atom 2.8081290600000002 1.1279755600000001 2.4444755300000001 O
atom 3.3937458600000001 1.2613042600000000 7.8064695999999998 O
atom 2.8943652200000001 6.3737348300000001 2.6860331799999999 O
atom 3.3887118599999999 6.3638388600000004 7.9177922599999997 O
atom 8.2173435700000006 1.5160257500000001 3.0019096099999998 O
atom 8.4605331400000008 1.2758518200000000 8.3625671900000000 O
atom 7.9974648600000000 6.4018879799999997 3.1238976900000002 O
atom 8.4466108799999997 6.3200323599999999 8.3806900899999999 O
atom 3.2032377500000000 1.2427398599999999 5.1893394099999997 O
atom 3.8051660200000001 1.4426909699999999 10.2735757999999997 O
atom 3.1654499999999999 6.2979822199999997 5.3079861499999996 O
atom 3.5801828100000002 6.3492152500000003 10.5490088899999996 O
atom 8.2200675400000005 1.2034332900000000 5.7005494900000002 O
atom 8.8475676199999995 1.2938539200000001 11.0540510899999997 O
atom 8.1841085899999992 6.2531082099999997 5.7250926199999999 O
atom 8.6518205300000002 6.3328104600000001 10.9560852700000009 O
atom 2.2271276200000001 3.8741521099999998 0.2532177300000000 O
atom 2.6474633700000001 3.8265149699999998 5.4763317000000002 O
atom 2.1964086300000001 9.2586938199999995 0.4790927400000000 O
atom 2.6715666100000002 8.8888772300000003 5.4608147400000000 O
atom 7.1835188900000002 3.9076214199999999 0.6286921900000000 O
atom 7.7256730300000003 3.7965019700000000 5.9479694600000004 O
atom 7.2649130499999997 8.9784133900000000 0.6698456200000000 O
atom 7.6906414099999996 8.8902472299999999 5.9031835600000004 O
atom 2.4576982599999999 3.7035331600000001 2.8540677300000001 O
atom 2.9112833400000002 3.7393838200000000 8.0998446099999999 O
atom 2.3568346000000000 8.8778298299999996 2.8741103500000000 O
atom 2.8903513400000000 8.8248342999999991 8.1333737100000008 O
atom 7.2763416300000001 3.9218823700000001 3.4305890600000000 O
atom 7.9357822899999997 3.7493181400000002 8.5049072799999994 O
atom 7.5421748600000003 8.9067015499999993 3.2749873400000000 O
atom 7.8994084600000001 8.8107012299999994 8.5072398600000003 O
