lattice_vector 10.1285753900000000 0.0104430000000000 -0.0808250200000000 
lattice_vector 0.0072089500000000 5.1546415999999997 0.0115617500000000 
lattice_vector -0.0309761700000000 -0.0081728600000000 10.4251675499999994 
atom 1.3203528600000001 0.0849859200000000 1.6774367200000000 La
atom 1.3914527900000000 0.1801691800000000 6.9888503699999998 Hf
atom 1.3147351199999999 2.2633549600000000 4.4498062300000001 Hf
atom 1.4188705300000000 2.3697575099999999 9.5465299800000007 Hf
atom 3.7527811899999999 2.6970946900000001 1.6633514500000000 Hf
atom 3.6575366200000001 2.7755487300000001 6.9378999600000002 Hf
atom 3.7120995500000000 5.0052359500000003 4.3985087199999997 Hf
atom 3.7105830700000002 4.9299046300000002 9.5413113799999998 Hf
atom 6.5181616299999998 0.1823709000000000 0.7783436900000000 Hf
atom 6.4670316400000001 0.2261392300000000 6.0240350999999999 Hf
atom 6.4306757899999996 2.4074383899999998 3.4109653600000001 Hf
atom 6.4664728699999996 2.3578403600000000 8.5978054099999994 Hf
atom 8.7115845499999995 2.7792670199999998 0.7646857900000000 Hf
atom 8.7081765400000002 2.8099029099999999 5.9924297700000002 Hf
atom 8.6304354300000004 4.9670459999999999 3.4158178499999998 Hf
atom 8.7352243000000005 4.9373050200000002 8.6014335800000001 Hf
atom 0.4417895700000000 2.0657970300000001 0.9692181800000000 O
atom 0.3468775400000000 1.7898041800000000 6.2184017100000002 O
atom 0.2491274500000000 0.7504031600000000 3.7002758099999999 O
atom 0.3897270600000000 0.7461627400000000 8.7974493799999998 O
atom 4.7955190999999999 4.2730363899999997 0.8213103800000000 O
atom 4.7255124300000002 4.3052222999999996 6.0754318999999999 O
atom 4.6135696800000003 3.4516501200000000 3.4383466600000001 O
atom 4.7318723000000000 3.4127918500000001 8.6265869899999998 O
atom 2.7729764299999999 1.4006314600000001 3.1173928200000001 O
atom 2.7872782100000002 1.2704074500000000 8.2199168199999999 O
atom 2.8998352100000000 1.2808823499999999 0.3379699400000000 O
atom 2.7551184499999999 1.2604952400000000 5.6914841200000001 O
atom 2.2720903200000002 3.8339544000000001 8.1928233899999992 O
atom 2.4807866399999998 3.7451153399999999 0.3122953100000000 O
atom 2.2682496599999999 3.8669921800000000 5.5492913000000001 O
atom 5.4284508999999996 1.6643810600000000 1.6988350299999999 O
atom 5.4002168900000003 1.7211985800000000 6.8872846000000001 O
atom 5.3946900099999997 0.8839907299999999 4.3199282800000001 O
atom 5.4400395599999998 0.8413874400000000 9.4841591800000007 O
atom 9.3707337200000005 4.5000359200000002 1.5463605499999999 O
atom 9.7457623499999997 4.3739594799999999 6.8123905899999997 O
atom 9.7333175000000001 3.3804925500000000 4.1982077799999997 O
atom 9.7529880999999996 3.3756880599999999 9.3851879000000000 O
atom 7.8692852899999997 1.2558411100000000 9.9147726299999999 O
atom 7.8018902199999998 1.3109992699999999 4.7312964900000001 O
atom 7.8293664100000004 1.3736157000000000 2.1409981000000000 O
atom 7.8564491700000003 1.3133778500000000 7.3147447200000002 O
atom 7.3252142300000003 3.8389093000000001 9.9053625899999993 O
atom 7.3034837499999998 3.8783816099999999 4.7357719600000001 O
atom 7.1573918900000004 3.8894090900000000 2.1624857300000002 O
atom 7.3390929099999997 3.8796854999999999 7.3160292199999999 O
