lattice_vector 9.9416998099999994 -0.0162724900000000 0.0857018100000000 
lattice_vector -0.0087612300000000 10.3926836199999997 -0.0396873900000000 
lattice_vector 0.0190873000000000 -0.0477017500000000 10.0184875899999994 
atom 1.1924428899999999 0.3820389900000000 1.0995494400000001 Si
atom 1.3674232900000001 0.1637045700000000 6.2995783599999999 Hf
atom 1.3088264300000001 5.3123289400000004 1.2246732700000000 Hf
atom 1.3443514599999999 5.3266047700000003 6.2423559199999996 Hf
atom 6.3007744800000003 0.1691650300000000 1.3090486100000001 Hf
atom 6.2760038800000002 0.1089973200000000 6.2950023799999997 Hf
atom 6.3570677499999997 5.3782429299999999 1.2623751999999999 Hf
atom 6.3765368300000000 5.3283168200000004 6.3966393100000003 Hf
atom 1.3651996099999999 2.3736258299999999 3.7081505099999998 Hf
atom 1.3323139799999999 2.4395474799999999 8.7664947899999994 Hf
atom 1.3143308300000001 7.5808041399999997 3.7540398599999998 Hf
atom 1.3159649600000001 7.5900264000000002 8.7704610299999999 Hf
atom 6.3288174899999996 2.3418674799999999 3.8256964800000000 Hf
atom 6.2980313299999997 2.3630230999999999 8.7731652199999992 Hf
atom 6.4055539899999996 7.7365720199999997 3.7430371500000001 Hf
atom 6.2833647900000003 7.6262334400000000 8.7922383699999997 Hf
atom 3.6800192900000002 2.7248744899999999 1.1766538700000000 Hf
atom 3.6333779000000002 2.7376073000000001 6.2833882900000004 Hf
atom 3.6134904200000002 7.9062495400000001 1.3027864800000000 Hf
atom 3.6388198100000002 7.9594507900000000 6.3340536199999997 Hf
atom 8.5996008600000007 2.7424109500000000 1.2939927400000000 Hf
atom 8.6372189899999992 2.7193717099999999 6.2929311400000003 Hf
atom 8.7168205699999994 7.9885063000000001 1.2430795299999999 Hf
atom 8.6354339200000005 7.9402192800000000 6.2951236399999999 Hf
atom 3.8616817800000001 5.1264397400000004 3.7696738200000000 La
atom 3.6543509900000002 5.0237562499999999 8.7611191599999998 Hf
atom 3.6030760000000002 10.1571722599999994 3.7135020600000002 Hf
atom 3.5595354299999999 10.2007183500000007 8.8719840600000008 Hf
atom 8.5866042700000005 4.9895532300000003 3.8004297899999999 Hf
atom 8.6224722899999993 4.9885969200000000 8.8167522100000006 Hf
atom 8.7155307299999993 10.2465571099999995 3.7514644900000000 Hf
atom 8.6125468200000004 10.2027686800000001 8.7762619900000001 Hf
atom 0.3747954300000000 1.8441300300000001 1.7954984800000000 O
atom 0.3371124200000000 1.8813755100000000 7.0072896900000003 O
atom 0.3102444500000000 7.0711130300000002 1.9396234999999999 O
atom 0.3442996000000000 7.0810789600000001 6.9780634499999996 O
atom 5.2346709200000001 1.8148737800000001 2.0902246799999999 O
atom 5.3372409500000000 1.8563952100000001 6.9852636400000003 O
atom 5.2215246600000000 6.9462502199999996 2.1748225799999998 O
atom 5.3292645199999997 7.0515517200000000 7.0006252900000003 O
atom 0.3751803300000000 0.6947613900000000 4.5293799400000001 O
atom 0.3456936700000000 0.6339134800000000 9.5743383099999999 O
atom 0.2808179400000000 5.8519686599999998 4.4820886800000004 O
atom 0.3314811000000000 5.8604385800000003 9.4704396400000004 O
atom 5.3655135400000002 0.5654317900000000 4.4830982199999996 O
atom 5.2397137100000002 0.7060567300000000 9.6170010200000000 O
atom 5.3553621400000004 5.8714903700000001 9.4735898400000007 O
atom 4.6867878599999999 4.4046244400000001 1.6748905900000000 O
atom 4.5920586500000002 4.5284709500000000 6.8890138099999998 O
atom 4.7504560800000002 9.5546505899999996 2.0294577399999998 O
atom 4.6177248700000000 9.6712098799999993 7.0616441500000002 O
atom 9.5778273499999997 4.4439267700000000 2.0265257000000001 O
atom 9.5755930199999995 4.4623729799999996 7.0139436599999998 O
atom 9.8914603799999998 9.7663905300000007 1.9203314100000000 O
atom 9.6092206299999994 9.6661931100000000 7.0019463399999999 O
atom 4.7241257799999996 3.1641116800000000 4.5868078600000004 O
atom 4.5625365899999997 3.2063940299999998 9.3280756399999998 O
atom 4.6843801999999997 8.3392715800000001 4.5689937000000000 O
atom 4.5552346100000003 8.4632417400000008 9.4976060499999999 O
atom 9.5620179899999993 3.2043147200000002 4.4442194500000003 O
atom 9.5849059099999998 3.2512181500000001 9.5207021399999991 O
atom 9.5871839899999998 8.4691153900000007 4.4829866799999998 O
atom 9.5636513399999998 8.4524219800000004 9.4553513400000000 O
atom 2.4214146900000002 0.8695577100000000 2.4142353200000000 O
atom 2.6999607000000001 1.2016038800000000 7.5510339399999999 O
atom 2.5522849500000002 6.3434620400000004 2.4145613600000000 O
atom 2.6804255000000001 6.3945358600000004 7.5230653099999998 O
atom 7.6879162799999996 1.1886235400000000 2.5188621200000001 O
atom 7.6517223400000001 1.1645571900000000 7.5396415299999999 O
atom 7.6781560500000001 6.4219521700000000 2.5455393000000002 O
atom 7.6919453100000004 6.4011947400000002 7.5795491799999999 O
atom 2.7427215299999999 1.3502577099999999 4.9619557299999997 O
atom 2.5372239699999999 1.3472730399999999 10.0748151299999993 O
atom 2.5819930499999999 6.6423123500000001 5.0831345399999996 O
atom 2.6745721499999999 6.5626100899999997 9.9881424499999998 O
atom 7.6892688199999997 1.3426405600000000 5.0411079599999997 O
atom 7.6383735200000000 1.3430670600000001 10.0384306199999997 O
atom 7.5263636099999998 6.5774371800000004 5.0602584799999999 O
atom 7.6618078799999996 6.5797544600000002 10.0609403400000001 O
atom 2.1969422800000000 3.8600189000000000 5.0312132199999997 O
atom 2.2989376099999999 3.9628295499999999 9.9696338200000003 O
atom 2.3205323800000000 9.1830088799999992 5.0807148099999999 O
atom 2.1822025699999998 9.3253446800000006 10.2709630599999997 O
atom 7.2639238600000002 3.9774364599999998 5.0609296700000002 O
atom 7.2640845599999997 3.9250813199999999 10.0360299899999994 O
atom 7.3345667299999997 9.2006200099999997 4.9919827400000001 O
atom 7.2362574300000002 9.1651400200000008 9.9949130400000001 O
atom 2.3339898500000000 3.6513484100000002 2.4182165300000000 O
atom 2.2813207200000001 3.8119710100000002 7.5174059700000004 O
atom 2.5100147900000001 8.7569762799999999 2.6942203299999998 O
atom 2.2652093099999999 9.0124535800000007 7.6146615400000002 O
atom 7.2177636200000004 3.7813854099999999 2.5384402800000001 O
atom 7.2581407400000000 3.7704688900000001 7.5529455499999996 O
atom 7.4114814100000004 9.0228740199999997 2.4684177100000002 O
atom 7.2610077899999999 8.9660681899999997 7.4973049999999999 O
