lattice_vector 10.1135683800000002 -0.0247233200000000 0.8307025099999999 
lattice_vector -0.0036518000000000 10.3230581699999995 -0.0258835700000000 
lattice_vector 0.8444398600000000 -0.0246772700000000 10.4200448399999992 
atom 1.5048368500000000 0.1534113900000000 1.6030920000000000 La
atom 1.9476182799999999 0.1989394800000000 6.8342550400000004 Hf
atom 1.4996798000000000 5.3753876800000002 1.5940613400000001 Hf
atom 1.9348518800000001 5.3599427899999998 6.8309664899999998 Hf
atom 6.5844798700000000 0.1947750100000000 2.0582298500000000 Hf
atom 7.0090615999999999 0.1973224200000000 7.2690426400000003 Hf
atom 6.5922845399999996 5.3538427500000001 2.0397807499999998 Hf
atom 6.9974718200000003 5.3536698999999999 7.2468965599999997 Hf
atom 1.6629115900000000 2.3842974300000002 4.3127588299999999 Hf
atom 2.1399398299999999 2.3692051200000002 9.4100487400000006 Hf
atom 1.7369648099999999 7.4701187800000000 4.2356754399999996 Hf
atom 2.1677856499999999 7.5022592200000000 9.4229703600000008 Hf
atom 6.7881096200000002 2.3449412600000001 4.6527494000000003 Hf
atom 7.2414619199999999 2.3215321800000002 9.8599581000000001 Hf
atom 6.7962177600000002 7.4698124200000002 4.6503634500000004 Hf
atom 7.2351965099999997 7.4943516099999998 9.8344701099999998 Hf
atom 3.7855392900000000 2.8480530499999999 1.2735712299999999 Hf
atom 4.1625088400000001 2.7745517099999999 6.5660619100000002 Hf
atom 3.7842950200000001 7.9029615199999999 1.3547335100000000 Hf
atom 4.1521441899999996 7.9210411000000001 6.5976861600000003 Hf
atom 8.7815697999999998 2.7920474500000001 1.7783465800000000 Hf
atom 9.1969789199999994 2.7760042199999999 7.0344194099999999 Hf
atom 8.7515705900000000 7.9137618800000000 1.7884870100000001 Hf
atom 9.2294209800000004 7.9291287500000003 6.9950924099999998 Hf
atom 3.9467909500000000 4.9013552799999998 3.9569349100000002 Hf
atom 4.3721680200000002 4.9305510899999998 9.1634346000000004 Hf
atom 4.0129824100000002 10.0020608800000002 4.0271217000000004 Hf
atom 4.4005427700000004 10.0696981300000008 9.1546131299999995 Hf
atom 8.9940487699999991 4.9155991999999999 4.3997490299999997 Hf
atom 9.4257281899999992 4.9143698100000002 9.5922025899999994 Hf
atom 8.9634695600000001 10.0668651899999997 4.4278938099999996 Hf
atom 9.4475869299999999 10.0567564500000000 9.6088792900000009 Hf
atom 0.4339715100000000 1.9652686900000000 0.8192932500000000 O
atom 0.8751387000000000 1.8159570000000000 6.1927466600000001 O
atom 0.4558011200000000 6.9586442399999999 0.8838635900000000 O
atom 0.8680164500000001 6.9216812299999999 6.0901710600000003 O
atom 5.4816185500000003 1.7355120700000000 1.2676510700000001 O
atom 5.8884695400000000 1.7046033700000001 6.4756264500000000 O
atom 5.5252594200000003 6.9017666100000001 1.2705955499999999 O
atom 5.9048067900000003 6.8712037199999996 6.4854285599999999 O
atom 0.5991669300000000 0.8266006100000000 3.6632339799999998 O
atom 1.1086998200000000 0.7574026699999999 8.7298255999999999 O
atom 0.6674665300000000 5.9253604900000001 3.4776454800000001 O
atom 1.0764991300000000 5.9453997500000000 8.6837473700000007 O
atom 5.6823439000000002 0.8179277700000001 3.8816913700000000 O
atom 6.1382900100000004 0.8181021800000000 9.0759590400000008 O
atom 5.6861904799999996 5.9595764000000004 3.8757993800000001 O
atom 6.1190004800000004 5.9748945500000001 9.0727046399999995 O
atom 4.8424390800000001 4.3375670599999996 2.1276094900000002 O
atom 5.2573805299999998 4.2916134599999998 7.3449181000000001 O
atom 4.7884414399999997 9.5327794499999996 2.1164196999999998 O
atom 5.2700517400000004 9.4507168600000000 7.3390607899999996 O
atom 9.8411304099999999 4.3658280400000002 2.5356381899999998 O
atom 10.2786886299999995 4.3482095799999998 7.7304937400000000 O
atom 9.6288196100000008 9.4979008700000005 2.5744923599999998 O
atom 10.3083822099999995 9.4746092999999991 7.7522824500000000 O
atom 5.0398874999999999 3.3838890300000002 4.7392991000000002 O
atom 5.5181426900000003 3.4342477499999999 9.9466750099999999 O
atom 5.0546354700000000 8.5164273300000009 4.7760841899999997 O
atom 5.5579055999999998 8.5782534800000008 9.9574648600000000 O
atom 10.0539607400000008 3.3820433599999999 5.1864214500000001 O
atom 10.4713423500000005 3.3509155300000000 10.2888074599999992 O
atom 10.0973473600000005 8.5093358200000004 5.1360243600000004 O
atom 10.5317198600000008 8.5188795600000002 10.3810152400000000 O
atom 3.4183698200000001 1.3047555399999999 7.8847886799999998 O
atom 2.9922972300000001 6.3934753500000001 2.6953901299999998 O
atom 3.4171423399999998 6.4686957300000003 7.9302497399999998 O
atom 8.0345786300000004 1.3284844499999999 3.1678158399999998 O
atom 8.4942733799999992 1.2990926300000001 8.3774179300000000 O
atom 8.0488915500000004 6.4679558100000003 3.1519182400000001 O
atom 8.4767984999999992 6.4672626600000003 8.3366278400000002 O
atom 3.1839533400000000 1.2214580500000001 5.2423685999999998 O
atom 3.7258363200000000 1.3043498499999999 10.4487085000000004 O
atom 3.2095361699999998 6.3770414899999999 5.3225790599999998 O
atom 3.6352497800000001 6.3621574000000001 10.5268123300000003 O
atom 8.2370593900000006 1.2312711400000000 5.7837993299999999 O
atom 8.6835334599999996 1.1992738500000000 10.9723637299999996 O
atom 8.2676361499999995 6.3749654500000004 5.7464298700000001 O
atom 8.6890496400000004 6.3567657700000000 10.9479952300000001 O
atom 2.2784279800000000 3.9465102900000000 0.2306948800000000 O
atom 2.6859743599999999 3.9113791899999999 5.4748810499999996 O
atom 2.4099798799999999 8.9406000100000007 0.1430209500000000 O
atom 2.7017996100000001 9.0433870800000005 5.5036325899999996 O
atom 7.3156108199999998 3.9065877300000000 0.6846778400000000 O
atom 7.7257911300000002 3.8884785800000001 5.9054207400000003 O
atom 7.3320840299999999 9.0559489200000005 0.6811458100000000 O
atom 7.7500640699999996 9.0402857200000000 5.9059755100000002 O
atom 2.5158361500000002 3.6430091700000000 2.8419086600000001 O
atom 2.9027039700000001 3.8136259300000002 8.0612707199999996 O
atom 2.6159958799999998 8.8382679599999996 2.9502082299999999 O
atom 2.8978234700000001 8.9663395300000008 8.0562445900000004 O
atom 7.5215494500000002 3.8158271099999999 3.3035356400000002 O
atom 7.9513512799999999 3.7911537700000002 8.5016532599999994 O
atom 7.3993942099999996 8.9452530899999996 3.3137472899999998 O
atom 7.9819209999999998 8.9596199199999997 8.4943460000000002 O
