lattice_vector 10.0695497599999992 -0.0189566400000000 -0.0513421800000000 
lattice_vector 0.0208071000000000 10.2356517900000004 0.0541882100000000 
lattice_vector -0.0010516000000000 0.0651440800000000 10.4273386899999991 
atom 0.9711535600000000 0.2963998700000000 2.2142825799999999 Si
atom 1.3352185299999999 0.3432883400000000 7.0327016699999998 Hf
atom 1.4105030100000000 5.3345301500000000 1.7725255499999999 Hf
atom 1.4157437600000000 5.3896489900000004 7.0252532700000003 Hf
atom 1.3260735600000000 2.4704256299999998 4.3963303600000003 Hf
atom 1.4959283800000001 2.3290363799999998 9.6750122199999993 Hf
atom 1.3275504800000000 7.4853683400000000 4.3144113400000004 Hf
atom 1.4587603499999999 7.5496614700000002 9.5926559499999993 Hf
atom 3.6043371000000000 2.7563411599999998 1.7455672300000000 Hf
atom 3.6398199999999998 2.8232481699999998 6.9895289900000002 Hf
atom 3.6280923000000000 7.8787366099999998 1.6941731499999999 Hf
atom 3.7457959199999999 7.9030802299999996 7.0210873400000002 Hf
atom 3.6402847500000002 4.9550876900000000 4.3924211800000004 Hf
atom 3.6636851799999999 4.9258927100000003 9.6025854699999993 Hf
atom 3.7013650299999998 10.2206938899999997 4.1740250000000003 La
atom 3.6953952299999999 10.0821016100000005 9.6118345200000004 Hf
atom 6.4366736900000001 0.2161149400000000 0.8135818600000000 Hf
atom 6.4326432200000001 0.2172189700000000 6.0721322300000002 Hf
atom 6.4604337100000002 5.3073065699999997 0.7962195700000000 Hf
atom 6.4568446899999996 5.3443759799999997 6.0473868499999996 Hf
atom 6.4417821999999996 2.3909474300000002 3.4276664499999998 Hf
atom 6.4532052200000001 2.3907562400000000 8.6426399000000007 Hf
atom 6.3931834299999997 7.4408568800000001 3.3978088500000001 Hf
atom 6.4920209099999999 7.4854817000000002 8.6836805800000008 Hf
atom 8.7589586799999992 2.6987649299999998 0.8360251000000000 Hf
atom 8.6493003500000007 2.8113493500000000 6.0518702299999996 Hf
atom 8.7511294900000003 7.9149265700000004 0.8514124800000000 Hf
atom 8.6908702800000004 7.8939848000000001 6.0675163000000003 Hf
atom 8.6385084200000009 4.9300597599999998 3.4054483699999998 Hf
atom 8.7422449499999999 4.9149808400000001 8.6696199699999994 Hf
atom 8.5201591899999993 10.0241667299999992 3.5380739200000000 Hf
atom 8.6962203500000008 10.0613941800000006 8.6895513399999995 Hf
atom 0.4785629800000000 1.4769088500000001 1.0088452299999999 O
atom 0.2974534300000000 1.8061708200000000 6.1208805899999996 O
atom 0.3878357400000000 6.8592612300000004 0.9081531400000000 O
atom 0.3803233000000000 6.8679699899999997 6.0798090900000004 O
atom 0.2001778900000000 0.8648804000000000 3.5986440499999999 O
atom 0.3437186000000000 0.9275377100000000 8.7146173999999998 O
atom 0.3082078300000000 6.0223426900000003 3.4750256899999998 O
atom 0.3774468800000000 6.0206582500000003 8.7334920300000007 O
atom 4.7019506499999997 4.2729561199999999 0.9130141800000000 O
atom 4.6608471400000004 4.3772375400000003 6.1393335799999997 O
atom 4.7268372400000001 9.4426021900000006 0.9697579700000000 O
atom 4.6854413099999999 9.4645107199999998 6.2247949299999998 O
atom 4.5896545099999999 3.2309754399999999 3.6188561799999999 O
atom 4.7096487099999997 3.4075021300000001 8.7096581400000002 O
atom 4.6126337800000003 8.3002755799999992 3.4672478899999999 O
atom 4.7379819899999998 8.4992556199999996 8.7854854000000007 O
atom 2.3044430500000002 1.3907956100000001 2.7631140500000000 O
atom 2.7822427900000002 1.2951246700000001 8.2407191199999996 O
atom 2.7399127900000000 6.4525209099999996 3.0362923300000002 O
atom 2.8295971600000001 6.3997283200000004 8.2765771600000004 O
atom 3.0604956799999998 1.4354784800000000 0.2769464500000000 O
atom 2.6614206199999999 1.4105368199999999 5.6800438599999996 O
atom 2.7972511099999999 6.3515442300000000 0.4392957600000000 O
atom 2.8004824400000001 6.5632233700000002 5.6281259400000003 O
atom 2.2755200000000002 3.9219295900000000 3.1076270699999999 O
atom 2.2777015999999999 3.8470451699999999 8.3086085000000001 O
atom 1.9570246200000001 9.0964933499999994 2.8556958799999999 O
atom 2.2837538099999999 8.9679969199999992 8.1338411100000005 O
atom 2.2320072999999998 3.8532605000000002 0.4881837300000000 O
atom 2.2378458000000001 3.9483460500000001 5.6834897199999999 O
atom 2.4168968600000000 8.8838353600000008 0.3012836000000000 O
atom 5.3643041100000000 1.7122664900000000 1.7377349300000000 O
atom 5.3926178399999998 1.7914587799999999 6.8516318199999997 O
atom 5.4046318500000003 6.8455315299999997 1.6053306100000000 O
atom 5.4715286399999998 6.8857238799999996 6.9161199800000004 O
atom 5.7493378899999996 0.6932464200000000 4.1984996299999997 O
atom 5.4767996400000003 0.8307467900000000 9.4701934500000000 O
atom 5.4365931900000000 5.8549112900000004 4.2488341299999997 O
atom 5.4393875899999999 5.9278492399999996 9.4818092800000002 O
atom 9.7645922200000008 4.2081671299999996 1.7436346800000000 O
atom 9.7589274400000008 4.2890685399999997 6.9634360800000001 O
atom 9.7425006900000000 9.4752069999999993 1.8100959500000000 O
atom 9.7493850599999998 9.4092281700000004 6.9519005299999996 O
atom 9.7023402000000001 3.4919362100000000 4.3450229499999997 O
atom 9.8089389899999997 3.4079836299999999 9.6141739800000003 O
atom 9.7056894099999997 8.5675836000000007 4.3520007900000000 O
atom 9.7810902500000001 8.5913345400000001 9.5661161999999997 O
atom 7.8719018700000003 1.3030835000000001 9.9718679500000000 O
atom 7.9191106700000002 1.3004877100000001 4.8093296199999997 O
atom 7.8772831099999996 6.4300089299999996 9.9814644200000000 O
atom 7.8319836399999998 6.3848202799999996 4.7552882500000004 O
atom 7.8131261900000002 1.2938382100000001 2.1451005699999999 O
atom 7.8086824899999998 1.3245197000000000 7.3744471899999997 O
atom 7.8235175500000000 6.4090401999999997 2.1220327900000000 O
atom 7.8704292400000000 6.4175780299999996 7.3774080700000004 O
atom 7.3530105299999997 3.8317946400000000 9.9773044700000000 O
atom 7.2705745899999998 3.8393744200000000 4.7493272199999996 O
atom 7.3388061699999998 8.9814713499999996 10.0151338499999998 O
atom 7.2597637800000001 8.8843270400000005 4.8291956799999998 O
atom 7.3200033099999997 3.8382352900000001 2.1251299900000000 O
atom 7.3067816900000002 3.8952700099999999 7.3684931699999998 O
atom 7.3023100200000002 8.9590860100000000 2.1815725900000000 O
atom 7.3384336100000001 8.9865478400000001 7.4145991999999996 O
