lattice_vector 10.0539400000000008 -0.0096770000000000 0.0068030000000000 
lattice_vector 0.0030790000000000 10.4091869999999993 -0.0146640000000000 
lattice_vector 0.0082130000000000 -0.0359890000000000 10.0869099999999996 
atom 1.2817590000000001 -0.0333330000000000 1.2523640000000000 La
atom 1.3419620000000001 0.1322790000000000 6.2941640000000003 Hf
atom 1.3671679999999999 5.3935459999999997 1.2671980000000000 Hf
atom 1.3527220000000000 5.3681820000000000 6.2917430000000003 Hf
atom 6.3369239999999998 0.1101310000000000 1.2631280000000000 Hf
atom 6.3716049999999997 0.1532710000000000 6.3095559999999997 Hf
atom 6.3916990000000000 5.3313259999999998 1.2779400000000001 Hf
atom 6.3750239999999998 5.3275290000000002 6.2975960000000004 Hf
atom 1.4140539999999999 2.4235920000000002 3.8684959999999999 Hf
atom 1.3975730000000000 2.4074700000000000 8.7615619999999996 Hf
atom 1.3668579999999999 7.6075419999999996 3.8073220000000001 Hf
atom 1.3779310000000000 7.5874069999999998 8.8196200000000005 Hf
atom 6.3685070000000001 2.4239199999999999 3.7743490000000000 Hf
atom 6.3393160000000002 2.4140290000000002 8.7986210000000007 Hf
atom 6.3755360000000003 7.5869109999999997 3.8151869999999999 Hf
atom 6.3907650000000000 7.5742740000000000 8.8140190000000000 Hf
atom 3.6446470000000000 2.7514590000000001 1.2711470000000000 Hf
atom 3.6949320000000001 2.7510770000000000 6.3025180000000001 Hf
atom 3.7486290000000002 7.8990369999999999 1.2542260000000001 Hf
atom 3.6943150000000000 7.9445410000000001 6.3012459999999999 Hf
atom 8.8096379999999996 2.6608450000000001 1.2030310000000000 La
atom 8.7258289999999992 2.7558330000000000 6.3003559999999998 Hf
atom 8.6629579999999997 7.9347709999999996 1.2777080000000001 Hf
atom 8.7238840000000000 7.9427940000000001 6.2920530000000001 Hf
atom 3.6886369999999999 5.0081360000000004 3.7683520000000001 Hf
atom 3.6864610000000000 4.9917189999999998 8.8363010000000006 Hf
atom 3.7121780000000002 10.2078290000000003 3.7974679999999998 Hf
atom 3.7112490000000000 10.1974820000000008 8.7809760000000008 Hf
atom 8.7090940000000003 5.0150350000000001 3.8035350000000001 Hf
atom 8.7065719999999995 5.0302519999999999 8.7732969999999995 Hf
atom 8.6556789999999992 10.2229039999999998 3.8496860000000002 Hf
atom 8.6610840000000007 10.1830649999999991 8.7943140000000000 Hf
atom 0.5936970000000000 1.9642450000000000 2.1079520000000000 O
atom 0.4146190000000000 1.9246630000000000 6.8957199999999998 O
atom 0.4097330000000000 7.2472719999999997 1.9446030000000001 O
atom 0.3562890000000000 7.1062810000000001 7.0227180000000002 O
atom 5.3786110000000003 1.9103010000000000 1.9368369999999999 O
atom 5.3705470000000002 1.8725259999999999 7.0140640000000003 O
atom 5.3942110000000003 7.0493870000000003 2.0120900000000002 O
atom 5.3763209999999999 7.0658029999999998 7.0134460000000001 O
atom 0.3603030000000000 0.6430750000000000 4.4668409999999996 O
atom 0.1707360000000000 0.8825700000000000 9.4396769999999997 O
atom 0.3700640000000000 5.8984810000000003 4.4970699999999999 O
atom 0.3312520000000000 5.9342790000000001 9.5491119999999992 O
atom 5.3791849999999997 0.6763220000000000 4.5312619999999999 O
atom 5.3373390000000001 0.6717040000000000 9.5251099999999997 O
atom 5.3892030000000002 5.8497370000000002 4.4995250000000002 O
atom 5.3646190000000002 5.8763199999999998 9.5495889999999992 O
atom 4.6615549999999999 4.4935029999999996 1.9449110000000001 O
atom 4.6962669999999997 4.4710950000000000 7.0298749999999997 O
atom 4.6682699999999997 9.6902240000000006 1.9634060000000000 O
atom 4.6931979999999998 9.6729889999999994 7.0026849999999996 O
atom 9.7462250000000008 4.6688330000000002 2.0399829999999999 O
atom 9.6669809999999998 4.5485210000000000 6.8972080000000000 O
atom 9.3479150000000004 9.7652380000000001 1.9854390000000000 O
atom 9.6900800000000000 9.6887939999999997 6.9989299999999997 O
atom 4.6653680000000000 3.2665380000000002 4.4989369999999997 O
atom 4.6570349999999996 3.2653900000000000 9.5157010000000000 O
atom 4.7104179999999998 8.4745010000000001 4.5296079999999996 O
atom 4.7796560000000001 8.4859120000000008 9.5586300000000008 O
atom 9.7018559999999994 3.2634660000000002 4.4545050000000002 O
atom 9.7815270000000005 3.3968680000000000 9.2592079999999992 O
atom 9.7041470000000007 8.4736270000000005 4.4891319999999997 O
atom 9.8185020000000005 8.5859710000000007 9.6227889999999991 O
atom 2.8941770000000000 1.2867560000000000 2.6051129999999998 O
atom 2.7173289999999999 1.1765509999999999 7.5401780000000000 O
atom 2.7157450000000001 6.3736420000000003 2.5107249999999999 O
atom 2.7195770000000001 6.3967619999999998 7.5558670000000001 O
atom 7.5653850000000000 1.0892329999999999 2.6127039999999999 O
atom 7.7486079999999999 1.1989920000000001 7.5277040000000000 O
atom 7.7673059999999996 6.4197040000000003 2.5138729999999998 O
atom 7.7389370000000000 6.4024349999999997 7.5220700000000003 O
atom 2.7297840000000000 1.3308670000000000 5.0830849999999996 O
atom 2.7529319999999999 1.3530800000000001 10.0088989999999995 O
atom 2.7363160000000000 6.5638589999999999 5.0330830000000004 O
atom 2.7400319999999998 6.5128950000000003 10.0711169999999992 O
atom 7.7343359999999999 1.3766710000000000 5.0533679999999999 O
atom 7.5863820000000004 1.2257800000000001 9.9845380000000006 O
atom 7.7471379999999996 6.5559079999999996 5.0340449999999999 O
atom 7.7460389999999997 6.5418279999999998 10.0615930000000002 O
atom 2.3448929999999999 3.9841620000000000 5.0522950000000000 O
atom 2.2980200000000002 3.9480719999999998 10.0826250000000002 O
atom 2.3232800000000000 9.1620740000000005 5.0301600000000004 O
atom 2.4905810000000002 9.0051319999999997 9.9618120000000001 O
atom 7.3508139999999997 3.9460620000000000 5.0493670000000002 O
atom 7.2967800000000000 3.9921440000000001 9.9903420000000001 O
atom 7.3364589999999996 9.1514539999999993 5.0560640000000001 O
atom 7.3575119999999998 9.0914669999999997 10.0717499999999998 O
atom 2.3300890000000001 3.8325230000000001 2.5405440000000001 O
atom 2.3317630000000000 3.8171469999999998 7.5346450000000003 O
atom 2.4958040000000001 8.8628979999999995 2.5971400000000000 O
atom 2.3074930000000000 8.9965480000000007 7.5125039999999998 O
atom 7.2485140000000001 3.8993699999999998 2.5770900000000001 O
atom 7.3436519999999996 3.7921440000000000 7.5323520000000004 O
atom 7.2309330000000003 8.9418869999999995 2.5147040000000001 O
atom 7.3464570000000000 8.9823079999999997 7.5476429999999999 O
