lattice_vector 10.0219022100000004 0.0070072700000000 -0.0109335800000000 
lattice_vector 0.0109280900000000 10.4589415599999995 -0.0585691100000000 
lattice_vector -0.0609728600000000 -0.0541931400000000 10.0285902399999998 
atom 1.0716131400000000 0.3237025300000000 1.1684758600000000 Si
atom 1.3203961500000001 0.1037775400000000 6.2525752800000003 Hf
atom 1.1752879599999999 5.2329716800000003 1.3131003299999999 Hf
atom 1.3463379200000001 5.3445499900000000 6.2485635999999998 Hf
atom 6.2727278000000002 0.1962891500000000 1.2574333900000001 Hf
atom 6.2709786799999998 0.1289161800000000 6.1758410399999999 Hf
atom 6.4349075800000000 5.4198534599999997 1.2843751100000000 Hf
atom 6.3823325300000002 5.3916728999999997 6.2077163899999999 Hf
atom 1.3006380200000001 2.3103310200000000 3.6500355000000000 Hf
atom 1.2038298300000001 2.4492133200000001 8.6518490299999993 Hf
atom 1.3594478999999999 7.5703883100000002 3.7755164200000002 Hf
atom 1.1762052300000001 7.8614518499999999 8.7797432799999999 La
atom 6.2967098999999997 2.3908738100000000 3.7373225799999998 Hf
atom 6.3420281300000001 2.3927757299999999 8.6847637899999999 Hf
atom 6.3801947300000004 7.6733111599999999 3.7651338999999999 Hf
atom 6.3012428900000002 7.7005900799999996 8.7209495500000003 Hf
atom 3.7827146599999999 2.9782752299999999 1.0718810700000001 Hf
atom 3.6254112900000002 2.6964966800000001 6.1708033200000001 Hf
atom 3.7101791899999998 7.7986150800000003 1.0991259600000001 La
atom 3.6876415300000001 8.0624272999999995 6.2878768599999999 Hf
atom 8.6093824800000007 2.7518136800000002 1.2376211399999999 Hf
atom 8.6349664399999995 2.7179497200000000 6.2177712700000001 Hf
atom 8.7041848799999997 7.9877471499999997 1.2499456400000000 Hf
atom 8.6750582800000000 8.0191320600000005 6.1978789399999998 Hf
atom 3.6799279700000000 4.9994563899999998 3.7710317199999999 Hf
atom 3.8375013899999999 5.0456095899999998 8.5157140200000008 Hf
atom 3.5671979299999999 10.1670018500000001 3.6136749699999999 Hf
atom 3.5494471800000000 10.4139425100000000 8.7750682199999996 Hf
atom 8.6730908499999995 4.9781590500000004 3.8006341500000000 Hf
atom 8.6502043099999995 5.0387587800000002 8.7573079499999995 Hf
atom 8.7140629000000001 10.2808679099999996 3.6502359499999999 Hf
atom 8.5575202899999994 10.2725262799999992 8.7377278000000000 Hf
atom 0.2628170000000000 1.7831587099999999 1.8652081400000000 O
atom 0.2331385600000000 1.7748485400000000 7.0182737299999998 O
atom 0.3870496200000000 7.1033803999999998 1.8750501200000000 O
atom 0.2861354000000000 7.0163228699999998 6.7631072699999999 O
atom 5.2636648399999997 1.9490302900000001 1.9464828400000000 O
atom 5.3322392399999998 1.9023375899999999 6.9225917199999998 O
atom 5.5900202500000002 7.1421321700000000 2.0157749900000002 O
atom 5.3170234900000004 7.0333190800000001 6.9789912699999999 O
atom 0.3020318800000000 0.6449269900000000 4.5184439599999999 O
atom 0.2619495900000000 0.6604431300000000 9.6143710900000006 O
atom 0.3530362000000000 5.7924648500000000 4.4354306100000001 O
atom 0.2422743800000000 5.8472376600000002 9.5991272399999996 O
atom 5.3191412500000004 0.6673402000000001 4.3989178200000003 O
atom 5.2383423899999997 0.7796439700000000 9.5160981000000007 O
atom 5.3844002900000003 5.9009611900000003 4.4314193800000004 O
atom 5.1759227799999996 6.0763556699999999 9.6025477000000006 O
atom 4.7068059499999997 4.6163560600000002 1.9699819900000000 O
atom 4.6795972499999996 4.4411815600000004 6.7802587699999997 O
atom 4.7449611300000001 9.7414262300000001 1.9719813799999999 O
atom 4.6469710299999996 9.8138288100000004 6.8861438000000001 O
atom 9.6512201999999991 4.3482136499999999 2.0838610399999999 O
atom 9.7173426500000009 4.4039773899999997 7.0275781500000001 O
atom 9.8904508999999994 9.7882756000000004 1.8066122099999999 O
atom 9.7497660600000007 9.6366505100000008 7.0663934900000003 O
atom 4.6257005500000004 3.2542816499999998 4.4042060899999997 O
atom 4.7505566200000002 3.3975244500000001 9.3748093899999994 O
atom 4.7245686300000003 8.5298335099999996 4.5238873799999997 O
atom 4.4776027100000002 8.5948507799999998 9.1282827300000005 O
atom 9.6604663599999991 3.2010821500000000 4.4672729799999997 O
atom 9.7226727200000003 3.3383840100000000 9.6024323099999993 O
atom 9.6644780000000008 8.5127220399999999 4.3818761500000001 O
atom 9.2543149499999995 8.5180247300000005 9.4531919700000007 O
atom 2.2745288399999999 0.7859082800000000 2.3793960900000002 O
atom 2.6427732499999999 1.2291173099999999 7.4239586900000001 O
atom 2.5304543700000002 6.1472152600000003 2.5199091000000000 O
atom 2.7024235100000000 6.4364937400000004 7.5588214899999997 O
atom 7.6696862799999996 1.1987951299999999 2.4498870600000000 O
atom 7.6534869399999996 1.1669690200000000 7.4468021499999999 O
atom 7.8527803900000004 6.3829781700000003 2.5066804299999998 O
atom 7.6928344600000003 6.4376626799999999 7.5150372699999997 O
atom 2.6842309700000002 1.3279915099999999 4.8796032299999998 O
atom 2.6166358900000000 1.7249312900000000 9.8900061400000006 O
atom 2.7458163899999999 6.5580350999999997 5.0337971699999997 O
atom 7.6908158300000000 1.3579723699999999 4.9419710400000003 O
atom 7.6394075099999998 1.3663574500000000 9.9599454999999999 O
atom 7.7132824500000003 6.5848693500000000 5.0069618199999999 O
atom 7.6002501200000001 6.5911561100000000 10.0202099499999999 O
atom 2.2732669900000002 3.9299750300000000 4.9573011500000002 O
atom 2.5741414499999999 4.5799508900000001 10.0459133400000002 O
atom 2.2840346199999999 9.1549940099999993 5.0201215499999998 O
atom 2.1516484600000001 9.6824605300000002 10.2239448300000006 O
atom 7.2988651899999999 3.9485007400000001 4.9947962400000003 O
atom 7.3144481499999996 3.9832002900000001 9.9858695599999994 O
atom 7.3816377099999997 9.2442041400000008 4.9329136900000004 O
atom 7.0539471999999996 9.2555752400000006 9.9457559300000007 O
atom 2.3320880700000002 3.5958334199999999 2.3863449700000001 O
atom 2.3349529599999999 3.7831283999999998 7.5065148500000003 O
atom 2.4798001599999999 8.7293836599999999 2.6636957500000000 O
atom 2.3705094999999998 9.2041813700000006 7.4498798199999996 O
atom 7.2791208699999999 3.8020528499999999 2.4825503400000000 O
atom 7.3170192500000004 3.8100769500000000 7.4797215599999998 O
atom 7.4327372299999999 9.0502696799999995 2.4476920299999998 O
atom 7.2784357399999999 9.0456268800000004 7.4252637500000001 O
