lattice_vector 10.1213299499999998 -0.0503898800000000 -0.0489881200000000 
lattice_vector -0.0168413100000000 10.2478670100000002 -0.0188067100000000 
lattice_vector -0.0394973200000000 0.0025941900000000 10.5663590999999997 
atom 1.0874777900000001 -0.0517559600000000 1.4324542600000001 La
atom 1.3370897300000000 0.1692635300000000 7.0504587499999998 Hf
atom 1.3763390300000000 5.3331061000000002 1.7864221300000001 Hf
atom 1.3430958000000000 5.3510527000000003 7.0552527500000002 Hf
atom 1.1934813399999999 2.4243035399999999 4.5195341600000001 Hf
atom 1.3031145900000001 2.4254968899999998 9.6065972199999994 Hf
atom 1.3549963000000000 7.5012948899999996 4.4266021300000000 Hf
atom 1.3679188099999999 7.4373879799999996 9.7242724000000003 Hf
atom 3.6087324999999999 2.6148960799999998 1.7095651599999999 La
atom 3.6297598000000000 2.7660465900000002 7.0333581900000004 Hf
atom 3.7070112000000002 7.8739853599999998 1.7860072199999999 Hf
atom 3.5995735500000001 7.8413528000000001 7.1060854300000003 Hf
atom 3.6200445700000001 4.8688886800000004 4.4296208799999999 Hf
atom 3.5960424799999999 4.9013635200000003 9.6927829299999999 Hf
atom 3.7303587600000001 9.8766376200000003 4.5546494099999997 Hf
atom 3.6502348699999998 10.0002683999999995 9.6392233500000000 Hf
atom 6.5284171300000002 0.1622551300000000 0.8104688400000000 Hf
atom 6.4714245000000004 0.1990055900000000 6.1115267600000003 Hf
atom 6.4302885900000000 5.2905869399999998 0.7572684400000000 Hf
atom 6.4069998300000002 5.3339194900000004 6.0430105400000000 Hf
atom 6.4718052300000002 2.3370375700000001 3.4794096900000002 Hf
atom 6.4080504899999999 2.3222383400000002 8.7330728799999999 Hf
atom 6.4603198600000002 7.4333780400000000 3.4137228300000002 Hf
atom 6.4149532999999996 7.4261752899999998 8.6776806799999999 Hf
atom 8.7006655100000003 2.7742696200000001 0.7843510299999999 Hf
atom 8.6240876100000001 2.7790624500000001 6.1314315400000003 Hf
atom 8.6590063399999995 7.7823714900000001 0.7918509800000000 Hf
atom 8.7054859899999997 7.8699012599999998 6.0830818999999998 Hf
atom 8.6782132500000007 4.9124515500000001 3.4187626299999998 Hf
atom 8.6515986100000006 4.8968733599999998 8.6853153400000007 Hf
atom 8.6943174299999999 9.9944321299999999 3.4998128199999998 Hf
atom 8.6834738900000001 9.9979567599999992 8.7403959100000002 Hf
atom 0.3327157200000000 1.9232860000000001 0.7733452100000000 O
atom 0.2343500000000000 1.6674554100000001 6.1884344400000000 O
atom 0.2862539400000000 6.7139080900000003 0.7545893600000000 O
atom 0.2672458500000000 6.7516813999999998 6.0529833599999998 O
atom 0.3787794300000000 0.9459171700000000 3.4911879899999998 O
atom 0.2822775200000000 0.9140985500000000 8.7416792700000006 O
atom 0.2632953800000000 6.1104185299999996 3.4424497700000001 O
atom 0.2223972600000000 6.1167767399999997 8.6810077200000002 O
atom 4.7243107300000000 4.2708582100000001 0.7637357500000000 O
atom 4.6901442099999997 4.2574202699999999 6.1325890799999998 O
atom 4.7525627899999998 9.3969315099999999 0.8276834600000000 O
atom 4.7689109700000003 9.2592667500000001 6.1301720800000004 O
atom 4.7730220299999999 3.4227673099999998 3.6014144899999998 O
atom 4.6644101700000000 3.3986609400000001 8.7367802399999999 O
atom 4.7872516799999998 8.5279091200000003 3.4672973200000001 O
atom 4.7319529500000002 8.5447818899999994 8.7075710500000003 O
atom 2.7529388400000001 1.2175022200000001 8.1381701700000004 O
atom 2.7614113300000001 6.3735004999999996 3.0746693299999999 O
atom 2.7256846499999998 6.3799627799999996 8.3714187100000004 O
atom 2.6824954399999998 1.2158034200000001 0.0982825800000000 O
atom 2.7431295800000002 1.2912814100000001 5.4331831700000004 O
atom 2.7733258699999999 6.3692628700000000 0.4514158700000000 O
atom 2.7313783900000002 6.4122904900000002 5.7123376400000003 O
atom 2.1491412400000001 3.7885801799999999 3.1942736100000002 O
atom 2.2441678600000001 3.8399541600000000 8.3277242800000000 O
atom 2.3905237000000001 9.0046547799999992 3.1408258700000000 O
atom 2.2238766200000000 8.9372305999999995 8.3628377100000009 O
atom 2.1513434199999999 3.9441201399999999 0.3396484800000000 O
atom 2.2298477200000000 3.8574926899999999 5.7801312999999999 O
atom 2.5061224700000002 8.7790955999999998 0.3154425300000000 O
atom 2.2874219999999998 8.9387249700000009 5.8017034000000001 O
atom 5.6107083400000004 1.6100063099999999 1.8018300899999999 O
atom 5.3678926799999997 1.6538146400000000 7.0036587600000004 O
atom 5.3956994700000003 6.7772380400000003 1.7210218399999999 O
atom 5.3280411299999999 6.7570443300000003 7.0254690699999998 O
atom 5.3575387599999997 0.8364419000000000 4.4017150300000001 O
atom 5.3801452200000002 0.8675806100000000 9.6743303100000002 O
atom 5.3499401799999999 5.9993202400000003 4.3748139999999998 O
atom 5.3327139199999998 6.0094090400000004 9.6437474299999995 O
atom 9.7471831800000004 4.2240554699999997 1.7726190500000001 O
atom 9.7528073299999996 4.1923924100000001 7.0291698000000000 O
atom 9.6536494699999995 8.8025890699999998 2.1730243699999998 O
atom 9.8067282999999996 9.1539672999999997 7.2336901400000002 O
atom 9.6951550700000002 3.4976900700000000 4.4724868100000004 O
atom 9.6854591400000007 3.4694794600000001 9.5995286800000006 O
atom 9.8864198800000000 8.7425744900000009 4.6423898599999998 O
atom 9.8980547899999998 8.7932307800000000 9.9979458300000008 O
atom 7.8336531200000001 1.2349753200000000 10.0671031200000005 O
atom 7.8083706599999996 1.2638386900000000 4.8286808099999998 O
atom 7.7944964499999996 6.3384224800000002 10.0169260100000006 O
atom 7.8274368799999996 6.3943978799999996 4.7444133099999997 O
atom 8.0361079300000000 1.2309448300000001 2.1510363699999999 O
atom 7.8210362599999996 1.2600990800000000 7.4570873799999999 O
atom 7.8055390999999998 6.3594334500000000 2.1055541099999999 O
atom 7.7869552100000003 6.3938100699999998 7.3734621000000002 O
atom 7.2450423900000001 3.7977518400000001 10.0468792400000009 O
atom 7.2972008800000001 3.8319630999999998 4.8021798400000000 O
atom 7.3406208700000004 8.8785696800000000 10.0270865899999997 O
atom 7.3460172999999998 8.9301932700000002 4.7751706499999997 O
atom 7.3022310700000004 3.8246052000000001 2.1535142999999999 O
atom 7.2698602599999997 3.8382649700000000 7.4172851399999997 O
atom 7.2483682099999998 8.9718174800000003 2.1259543299999999 O
atom 7.3103987600000000 8.9710331500000002 7.4033566500000001 O
