lattice_vector 10.1146200000000004 -0.0319140000000000 0.0020050000000000 
lattice_vector -0.0181710000000000 10.3335980000000003 0.0146190000000000 
lattice_vector -0.0146970000000000 -0.0150550000000000 10.4821559999999998 
atom 1.2881050000000001 0.0851080000000000 1.6589480000000001 La
atom 1.3949790000000000 0.2051780000000000 7.0466790000000001 Hf
atom 1.3960969999999999 5.3745219999999998 1.8030930000000001 Hf
atom 1.3991899999999999 5.3851430000000002 7.0352740000000002 Hf
atom 1.3365650000000000 2.3993890000000002 4.4320979999999999 Hf
atom 1.3849389999999999 2.3946660000000000 9.6281809999999997 Hf
atom 1.4019690000000000 7.5110820000000000 4.4283180000000000 Hf
atom 1.4057850000000001 7.5043170000000003 9.6487409999999993 Hf
atom 3.6037830000000000 2.7907860000000002 1.7766109999999999 Hf
atom 3.6320250000000001 2.7844280000000001 7.0461460000000002 Hf
atom 3.6935479999999998 7.8521340000000004 1.7719600000000000 Hf
atom 3.6272509999999998 7.9639650000000000 7.0501600000000000 Hf
atom 3.6235439999999999 4.9237700000000002 4.4153190000000002 Hf
atom 3.6354970000000000 4.9162189999999999 9.6585809999999999 Hf
atom 3.6759819999999999 10.1893429999999992 4.3260750000000003 La
atom 3.6642500000000000 10.0985910000000008 9.6497969999999995 Hf
atom 6.4703799999999996 0.2015910000000000 0.8656590000000000 Hf
atom 6.5058210000000001 0.1726360000000000 6.1590249999999997 Hf
atom 6.4553830000000003 5.3273210000000004 0.7986090000000000 Hf
atom 6.4352489999999998 5.3475880000000000 6.0647149999999996 Hf
atom 6.4697459999999998 2.4055569999999999 3.4343499999999998 Hf
atom 6.4401180000000000 2.3336209999999999 8.6975309999999997 Hf
atom 6.4804230000000000 7.4574470000000002 3.4482729999999999 Hf
atom 6.4275700000000002 7.4928850000000002 8.6804330000000007 Hf
atom 8.6951180000000008 2.8054950000000001 0.7944450000000000 Hf
atom 8.6871829999999992 2.7845140000000002 6.0902950000000002 Hf
atom 8.6608630000000009 7.8749089999999997 0.8070670000000000 Hf
atom 8.7126940000000008 7.9248550000000000 6.0907819999999999 Hf
atom 8.7086210000000008 4.9392170000000002 3.4460730000000002 Hf
atom 8.6888839999999998 4.9245419999999998 8.6578990000000005 Hf
atom 8.6034520000000008 10.1014789999999994 3.5599910000000001 Hf
atom 8.6932290000000005 10.0782729999999994 8.7458779999999994 Hf
atom 0.3196950000000000 1.9367270000000001 0.8324310000000000 O
atom 0.2820060000000000 1.7445440000000001 6.2061400000000004 O
atom 0.3483190000000000 6.9456160000000002 0.9071140000000000 O
atom 0.3131550000000000 6.8639679999999998 6.1453300000000004 O
atom 0.2158420000000000 0.8589150000000000 3.6813330000000000 O
atom 0.3468810000000000 0.8300140000000000 8.7999589999999994 O
atom 0.3271710000000000 6.0382660000000001 3.5100359999999999 O
atom 0.3101330000000000 6.0265219999999999 8.7429109999999994 O
atom 4.7208730000000001 4.2707600000000001 0.8661570000000000 O
atom 4.7079529999999998 4.2626049999999998 6.1321539999999999 O
atom 4.7183909999999996 9.4794859999999996 0.9539580000000000 O
atom 4.7922370000000001 9.4238070000000000 6.2881539999999996 O
atom 4.6882999999999999 3.4092210000000001 3.5091570000000001 O
atom 4.7049430000000001 3.4097700000000000 8.7564259999999994 O
atom 4.7486629999999996 8.3734289999999998 3.4842179999999998 O
atom 4.7107279999999996 8.5611750000000004 8.7865730000000006 O
atom 2.6053180000000000 1.4901810000000000 3.0408569999999999 O
atom 2.7808839999999999 1.2598680000000000 8.3146529999999998 O
atom 2.8161309999999999 6.3608370000000001 3.0840060000000000 O
atom 2.7732690000000000 6.4329219999999996 8.3351570000000006 O
atom 2.8756970000000002 1.3653940000000000 0.3474880000000000 O
atom 2.6706150000000002 1.3968560000000001 5.7766400000000004 O
atom 2.7632340000000002 6.3843490000000003 0.4689860000000000 O
atom 2.7846829999999998 6.4574499999999997 5.7104419999999996 O
atom 2.2314829999999999 3.9153509999999998 3.1027710000000002 O
atom 2.2616329999999998 3.8655979999999999 8.3224380000000000 O
atom 2.2464840000000001 8.7788670000000000 3.0297519999999998 O
atom 2.2536309999999999 9.0258819999999993 8.3319939999999999 O
atom 2.2513730000000001 3.8880089999999998 0.4646370000000000 O
atom 2.2395960000000001 3.9145310000000002 5.7156870000000000 O
atom 2.4656490000000000 8.8801550000000002 0.3450150000000000 O
atom 2.1846139999999998 8.9933429999999994 5.8021789999999998 O
atom 5.3479950000000001 1.6803070000000000 1.7758840000000000 O
atom 5.3766290000000003 1.6864790000000001 6.9893460000000003 O
atom 5.4350009999999997 6.8054129999999997 1.6925520000000001 O
atom 5.3647489999999998 6.8341060000000002 6.9850909999999997 O
atom 5.6863710000000003 0.8449820000000000 4.3944809999999999 O
atom 5.4282060000000003 0.8162660000000000 9.6045540000000003 O
atom 5.4064810000000003 5.9417549999999997 4.3465420000000003 O
atom 5.3664959999999997 5.9838579999999997 9.5822500000000002 O
atom 9.7396279999999997 4.3328309999999997 1.7185120000000000 O
atom 9.7635609999999993 4.2990760000000003 6.9605629999999996 O
atom 9.3770530000000001 9.4770640000000004 1.7511319999999999 O
atom 9.7421439999999997 9.4369049999999994 7.0196220000000000 O
atom 9.7382500000000007 3.4536650000000000 4.3772700000000002 O
atom 9.7352939999999997 3.4326319999999999 9.5265070000000005 O
atom 9.7535580000000000 8.5715710000000005 4.3704280000000004 O
atom 9.7967960000000005 8.6038800000000002 9.6585149999999995 O
atom 7.8425459999999996 1.2474689999999999 10.0425749999999994 O
atom 7.9293570000000004 1.2673319999999999 4.8509940000000000 O
atom 7.8085440000000004 6.3961660000000000 9.9852129999999999 O
atom 7.8490099999999998 6.4020720000000004 4.7833629999999996 O
atom 7.8195969999999999 1.3123730000000000 2.1889020000000001 O
atom 7.8369600000000004 1.2707409999999999 7.4537060000000004 O
atom 7.8587569999999998 6.4353610000000003 2.1390620000000000 O
atom 7.8167799999999996 6.4330179999999997 7.3798430000000002 O
atom 7.2987590000000004 3.8303419999999999 9.9830089999999991 O
atom 7.3058300000000003 3.8435069999999998 4.7695299999999996 O
atom 7.3021929999999999 8.9829620000000006 10.0472459999999995 O
atom 7.3079630000000000 8.9760109999999997 4.8518730000000003 O
atom 7.3176730000000001 3.8890940000000001 2.1378520000000001 O
atom 7.3059370000000001 3.8490030000000002 7.3851760000000004 O
atom 7.1645550000000000 9.0283630000000006 2.2212190000000001 O
atom 7.3435940000000004 8.9986329999999999 7.4569150000000004 O
