lattice_vector 5.0194672300000001 -0.0079632900000000 0.0135826700000000 
lattice_vector 0.0014960900000000 10.2592870299999994 0.0172283800000000 
lattice_vector -0.0144146200000000 -0.0095080700000000 10.0750901200000005 
atom 1.2693005600000000 -0.0087176500000000 1.2686749100000001 Si
atom 1.2629362799999999 -0.0179912300000000 6.3073110400000001 Hf
atom 1.2727302800000000 5.1205109799999997 1.2703919900000000 La
atom 1.2618998400000001 5.1191034300000000 6.3062240999999997 Hf
atom 1.3597424400000000 2.5277956200000000 3.7989923399999999 Hf
atom 1.1639032100000000 2.5271892999999999 8.8064157800000000 Hf
atom 1.1779701899999999 7.7159083199999996 3.8007629600000001 Hf
atom 1.3603086900000001 7.7057236400000004 8.8192128699999994 Hf
atom 3.7779068100000002 2.5022655700000001 1.2723396499999999 Hf
atom 3.7702399700000000 2.5006426600000000 6.3088733000000001 Hf
atom 3.7880946600000001 7.7310279800000004 1.2798207399999999 Hf
atom 3.7780052899999998 7.7220376499999999 6.3189973999999998 Hf
atom 3.7754581900000002 -0.0135086600000000 3.7699733900000001 Hf
atom 3.7708645399999998 -0.0177975700000000 8.8504571100000007 Hf
atom 3.7781280200000000 5.1155530000000002 3.8932591599999999 Hf
atom 3.7682116500000000 5.1059110900000002 8.7347308399999992 Hf
atom -0.2849806400000000 1.5438623300000001 -0.2445018500000000 O
atom -0.0760078300000000 1.4746258500000000 4.8527070099999996 O
atom 0.0787372500000000 6.7946474700000001 0.0024275200000000 O
atom 0.0529260000000000 6.6303872000000004 5.1286159500000004 O
atom 0.2786953900000000 0.8944782100000001 2.2677354300000001 O
atom 0.0259110500000000 1.0643002800000001 7.4304045299999997 O
atom -0.1390514100000000 6.2710306400000002 2.6474500299999999 O
atom -0.0011791700000000 6.1927074900000001 7.5670782900000004 O
atom 0.0708520700000000 3.4483478399999998 2.5305589999999998 O
atom 0.0390585900000000 3.6103268499999999 7.4778397400000003 O
atom -0.2969126500000000 8.7027070500000008 2.7856243100000002 O
atom -0.0684301700000000 8.7673898900000005 7.7600718799999999 O
atom -0.1357199500000000 3.9782763399999999 -0.1181289600000000 O
atom 0.0081426500000000 4.0469086900000004 5.0363235900000003 O
atom 0.2829333400000000 9.3497836099999994 0.2814966900000000 O
atom 0.0271521700000000 9.1788066700000002 5.1838107899999999 O
atom 2.8287257700000001 1.5366207700000001 2.7805293899999999 O
atom 2.5993405799999998 1.4644965700000001 7.7575074800000001 O
atom 2.4703787199999998 6.7892134000000004 2.5432693099999999 O
atom 2.4767206399999999 6.6210403199999996 7.4896342200000001 O
atom 2.2649276600000001 0.8930335600000000 0.2732889100000000 O
atom 2.4975715300000001 1.0606213700000000 5.1782152500000000 O
atom 2.6879279000000000 6.2680950900000001 -0.1062169400000000 O
atom 2.5301658699999998 6.1913721900000001 5.0504187199999997 O
atom 2.4727017600000001 3.4494188499999998 0.0020653800000000 O
atom 2.4830622000000000 3.6083562499999999 5.1325269799999997 O
atom 2.8346343699999998 8.7023115200000003 -0.2227760700000000 O
atom 2.6019188700000000 8.7634502899999998 4.8762147699999998 O
atom 2.6809010999999998 3.9711040500000001 2.6526862499999999 O
atom 2.5139133500000002 4.0386883500000001 7.5740046899999998 O
atom 2.2521479599999998 9.3439964599999996 2.2915720899999998 O
atom 2.5063191699999998 9.1691366999999993 7.4522116299999999 O
