lattice_vector 9.9706749899999991 0.0420485000000000 -0.0470681200000000 
lattice_vector 0.0595711300000000 10.1941393199999997 0.0159555600000000 
lattice_vector 0.0516851400000000 -0.0171496100000000 10.4056235600000004 
atom 1.0128213100000001 0.2587405200000000 2.2077792999999999 Si
atom 1.4271150600000000 0.2166623100000000 6.9446560000000002 Hf
atom 1.4335864300000001 5.3222546099999999 1.7549846400000000 Hf
atom 1.4633335700000001 5.3007872200000001 7.0010017099999997 Hf
atom 1.3890356800000001 2.4159558600000000 4.3715206400000000 Hf
atom 1.5674052900000000 2.2478705200000002 9.5827555600000007 Hf
atom 1.3453137500000001 7.4397159799999999 4.3901424200000001 Hf
atom 1.5423430800000000 7.4474352499999998 9.5564977599999992 Hf
atom 3.5878179200000000 2.7582444300000000 1.7073866099999999 Hf
atom 3.7502869500000000 2.7028820400000000 6.9007327700000003 Hf
atom 3.5782045400000002 7.9081566299999997 1.6816908399999999 Hf
atom 3.7421036200000000 7.8952431499999998 6.9197871900000001 Hf
atom 3.6178140000000001 4.9289014399999997 4.3603936299999999 Hf
atom 3.7321341499999998 4.8324740899999998 9.5195613600000009 Hf
atom 3.5129676000000001 10.0098421099999992 4.2354452599999997 Hf
atom 3.7458341800000001 9.9802262099999997 9.5542235200000007 Hf
atom 6.3820662500000003 0.2474708400000000 0.8236339800000000 Hf
atom 6.0149439200000003 0.2742679000000000 5.5642303399999999 Si
atom 6.4179320899999999 5.3316574900000004 0.7831128000000001 Hf
atom 6.4402681599999996 5.3361819700000002 6.0293430099999998 Hf
atom 6.3696862799999998 2.4384388100000001 3.4040522100000001 Hf
atom 6.5477535400000004 2.2703921999999999 8.5963591099999999 Hf
atom 6.3257737399999998 7.4622382500000004 3.4019181999999999 Hf
atom 6.5230067600000003 7.4699606000000003 8.6395779099999999 Hf
atom 8.7061268900000002 2.7333374600000000 0.8533722100000000 Hf
atom 8.5946998699999995 2.7720261200000000 6.0482645300000000 Hf
atom 8.6973757700000007 7.9259517199999996 0.8506930800000000 Hf
atom 8.5854731399999995 7.9219492200000001 6.0903300700000003 Hf
atom 8.5984342199999997 4.9513534699999999 3.4018432100000000 Hf
atom 8.7130545399999999 4.8546611500000001 8.6471113899999992 Hf
atom 8.4949167400000007 10.0316790900000008 3.5439910900000000 Hf
atom 8.7266028000000002 10.0026603000000005 8.6288727400000003 Hf
atom 0.5680176900000000 1.5008496000000000 1.0888380900000001 O
atom 0.3977180400000000 1.7314694300000000 6.0868412699999999 O
atom 0.4427801100000000 6.8562485300000002 0.9342451300000000 O
atom 0.3791269200000000 6.8015067599999997 6.1178044199999997 O
atom 0.2660750200000000 0.8020818500000000 3.6173343099999999 O
atom 0.5050394300000000 0.7690651600000000 8.7264712200000005 O
atom 0.3618976800000000 5.9228703899999999 3.5195444199999999 O
atom 0.4729753400000000 5.8723883800000003 8.7453083300000003 O
atom 4.6939219000000003 4.2427202499999996 0.8344460500000001 O
atom 4.7069294900000003 4.2694792799999997 6.0543651599999997 O
atom 4.7444683599999999 9.3695218199999992 0.8820956100000000 O
atom 4.7590779300000001 9.4508057900000004 5.9701467700000004 O
atom 4.6143861900000003 3.3730970199999999 3.4902630100000001 O
atom 4.7954416300000000 3.3172701800000000 8.5652358599999996 O
atom 4.5569450700000003 8.4899259800000006 3.4493606699999999 O
atom 4.7737208999999998 8.4795209899999993 8.6389414099999993 O
atom 2.5050573699999998 1.2255336299999999 2.8706507200000000 O
atom 2.8876637199999999 1.2118282199999999 8.1357270199999991 O
atom 2.7476862899999999 6.4492495800000000 3.0433151299999999 O
atom 2.8996124100000000 6.3377132500000002 8.2110595699999998 O
atom 3.0479735099999998 1.4527704200000000 0.2506748700000000 O
atom 2.8125420900000000 1.3120817899999999 5.5400183199999997 O
atom 2.8346783599999998 6.3565019400000002 0.4159318900000000 O
atom 2.7939929200000000 6.4081973500000000 5.6419435299999998 O
atom 2.2515234700000000 3.8544963299999999 3.0567960200000002 O
atom 2.3628515499999998 3.7388039399999999 8.2280152700000002 O
atom 2.0525183199999999 9.0719757600000008 2.8978929099999999 O
atom 2.3530157900000002 8.8754139799999994 8.1736569100000001 O
atom 2.2390891100000001 3.8699032600000001 0.4404504500000000 O
atom 2.2867728600000001 3.8317004099999998 5.6533826500000002 O
atom 2.3742223400000002 8.9147662299999997 0.3304553100000000 O
atom 2.3123499000000001 8.9522794999999995 5.5641014699999998 O
atom 5.3614094899999998 1.7598320100000000 1.6957242900000000 O
atom 5.5820954399999998 1.5126674400000000 6.6916102600000000 O
atom 5.3429179500000004 6.8300557399999997 1.6807832199999999 O
atom 5.4580992500000001 6.8681364499999997 6.8636226000000002 O
atom 5.2546765500000001 0.8219515400000000 4.1637807799999997 O
atom 5.4943202900000001 0.7884785300000000 9.4580019600000007 O
atom 5.3515957299999997 5.9419128800000003 4.2762861699999997 O
atom 5.4625294200000001 5.8918120900000002 9.4551668699999993 O
atom 9.6711388899999999 4.2970974100000001 1.6959608600000000 O
atom 9.7100206000000000 4.2532604799999998 6.9157178400000001 O
atom 9.7242449600000000 9.4784140600000004 1.7962472500000000 O
atom 9.7602116500000005 9.3802076599999999 6.8840534800000004 O
atom 9.6041274500000000 3.3934332999999999 4.2583596799999999 O
atom 9.7863270700000005 3.3367907600000000 9.5868596200000002 O
atom 9.5469302500000008 8.5097726900000001 4.3157760200000004 O
atom 9.7640581300000004 8.4996038600000006 9.5299488300000004 O
atom 7.8823079700000003 1.2296081200000000 10.0277599399999993 O
atom 7.5005317700000003 1.2431118600000000 4.8906862200000001 O
atom 7.8937487199999996 6.3560475600000004 9.9686569499999997 O
atom 7.7412785700000004 6.4674484400000001 4.7323183499999999 O
atom 7.7812625400000002 1.3379228700000001 2.2186720900000001 O
atom 8.0696747799999997 1.4618363800000000 7.5061018300000004 O
atom 7.7619689599999999 6.4344257200000001 2.1333063900000000 O
atom 7.8544969599999996 6.3659932599999998 7.3585174799999997 O
atom 7.3567890699999996 3.7568631799999999 9.9477823000000001 O
atom 7.2451526900000003 3.8722975300000000 4.7148260000000004 O
atom 7.3476320099999999 8.8931190800000000 10.0189276100000004 O
atom 7.0476894200000002 9.0891968599999995 4.8920987299999998 O
atom 7.2546083899999996 3.8584018400000000 2.1180233400000001 O
atom 7.2583961199999996 3.8795896200000000 7.3309993999999996 O
atom 7.2813177900000001 8.9784586100000006 2.2232460600000001 O
atom 7.3948378699999999 8.9244297600000007 7.4561268900000002 O
