lattice_vector 9.8914085299999996 -0.0297863200000000 0.0706056900000000 
lattice_vector 0.0157931900000000 10.3867985699999998 -0.0538771800000000 
lattice_vector 0.1134257800000000 0.0068145500000000 9.9491344399999999 
atom 1.1725483500000000 0.3156563200000000 1.0903682500000000 Si
atom 1.4130827600000000 0.2584207300000000 6.1812068900000003 Hf
atom 1.2773135000000000 5.3760851699999996 1.2026368900000000 Hf
atom 1.4484367100000000 5.4149281699999996 6.2512318899999997 Hf
atom 6.2708811300000002 0.1609869100000000 1.2575371000000000 Hf
atom 6.3173675300000003 0.1536928600000000 6.2466416400000000 Hf
atom 6.2836032599999996 5.3271793000000001 1.3031981800000001 Hf
atom 6.3732399900000001 5.3340943100000002 6.2222696300000004 Hf
atom 1.2359876000000001 2.1170846900000000 3.4867161300000000 Si
atom 1.4251887000000001 2.4716367799999999 8.7323447099999996 Hf
atom 1.4026263299999999 7.5938460000000001 3.7395691200000001 Hf
atom 1.4328869900000001 7.6847057400000001 8.7046004900000007 Hf
atom 6.3347265500000001 2.3771636200000001 3.7877800300000000 Hf
atom 6.3154357699999997 2.4552469600000002 8.6781907700000005 Hf
atom 6.3773493099999996 7.6099163100000000 3.7671223600000001 Hf
atom 6.3531785400000000 7.6252546900000002 8.7122030800000001 Hf
atom 3.5755086000000000 2.6807250800000002 1.3308719700000000 Hf
atom 3.6618529600000000 2.8026829000000002 6.1882019799999997 Hf
atom 3.6781817499999998 7.8771054999999999 1.2517469400000001 Hf
atom 3.7329065199999998 8.0122673700000000 6.2443786799999996 Hf
atom 8.5580064000000000 2.7152381499999998 1.2469859900000000 Hf
atom 8.7249092699999995 2.7215823299999999 6.1947702900000001 Hf
atom 8.6520396799999997 7.9415811700000001 1.2088439700000000 Hf
atom 8.6709751500000003 7.9653582600000004 6.2287459199999997 Hf
atom 3.7007859900000000 5.0080640100000000 3.7681845799999998 Hf
atom 3.7249532099999998 5.0241685000000000 8.7616249199999992 Hf
atom 3.6605907200000001 10.1964982699999993 3.6348201900000001 Hf
atom 3.6603219000000000 10.2501512800000008 8.7659649200000000 Hf
atom 8.7195786999999996 4.9680614299999997 3.7353818900000002 Hf
atom 8.6512607399999997 5.0163745100000003 8.7080020299999994 Hf
atom 8.6874523000000003 10.2025775099999994 3.6686276300000000 Hf
atom 8.6627357299999996 10.2475891699999995 8.6712330099999999 Hf
atom 0.3659404400000000 1.8467816200000000 1.9143674700000000 O
atom 0.4205912900000000 1.9149669600000001 6.9967680899999998 O
atom 0.3622199900000000 7.1013870800000003 1.9404222099999999 O
atom 0.4607061300000000 7.1757474099999996 6.8997207999999999 O
atom 5.1893756000000000 1.7992545499999999 2.1010882899999999 O
atom 5.3791119800000002 1.9209295799999999 6.9063710299999999 O
atom 5.3265239500000003 7.0522630099999999 2.0190393800000002 O
atom 5.4064238099999997 7.0889141799999997 6.9168353600000003 O
atom 0.4472203100000000 0.7508809900000000 4.3173823000000002 O
atom 0.4016476000000000 0.7174504600000000 9.5737077399999997 O
atom 0.4363824700000000 5.8566256399999999 4.4390661700000003 O
atom 0.4325002000000000 5.9270907700000004 9.3725850800000003 O
atom 5.3040454800000001 0.6915934600000000 4.5053243900000002 O
atom 5.3370559999999996 0.7305524200000000 9.4753570000000007 O
atom 5.3951758600000002 5.8719276699999998 4.4512523599999998 O
atom 5.3701307199999997 5.9247803599999997 9.4840067200000000 O
atom 4.5655042799999999 4.4221579499999999 1.9406129200000000 O
atom 4.7340043700000001 4.4817436300000004 7.0289036500000002 O
atom 4.6880377700000002 9.6290187199999995 1.9123590900000000 O
atom 4.6974425200000001 9.7133442399999996 6.9861915400000001 O
atom 9.5465360199999996 4.4257967100000002 1.9314634300000000 O
atom 9.6439623700000006 4.4819953999999997 6.9181550900000000 O
atom 9.8395318500000002 9.7247733800000002 1.8624072800000000 O
atom 9.6458916000000006 9.7424332600000003 6.8826467400000002 O
atom 4.7716537700000003 3.3378435600000000 4.5141786399999999 O
atom 4.6535561400000001 3.2685078000000001 9.4665318500000009 O
atom 4.7406270099999999 8.5233978399999994 4.4878793699999999 O
atom 4.6198753899999998 8.5000838200000004 9.3727526000000001 O
atom 9.8835651500000008 3.1203140999999999 4.3244032700000004 O
atom 9.6359512699999996 3.2909250999999999 9.4307978099999996 O
atom 9.6462229599999993 8.5092465300000004 4.4441686799999998 O
atom 9.6087636599999993 8.4914307200000003 9.3468362700000007 O
atom 2.3352531700000001 0.8513067500000000 2.4021737700000001 O
atom 2.7781682800000000 1.2471445699999999 7.4387934199999997 O
atom 2.6431659999999999 6.1949979400000004 2.4677875600000001 O
atom 2.7999421099999999 6.4531440099999999 7.4857128900000003 O
atom 7.6386646599999999 1.1671938700000000 2.4661593499999999 O
atom 7.6982983599999999 1.2101572800000000 7.4475593900000003 O
atom 7.6865760900000000 6.3368192099999998 2.5080087500000001 O
atom 7.7013618399999997 6.3990243400000004 7.4797763799999997 O
atom 2.5694870999999999 1.5958364800000000 4.7850453399999999 O
atom 2.6480286600000000 1.3857531999999999 10.0128642899999996 O
atom 2.7755251699999999 6.6750927400000002 4.9646835200000003 O
atom 2.7369497200000001 6.6188343999999999 9.9469066300000009 O
atom 7.7261973800000003 1.3461303300000000 4.9576931399999999 O
atom 7.6720056699999999 1.4079927800000001 9.9256176099999998 O
atom 7.7285859200000004 6.5690229699999998 4.9901171900000003 O
atom 7.7155473399999996 6.5855379000000003 9.9723718899999998 O
atom 2.5456765799999999 4.1860248799999997 5.1462916099999996 O
atom 2.3712204699999999 3.9761673300000000 10.0534535500000004 O
atom 2.3936483100000001 9.2548762500000006 4.9987626599999997 O
atom 2.2479975799999998 9.3636378300000001 10.1541658500000000 O
atom 7.4319265000000003 3.9450711599999999 4.9618873499999996 O
atom 7.3036497100000002 3.9860074200000000 9.9392340699999995 O
atom 7.3354906099999999 9.1786050299999999 4.9388014000000000 O
atom 7.3149328200000001 9.1857230399999992 9.9089683999999991 O
atom 2.2602848500000001 3.3855972400000001 2.7636626199999998 O
atom 2.3518339699999999 3.8503457299999999 7.5423540600000001 O
atom 2.5703269999999998 8.7148910999999991 2.6316925100000002 O
atom 2.3479154300000000 9.0764437999999998 7.5078823600000000 O
atom 7.2198110299999998 3.7439005800000000 2.4783132999999999 O
atom 7.3521877699999996 3.7854496599999998 7.4387269800000002 O
atom 7.3774168299999996 8.9725114099999992 2.4445820000000000 O
atom 7.3237218799999999 9.0011186199999997 7.4452892100000003 O
