lattice_vector 10.1797989999999992 -0.0128630000000000 0.8262119999999999 
lattice_vector 0.0022860000000000 10.3313939999999995 0.0091360000000000 
lattice_vector 0.8788710000000000 -0.0027100000000000 10.4813580000000002 
atom 1.4016519999999999 0.0659530000000000 1.5792370000000000 La
atom 1.9976910000000001 0.2179970000000000 6.8922619999999997 Hf
atom 1.5536390000000000 5.3526600000000002 1.6384790000000000 Hf
atom 1.9891960000000000 5.3788660000000004 6.8887210000000003 Hf
atom 6.7023700000000002 0.1566190000000000 2.0655730000000001 Hf
atom 7.0655310000000000 0.2247880000000000 7.3209260000000000 Hf
atom 6.6386690000000002 5.3663699999999999 2.0811750000000000 Hf
atom 7.0715940000000002 5.3774110000000004 7.2938520000000002 Hf
atom 1.7266189999999999 2.3558569999999999 4.3237909999999999 Hf
atom 2.1743619999999999 2.4060560000000000 9.4646699999999999 Hf
atom 1.7599860000000001 7.5004619999999997 4.2722090000000001 Hf
atom 2.2539709999999999 7.4971139999999998 9.5062829999999998 Hf
atom 6.8204469999999997 2.3685130000000001 4.6717500000000003 Hf
atom 7.3703079999999996 2.3535379999999999 9.8809550000000002 Hf
atom 6.8291149999999998 7.5008249999999999 4.7173689999999997 Hf
atom 7.3268120000000003 7.5198320000000001 9.9044760000000007 Hf
atom 3.7969439999999999 2.6624330000000000 1.4439800000000000 La
atom 4.1998030000000002 2.7939750000000001 6.6248490000000002 Hf
atom 3.8388300000000002 7.9175550000000001 1.4030330000000000 Hf
atom 4.1986600000000003 7.9622270000000004 6.6328250000000004 Hf
atom 8.8330490000000008 2.8084110000000000 1.7853859999999999 Hf
atom 9.2874169999999996 2.8088220000000002 7.0427200000000001 Hf
atom 8.8381950000000007 7.8631500000000001 1.7825150000000001 Hf
atom 9.3155420000000007 7.9579029999999999 7.0522030000000004 Hf
atom 3.9713650000000000 4.9614360000000000 4.0183809999999998 Hf
atom 4.4443320000000002 4.9220459999999999 9.2398799999999994 Hf
atom 3.9843540000000002 10.0979299999999999 4.0422690000000001 Hf
atom 4.4536569999999998 10.0674039999999998 9.2239869999999993 Hf
atom 9.0679370000000006 4.9434259999999997 4.4232839999999998 Hf
atom 9.5261160000000000 4.9493790000000004 9.6420890000000004 Hf
atom 8.9701710000000006 10.1071249999999999 4.5157850000000002 Hf
atom 9.5639350000000007 10.0751969999999993 9.6787130000000001 Hf
atom 0.4382780000000000 1.9819750000000000 0.8377220000000000 O
atom 0.8569470000000000 1.7552840000000001 6.1589919999999996 O
atom 0.4731780000000000 6.9436179999999998 0.8850430000000000 O
atom 0.8662840000000001 6.8945610000000004 6.1056109999999997 O
atom 5.8232540000000004 1.7385290000000000 1.2399629999999999 O
atom 5.9393609999999999 1.7250230000000000 6.5120659999999999 O
atom 5.6000620000000003 6.9339420000000000 1.2886610000000001 O
atom 5.9496349999999998 6.8972009999999999 6.5500340000000001 O
atom 0.4446550000000000 0.9206480000000000 3.6367769999999999 O
atom 1.1112350000000000 0.8251039999999999 8.7237890000000000 O
atom 0.6180110000000000 6.0361060000000002 3.4753090000000002 O
atom 1.0993850000000001 6.0034530000000004 8.7202719999999996 O
atom 5.7179770000000003 0.8515160000000001 3.8785759999999998 O
atom 6.1940489999999997 0.8469300000000000 9.1318020000000004 O
atom 5.7470039999999996 6.0089079999999999 3.9499569999999999 O
atom 6.1889040000000000 6.0237590000000001 9.1269410000000004 O
atom 4.8881110000000003 4.4824739999999998 2.2183910000000000 O
atom 5.3218480000000001 4.3358330000000000 7.3694199999999999 O
atom 4.8746840000000002 9.5440480000000001 2.1502880000000002 O
atom 5.3417690000000002 9.4630399999999995 7.4105179999999997 O
atom 9.9186440000000005 4.3760969999999997 2.5681330000000000 O
atom 10.4205869999999994 4.3235799999999998 7.8032630000000003 O
atom 9.5861929999999997 9.4930529999999997 2.6357010000000001 O
atom 10.4366869999999992 9.4522290000000009 7.8412309999999996 O
atom 5.0641740000000004 3.3982410000000001 4.7611860000000004 O
atom 5.6578999999999997 3.4560240000000002 9.8876980000000003 O
atom 5.1013440000000001 8.5741519999999998 4.8329680000000002 O
atom 5.6588779999999996 8.6245600000000007 10.0479810000000001 O
atom 10.1613559999999996 3.4441690000000000 5.2323959999999996 O
atom 10.5725739999999995 3.4089749999999999 10.3661150000000006 O
atom 10.1973199999999995 8.6005199999999995 5.2027979999999996 O
atom 10.7086740000000002 8.6006389999999993 10.5004609999999996 O
atom 2.8872360000000001 1.2250810000000001 3.0077910000000001 O
atom 3.4679850000000001 1.3277289999999999 7.9442310000000003 O
atom 3.0144470000000001 6.4464170000000003 2.7450820000000000 O
atom 3.4722529999999998 6.4895540000000000 7.9908669999999997 O
atom 8.0820629999999998 1.3439950000000001 3.1913909999999999 O
atom 8.5706690000000005 1.3197770000000000 8.3981499999999993 O
atom 8.1029149999999994 6.4928129999999999 3.1790479999999999 O
atom 8.5605060000000002 6.4953099999999999 8.3867390000000004 O
atom 3.2375620000000001 1.2414410000000000 5.4345220000000003 O
atom 3.6004730000000000 1.1699679999999999 10.4023660000000007 O
atom 3.2315540000000000 6.4204939999999997 5.3792629999999999 O
atom 3.7285780000000002 6.3758559999999997 10.6215010000000003 O
atom 8.2644970000000004 1.2623750000000000 5.8190580000000001 O
atom 8.9138929999999998 1.2077279999999999 11.0031210000000002 O
atom 8.3268579999999996 6.4078280000000003 5.7922820000000002 O
atom 8.7948240000000002 6.3960039999999996 11.0022420000000007 O
atom 2.2210459999999999 3.9786090000000001 0.1766720000000000 O
atom 2.7266040000000000 3.9157359999999999 5.5503530000000003 O
atom 2.4670489999999998 8.9008540000000007 0.1719510000000000 O
atom 2.7259970000000000 9.0784289999999999 5.5447939999999996 O
atom 7.3846049999999996 3.9360810000000002 0.6782859999999999 O
atom 7.7947879999999996 3.9131969999999998 5.9350480000000001 O
atom 7.4234200000000001 9.0430519999999994 0.7000830000000000 O
atom 7.8185929999999999 9.0693940000000008 5.9991260000000004 O
atom 2.3994780000000002 3.8915130000000002 3.0060140000000000 O
atom 2.9649459999999999 3.8365109999999998 8.1116229999999998 O
atom 2.6490730000000000 8.8477700000000006 2.9692780000000001 O
atom 2.9571640000000001 8.9850250000000003 8.1265730000000005 O
atom 7.5843010000000000 3.8351180000000000 3.3278580000000000 O
atom 8.0732979999999994 3.8390290000000000 8.5271530000000002 O
atom 7.4494999999999996 8.9701880000000003 3.4022160000000001 O
atom 8.0784859999999998 8.9910490000000003 8.5735089999999996 O
