lattice_vector 10.0809607099999994 0.0453901700000000 -0.0950099900000000 
lattice_vector 0.0373529600000000 10.2862439499999994 0.0489119600000000 
lattice_vector -0.0410749800000000 0.0005657900000000 10.4688910499999999 
atom 1.0721880399999999 0.2510791900000000 2.2027055500000001 Si
atom 1.3997314000000001 0.2055818100000000 6.9314761899999997 Hf
atom 1.4612362500000000 5.3968365800000004 1.8451378599999999 Hf
atom 1.3781047799999999 5.3555907500000002 7.0567892700000003 Hf
atom 1.3590423100000000 2.4211739799999998 4.3716843699999997 Hf
atom 1.5414054699999999 2.2972519299999998 9.6229945699999995 Hf
atom 1.3311772399999999 7.5152957899999997 4.4674249100000001 Hf
atom 1.4193148900000001 7.5390519300000003 9.6534265200000000 Hf
atom 3.6215993300000000 2.7847309199999999 1.7216083499999999 Hf
atom 3.5601201499999999 2.8064742699999998 6.9108357399999996 Hf
atom 3.5423811100000000 7.9579153600000003 1.7774399599999999 Hf
atom 3.6648130600000002 7.9424780699999999 6.9969731299999998 Hf
atom 3.6448855899999999 4.9644632800000004 4.4095707600000003 Hf
atom 3.5880524800000000 4.9886296200000002 9.6455141199999996 Hf
atom 3.6205085600000002 10.1089346500000001 4.3398803900000003 Hf
atom 3.6575157500000000 10.0636655600000005 9.6207982699999999 Hf
atom 6.2745793900000004 0.0587354900000000 0.9325611200000000 Hf
atom 6.3500937700000000 0.2836648700000000 5.9553467500000004 Hf
atom 6.4661457599999999 5.4137021799999996 0.8075142500000000 Hf
atom 6.4328498200000004 5.4034298500000002 6.0564546699999999 Hf
atom 6.4120142400000004 2.4294744399999999 3.3375361600000000 Hf
atom 6.2988793699999999 2.5258229299999999 8.7493189499999993 La
atom 6.3773403599999998 7.5219924000000002 3.4378898400000000 Hf
atom 6.4729355699999997 7.5445988300000000 8.6817886699999995 Hf
atom 8.9311585400000002 2.8771372700000000 0.9358794499999999 Hf
atom 8.6600059700000003 2.8583771400000000 5.9841631099999999 Hf
atom 8.7800076399999991 7.9466428799999997 0.8357282900000000 Hf
atom 8.6437363900000008 8.0111339699999995 6.0723157800000003 Hf
atom 8.6515970499999995 5.0248358499999997 3.4573518999999999 Hf
atom 8.7387237700000000 4.9660695400000003 8.6750565200000000 Hf
atom 8.6160685400000006 10.0896576400000004 3.4481524900000000 Hf
atom 8.6904415799999999 10.2800785300000008 8.7502524299999997 La
atom 0.6067537500000000 1.4921207200000000 1.0562160400000000 O
atom 0.3290813900000000 1.7465862700000001 6.0972669799999997 O
atom 0.4271818900000000 6.8733027099999999 0.9801833500000000 O
atom 0.3181844700000000 6.8626107599999999 6.1684777300000002 O
atom 0.2612646100000000 0.8367677300000000 3.5567087399999999 O
atom 0.6132578300000000 0.8048626600000000 8.7232506000000001 O
atom 0.3346137600000000 5.9928754700000004 3.5699546500000001 O
atom 0.3931346800000000 5.9000797000000000 8.8424984400000000 O
atom 4.7741617700000001 4.2407997599999998 0.7853213800000000 O
atom 4.6935720300000003 4.3122781500000000 6.0380844400000004 O
atom 4.6036248999999998 9.4929189399999991 1.0404196100000001 O
atom 4.6620539200000000 9.4590969600000001 6.0674497799999996 O
atom 4.6905525399999997 3.4480304199999998 3.4567726900000002 O
atom 4.4943014899999998 3.6317419700000002 8.5255103200000004 O
atom 4.6027520900000001 8.5545807499999995 3.5068592800000000 O
atom 4.7010607300000000 8.5482434999999999 8.7395420999999995 O
atom 2.5321989500000002 1.2460052699999999 2.8575650399999999 O
atom 2.9145229900000000 1.2370726200000000 8.1636289099999999 O
atom 2.7405956800000002 6.5134586399999996 3.1222105700000000 O
atom 2.7795921899999998 6.4181931499999996 8.3142428800000001 O
atom 3.1483546100000002 1.4983177700000001 0.1998235200000000 O
atom 2.7261774600000002 1.3204523699999999 5.5319192900000003 O
atom 2.8171259100000001 6.4397306399999996 0.5006622600000000 O
atom 2.7636133100000002 6.4483531999999997 5.7148337199999997 O
atom 2.2882345000000002 3.8792033199999998 3.0960229199999998 O
atom 2.1289821000000000 3.7978843499999999 8.3092083100000007 O
atom 2.0839593100000000 9.1700107600000003 2.9482116899999999 O
atom 2.2799866299999998 8.9657725599999996 8.2448481000000005 O
atom 2.2524062100000002 3.9256602200000001 0.4878967900000000 O
atom 2.2089760100000002 3.9039928800000001 5.6630525000000000 O
atom 2.3769715499999999 8.9783917100000004 0.3366630400000000 O
atom 2.2661581300000000 9.0209520699999999 5.6213353899999996 O
atom 5.4024764200000002 1.7633276400000000 1.6633894000000000 O
atom 5.2280211799999998 1.7292004700000001 6.7692785300000002 O
atom 5.3517168699999997 6.9083430400000001 1.7140795099999999 O
atom 5.3914811199999999 6.8691073300000003 6.9701510899999999 O
atom 5.3299679900000001 0.8455201400000000 4.1750857899999998 O
atom 5.6134565199999997 0.5674942500000000 9.5912411399999993 O
atom 5.3638574600000002 6.0264495800000004 4.3198150999999996 O
atom 5.3994532299999998 6.0063389100000002 9.5743229999999997 O
atom 9.8221470699999998 4.3616880900000004 1.7383318000000001 O
atom 9.7535948399999999 4.3097355400000001 6.9277614400000003 O
atom 9.8598641300000001 9.5435007699999996 1.7436144499999999 O
atom 9.7947997800000000 9.4709225999999997 6.8469097500000000 O
atom 9.6988725900000006 3.4676516500000001 4.2363177099999998 O
atom 9.7045560799999997 3.1859969700000002 9.5681946799999995 O
atom 9.6811212100000006 8.6089622000000006 4.2986579799999998 O
atom 9.7267180399999997 8.4571506999999997 9.5672735400000004 O
atom 7.7713832299999996 1.3333151100000000 4.5730557899999997 O
atom 7.8471326499999998 6.4461098400000001 10.0103930999999999 O
atom 7.7931165199999999 6.4754617600000000 4.7680200499999996 O
atom 7.8692858799999996 1.2843058500000000 1.8464537800000000 O
atom 7.7464784800000004 1.4169961300000000 7.1105989100000002 O
atom 7.8128167099999999 6.4692567099999998 2.1445755000000002 O
atom 7.8752339999999998 6.5138390299999998 7.4137645799999996 O
atom 7.5352774900000004 3.9410376199999999 10.1685382700000009 O
atom 7.2747005600000003 3.9081614600000001 4.7391388100000000 O
atom 7.2486990300000000 8.9306761300000002 10.1708796499999998 O
atom 7.2533855500000000 9.0291865500000004 4.7475744200000003 O
atom 7.3816148799999999 3.8893239999999998 2.1721326699999999 O
atom 7.3678894699999997 4.0413386800000000 7.3327448100000003 O
atom 7.3680016500000001 8.9932920900000006 2.2084503299999998 O
atom 7.2116992399999997 9.0317226099999992 7.3240463099999999 O
