lattice_vector 9.9279725800000005 -0.0405522900000000 0.0404685700000000 
lattice_vector 0.0066172300000000 10.3933072000000006 -0.0393682600000000 
lattice_vector 0.0110607800000000 -0.0449567400000000 10.0196082999999998 
atom 1.2069833700000001 0.3481394600000000 1.0214155100000000 Si
atom 1.3613081800000000 0.1524793500000000 6.3177573999999996 Hf
atom 1.3656081900000001 5.3153557800000000 1.2560556100000000 Hf
atom 1.3581720600000000 5.3204997299999999 6.2745393900000002 Hf
atom 6.3071197999999997 0.1405226600000000 1.2944764099999999 Hf
atom 6.2363058899999997 0.1026147600000000 6.2441268799999996 Hf
atom 6.3109330000000003 5.3758097300000003 1.2598915700000000 Hf
atom 6.2902017299999997 5.3351576999999999 6.2651226199999996 Hf
atom 1.1356697700000000 2.4826962199999998 3.6813329700000001 La
atom 1.3138613400000001 2.4190575999999999 8.7719909000000005 Hf
atom 1.3647602599999999 7.5381029599999998 3.7782518000000000 Hf
atom 1.3249241400000000 7.5886910500000004 8.7806328600000008 Hf
atom 6.3323505999999998 2.3775868999999998 3.7856381600000000 Hf
atom 6.2759755600000000 2.3548656900000000 8.7766693000000000 Hf
atom 6.2980898500000002 7.6453397200000000 3.7580835100000001 Hf
atom 6.2778544900000002 7.5967171100000002 8.7738800200000000 Hf
atom 3.6863481600000001 2.7247404099999999 1.1948930000000000 Hf
atom 3.6354331800000002 2.7255433899999999 6.2538364399999997 Hf
atom 3.6410211299999999 7.9358676499999996 1.2783333200000000 Hf
atom 3.6332909000000000 7.9632530900000003 6.2982807500000000 Hf
atom 8.5698822900000007 2.7401994799999998 1.2051179999999999 Hf
atom 8.5354586399999999 2.6877700999999998 6.3897689900000003 Hf
atom 8.7151858799999999 7.9672668699999996 1.2264422500000001 Hf
atom 8.6250744299999997 7.9210768099999997 6.2652155399999998 Hf
atom 3.7000885399999999 4.9880340700000003 3.7459534699999999 Hf
atom 3.6423456900000000 5.0083318900000000 8.7532352499999995 Hf
atom 3.5613680599999999 10.1767563200000009 3.7028033800000002 Hf
atom 3.5728168100000000 10.2037602900000000 8.8460646999999994 Hf
atom 8.5357998599999991 5.0710859299999997 3.7493890099999998 Hf
atom 8.5879742900000000 5.0025840900000000 8.7607345999999993 Hf
atom 8.6560558600000004 10.1538923099999998 3.7316448599999998 Hf
atom 8.6011901700000006 10.1426293600000008 8.7381988199999991 Hf
atom 0.3727514400000000 1.8192877800000000 1.4827874800000000 O
atom 0.3586671600000000 1.9159762199999999 6.9351985799999998 O
atom 0.3539924900000000 7.0239974399999996 1.9548786400000000 O
atom 0.3688862500000000 7.0737760300000003 6.9484130600000000 O
atom 5.2971687799999998 1.8587044300000000 2.0176664099999999 O
atom 5.3384309400000003 1.8725926300000000 6.9618900899999998 O
atom 5.3247536899999997 7.0871622099999998 1.9893461699999999 O
atom 5.3116214700000004 7.0539470900000003 6.9739532100000003 O
atom 0.2803064500000000 0.5705871700000000 4.6048282499999997 O
atom 0.4187466200000000 0.5509131700000000 9.4052601199999994 O
atom 0.3741107200000000 5.7004412300000000 4.4468556200000000 O
atom 0.3443623500000000 5.8349377200000001 9.4788724700000007 O
atom 5.3491237099999998 0.6421871000000000 4.4318001200000001 O
atom 5.2589717399999998 0.6828284999999999 9.5645698800000005 O
atom 5.3812158900000000 5.8616589799999996 4.4358436100000000 O
atom 5.3177822900000002 5.8599977399999998 9.4875126600000002 O
atom 4.6950250000000002 4.4557279599999999 1.9319752800000001 O
atom 4.6175887199999996 4.4764923899999998 6.9792563999999997 O
atom 4.6960291300000003 9.6412692199999999 1.9748630300000001 O
atom 4.6031578499999997 9.6863876500000003 7.0193074600000003 O
atom 9.7070541000000006 4.2828532499999996 2.1495911799999998 O
atom 9.5559271999999993 4.4407230100000001 6.9486421500000004 O
atom 9.8679959900000007 9.7304765000000000 1.8129435300000001 O
atom 9.5910293200000005 9.6245302200000005 6.9690164299999999 O
atom 4.7014088400000000 3.2762628100000000 4.5000306800000001 O
atom 4.6035658100000001 3.2459761600000001 9.4473209100000002 O
atom 4.6696519500000004 8.4937952499999998 4.5526025499999996 O
atom 4.5513371200000003 8.4572643299999992 9.4552719100000004 O
atom 9.5138867900000008 3.2244746900000001 9.3986075600000003 O
atom 9.5682012800000003 8.3563589399999998 4.4066533100000003 O
atom 9.5419192600000002 8.3825259400000007 9.4120928300000006 O
atom 2.3991415699999998 0.8363690600000000 2.3423626400000002 O
atom 2.7026532200000002 1.2172161399999999 7.5576522500000003 O
atom 2.6928749999999999 6.2865000799999997 2.4856701800000001 O
atom 2.6858041899999998 6.3968018500000001 7.5249302299999998 O
atom 7.7164283400000002 1.1899253599999999 2.5010174799999998 O
atom 7.6214978100000002 1.1357982700000000 7.5283183400000002 O
atom 7.6809206999999997 6.4009161199999998 2.4816227899999999 O
atom 7.6421652599999996 6.3733656900000000 7.5026495100000004 O
atom 2.7680267100000000 1.2852457700000000 5.0218542299999998 O
atom 2.5839852300000001 1.3432287400000000 10.0478756300000001 O
atom 2.7205841199999998 6.5486060000000004 5.0137895900000000 O
atom 2.6670298300000002 6.5603119200000002 10.0182252100000007 O
atom 7.6852335399999996 1.3574474999999999 5.0173347699999997 O
atom 7.6393447600000002 1.3055944399999999 10.0043830699999994 O
atom 7.6397359399999996 6.5696753000000001 5.0043245399999998 O
atom 7.6655717100000000 6.5509211000000001 10.0149058499999999 O
atom 2.4016764899999998 4.0143970800000002 5.0410158999999997 O
atom 2.2862108900000000 3.9430931800000000 9.9641822999999992 O
atom 2.2597720200000002 9.1191019600000001 5.0709946800000001 O
atom 2.1813962400000002 9.3024488299999994 10.2359757099999999 O
atom 7.3793502000000002 3.9385460000000001 5.0390354000000004 O
atom 7.2499549400000003 3.9279821899999998 10.0267822100000004 O
atom 7.3002434300000001 9.1597886800000001 4.9745416100000002 O
atom 7.2370633299999998 9.1271081699999996 9.9861470699999995 O
atom 2.4484707299999999 3.7865500399999998 2.3975698300000001 O
atom 2.2707589100000001 3.7867051100000002 7.5028410000000001 O
atom 2.4952850000000000 8.7289957900000008 2.6815972399999999 O
atom 2.2786387499999998 8.9974424699999993 7.6019633200000003 O
atom 7.2622571100000002 3.8086886700000000 2.5147654500000001 O
atom 7.1987263400000003 3.7828653299999999 7.5439718899999999 O
atom 7.3724221600000002 8.9787393600000005 2.4516016999999999 O
atom 7.2370724299999996 8.9498021100000003 7.4780373800000000 O
