lattice_vector 10.0488793199999993 0.0707451100000000 0.0277582100000000 
lattice_vector 0.0432062200000000 10.1897497300000008 0.0009831200000000 
lattice_vector -0.0005735700000000 0.0052862800000000 10.4838488900000009 
atom 1.0726276600000000 -0.0445263000000000 1.8686785699999999 Si
atom 1.3432730500000001 0.2192829700000000 6.9781338200000000 Hf
atom 1.4204549799999999 5.3567425300000000 1.8018972099999999 Hf
atom 1.4180682499999999 5.3032597700000004 7.0416292599999997 Hf
atom 1.4152373600000001 2.3128713300000001 4.3218702699999998 Hf
atom 1.4665134700000000 2.2989882499999998 9.6712082200000005 Hf
atom 1.3773629700000001 7.4566997900000000 4.4018246100000002 Hf
atom 1.3881251200000000 7.4601853299999998 9.6449613299999992 Hf
atom 3.6230790499999999 2.7810408400000002 1.7828828200000000 Hf
atom 3.6202404200000000 2.8198482299999998 7.0286476499999999 Hf
atom 3.6075215500000000 7.9850665999999997 1.8285176999999999 Hf
atom 3.6008472999999999 7.8137960800000004 6.9275978599999997 Hf
atom 3.6431219399999999 4.9061707300000004 4.4079723900000003 Hf
atom 3.6471970200000001 4.9273682699999997 9.6770449999999997 Hf
atom 3.6249153100000000 10.0810939099999999 4.3885228400000003 Hf
atom 3.7614510100000000 10.0250869799999993 9.5511235100000000 La
atom 6.4862814599999998 0.2648199400000000 0.8895109100000000 Hf
atom 6.3695195900000003 0.2602535600000000 6.1319451699999998 Hf
atom 6.4141162800000000 5.3536364699999996 0.8655395800000000 Hf
atom 6.4229253899999996 5.3676716600000001 6.0968650699999998 Hf
atom 6.4155020199999999 2.3841888700000000 3.4755605200000002 Hf
atom 6.4691917600000002 2.4397627499999999 8.7168343799999999 Hf
atom 6.3966352700000000 7.4737575100000004 3.4784308199999998 Hf
atom 6.5501598500000000 7.4208388799999998 8.7171772199999999 Hf
atom 8.7627726100000007 2.7530851300000001 0.9164926500000000 Hf
atom 8.6698299900000002 2.8149815999999999 6.0735621399999999 Hf
atom 8.6622027799999994 7.8800461600000000 0.8607773300000000 Hf
atom 8.6584970499999994 7.9117595999999999 6.1069256100000002 Hf
atom 8.6700436900000000 4.9351848599999997 3.4673580300000002 Hf
atom 8.7326267800000004 4.8813816499999998 8.7516483800000007 Hf
atom 8.6578639600000002 10.0355175200000009 3.5274826500000001 Hf
atom 8.6960270400000006 10.0587142400000005 8.7300312000000009 Hf
atom 0.5823791000000000 1.3761932900000000 0.9311408799999999 O
atom 0.2854330300000000 1.5910666499999999 5.9571054200000004 O
atom 0.3282261200000000 6.7465549300000003 0.8378035900000000 O
atom 0.3322524500000000 6.7504818799999997 6.0924103000000001 O
atom 0.4141325500000000 0.7598212200000000 3.3337788499999998 O
atom 0.3200356200000000 0.8731824100000000 8.6878632400000004 O
atom 0.3061338200000000 5.9986220100000001 3.4735969999999998 O
atom 0.3597277300000000 5.9831631999999999 8.7295878299999998 O
atom 4.7158231300000004 4.2753774099999999 0.8766165100000000 O
atom 4.6943066199999999 4.3053342299999997 6.1237289500000003 O
atom 4.8518834100000001 9.2886267599999996 0.9697112400000000 O
atom 4.6576439199999999 9.4156916600000002 6.2716015799999996 O
atom 4.7413292199999999 3.4865487900000001 3.5091381300000002 O
atom 4.7386412699999996 3.4989022400000001 8.7256417499999994 O
atom 4.6318599999999996 8.5265742800000002 3.5783418600000001 O
atom 2.8388555900000001 1.3135995800000000 3.0581551500000002 O
atom 2.6228634600000000 1.3724828899999999 8.1505648900000001 O
atom 2.7678514900000000 6.4293133100000004 3.0945556500000002 O
atom 2.8194540400000001 6.3558945700000002 8.3133402600000004 O
atom 3.0762659399999999 1.6596221600000001 0.2265664300000000 O
atom 2.7573476100000001 1.3349387500000001 5.6556265899999998 O
atom 2.8167526000000001 6.5663350200000004 0.4495315000000000 O
atom 2.7596872100000001 6.3892433999999998 5.6917939400000002 O
atom 2.2697533399999998 3.8558108600000001 3.0922622000000000 O
atom 2.2921671199999998 3.8573605299999998 8.3538593199999998 O
atom 2.1286331800000000 9.0454550099999995 3.0300550600000000 O
atom 2.2296065299999999 8.7934967200000003 8.2069733599999992 O
atom 2.2223085100000000 3.9891530999999998 0.4636412600000000 O
atom 2.2508181199999999 3.8428987900000000 5.6849498599999997 O
atom 2.0642740000000002 9.2061494499999998 0.6644587300000000 O
atom 2.2643236000000000 8.9527860199999996 5.6288294099999998 O
atom 5.4060200900000002 1.7258030799999999 1.7787261299999999 O
atom 5.3441136100000000 1.7496377200000000 7.0377416899999998 O
atom 5.3378177000000004 6.7956096800000001 1.8293870200000000 O
atom 5.3899469499999997 6.8652737799999999 7.0667871699999996 O
atom 5.3562878800000000 0.8926756200000000 4.4099584900000002 O
atom 5.6710890799999998 0.8768318899999999 9.6093329300000008 O
atom 5.3450782099999996 6.0378707499999997 4.4380121199999998 O
atom 5.3680022500000000 6.0902007600000001 9.6691286900000009 O
atom 9.7984417900000000 4.2367570299999997 1.8286901700000000 O
atom 9.7890966299999995 4.2118973000000004 7.0771908400000001 O
atom 9.7485003700000004 9.3306454300000006 1.8222250900000001 O
atom 9.7142888200000002 9.3724677900000000 7.0214062500000001 O
atom 9.7253127799999994 3.4688582100000001 4.3850411800000000 O
atom 9.7944331699999996 3.4608051099999999 9.7528653700000003 O
atom 9.7091590399999994 8.5841965499999997 4.4310557800000003 O
atom 9.7229446700000004 8.5868578600000003 9.6667410599999997 O
atom 7.9861511800000002 1.2899958199999999 10.1179283499999997 O
atom 7.7875473399999997 1.3107144900000001 4.8147096200000004 O
atom 7.8588312800000004 6.3621877700000002 10.0491439800000002 O
atom 7.7938203399999999 6.4135634799999997 4.7996603799999997 O
atom 7.8517678000000002 1.3287895400000000 2.2179729799999999 O
atom 7.7957106999999999 1.3556884600000001 7.4193763300000004 O
atom 7.7930360800000003 6.4193382200000002 2.1760506199999998 O
atom 7.8508348600000000 6.4134567499999999 7.4353248799999996 O
atom 7.3456527999999999 3.8281135300000000 10.0775018200000002 O
atom 7.2842153200000004 3.8685248099999998 4.8098995999999996 O
atom 7.2873732000000002 8.9007593499999995 10.0633890699999995 O
atom 7.2571215000000002 8.9530135699999995 4.8330919400000001 O
atom 7.3309881700000004 3.8566734199999999 2.1744261499999999 O
atom 7.3272689599999996 3.9162897999999999 7.4234364499999996 O
atom 7.3499055899999997 8.9728424699999998 2.2325086900000000 O
atom 7.2722002799999999 8.9796564700000001 7.4560263600000001 O
