lattice_vector 9.9218569999999993 -0.0246360000000000 -0.0419110000000000 
lattice_vector 0.0068840000000000 10.4113579999999999 -0.0770460000000000 
lattice_vector -0.0597490000000000 -0.0836470000000000 9.9404830000000004 
atom 1.1668650000000000 0.0038010000000000 1.0803000000000000 Si
atom 1.2717560000000001 0.1314100000000000 6.1786329999999996 Hf
atom 1.3067139999999999 5.3262960000000001 1.1600150000000000 Hf
atom 1.3091770000000000 5.2765620000000002 6.1275620000000002 Hf
atom 6.2426120000000003 0.1176560000000000 1.2108650000000001 Hf
atom 6.2331890000000003 0.1392040000000000 6.2226340000000002 Hf
atom 6.2671029999999996 5.3419109999999996 1.1349800000000001 Hf
atom 6.2567170000000001 5.3261060000000002 6.1280330000000003 Hf
atom 1.1049310000000001 2.3432569999999999 3.5170499999999998 Hf
atom 1.3174319999999999 2.4063819999999998 8.6882940000000008 Hf
atom 1.3109130000000000 7.5544120000000001 3.6995520000000002 Hf
atom 1.2808059999999999 7.5910409999999997 8.6071120000000008 Hf
atom 6.2843580000000001 2.3269669999999998 3.6715559999999998 Hf
atom 6.3262470000000004 2.3953180000000001 8.7277380000000004 Hf
atom 6.2814680000000003 7.5926619999999998 3.6523260000000000 Hf
atom 6.2401030000000004 7.6407790000000002 8.6105400000000003 Hf
atom 3.6754359999999999 2.8068569999999999 1.1259889999999999 Hf
atom 3.6172399999999998 2.6658080000000002 6.0811659999999996 Hf
atom 3.6405409999999998 7.9143460000000001 1.2049170000000000 Hf
atom 3.6154950000000001 7.9545139999999996 6.1470760000000002 Hf
atom 8.6627770000000002 2.9921199999999999 1.0423700000000000 Si
atom 8.5618809999999996 2.7111679999999998 6.1895090000000001 Hf
atom 8.6704070000000009 7.9236969999999998 1.1117790000000001 Hf
atom 8.5678940000000008 7.9336469999999997 6.1266959999999999 Hf
atom 3.6140409999999998 4.9566629999999998 3.6947899999999998 Hf
atom 3.6167750000000001 5.0029120000000002 8.5797279999999994 Hf
atom 3.5508910000000000 10.1851179999999992 3.5845419999999999 Hf
atom 3.5939719999999999 10.2290749999999999 8.6431079999999998 Hf
atom 8.5564970000000002 4.9160800000000000 3.6145760000000000 Hf
atom 8.5626929999999994 5.0114830000000001 8.6154580000000003 Hf
atom 8.5706559999999996 10.1811010000000000 3.6110229999999999 Hf
atom 8.6196789999999996 10.2321589999999993 8.6518610000000002 Hf
atom -0.2131720000000000 2.0700300000000000 2.0029439999999998 O
atom 0.2427100000000000 1.8088180000000000 7.0407260000000003 O
atom 0.3517870000000000 7.0588819999999997 1.9002630000000000 O
atom 0.3280340000000000 7.0562500000000004 6.8241329999999998 O
atom 5.1000189999999996 1.7778830000000001 2.0029550000000000 O
atom 5.2852499999999996 1.8830870000000000 6.9338490000000004 O
atom 5.3111819999999996 7.0725199999999999 1.8750510000000000 O
atom 5.2837680000000002 7.0653990000000002 6.8484759999999998 O
atom 0.2476860000000000 0.6878600000000000 4.4907610000000000 O
atom 0.4056280000000000 0.6311500000000000 9.6524940000000008 O
atom 0.3194830000000000 5.8009639999999996 4.3434299999999997 O
atom 0.3052700000000000 5.8688630000000002 9.3382299999999994 O
atom 5.1977130000000002 0.6675219999999999 4.5096439999999998 O
atom 5.3376840000000003 0.6766540000000000 9.3578919999999997 O
atom 5.2790350000000004 5.8783349999999999 4.3690119999999997 O
atom 5.2761139999999997 5.8875029999999997 9.3159419999999997 O
atom 4.6767570000000003 4.4644620000000002 1.9438489999999999 O
atom 4.5712020000000004 4.4585920000000003 6.8095480000000004 O
atom 4.6352180000000001 9.6572549999999993 1.8906980000000000 O
atom 4.6054670000000000 9.6558069999999994 6.8952669999999996 O
atom 9.4960210000000007 4.4792370000000004 1.7500100000000001 O
atom 9.5855119999999996 4.4165210000000004 6.9143100000000004 O
atom 9.8018640000000001 9.6983829999999998 1.7493810000000001 O
atom 9.5869999999999997 9.6474829999999994 6.8865580000000000 O
atom 4.6086479999999996 3.2514789999999998 4.3634409999999999 O
atom 4.7056380000000004 3.3618399999999999 9.4263990000000000 O
atom 4.6109549999999997 8.4950679999999998 4.3838450000000000 O
atom 4.5478149999999999 8.4980410000000006 9.3604479999999999 O
atom 9.5674860000000006 3.2598509999999998 4.4680939999999998 O
atom 9.5735820000000000 3.2005279999999998 9.4958639999999992 O
atom 9.5730339999999998 8.4442649999999997 4.3425200000000004 O
atom 9.5351750000000006 8.4307160000000003 9.2631999999999994 O
atom 2.1098580000000000 0.8480590000000000 2.1900979999999999 O
atom 2.6435599999999999 1.1351150000000001 7.3230639999999996 O
atom 2.6650149999999999 6.2475410000000000 2.3877060000000001 O
atom 2.6371140000000000 6.3598860000000004 7.3620869999999998 O
atom 7.3459219999999998 0.9082450000000000 2.6140829999999999 O
atom 7.6126230000000001 1.1636329999999999 7.5153970000000001 O
atom 7.5927519999999999 6.2725470000000003 2.3880810000000001 O
atom 7.6143599999999996 6.3810630000000002 7.3682980000000002 O
atom 2.6032169999999999 1.3603780000000001 4.7442520000000004 O
atom 2.7842950000000002 1.4410000000000001 9.7451720000000002 O
atom 2.6694190000000000 6.5364779999999998 4.9030189999999996 O
atom 2.6163080000000001 6.5673409999999999 9.8384060000000009 O
atom 7.6128580000000001 1.3248290000000000 4.9923289999999998 O
atom 7.6824199999999996 1.5303899999999999 10.1317029999999999 O
atom 7.6318390000000003 6.5319310000000002 4.8754629999999999 O
atom 7.5795849999999998 6.5657930000000002 9.8353560000000009 O
atom 2.2495280000000002 3.9314849999999999 4.8764719999999997 O
atom 2.2865639999999998 3.9872890000000001 9.8243159999999996 O
atom 2.2623609999999998 9.1591729999999991 4.9431710000000004 O
atom 2.1379950000000001 9.2699900000000000 10.0636890000000001 O
atom 7.1937740000000003 3.9297990000000000 4.8638640000000004 O
atom 7.3575629999999999 3.9490200000000000 9.9215060000000008 O
atom 7.2298939999999998 9.1587549999999993 4.8656680000000003 O
atom 7.2595609999999997 9.1953390000000006 9.8279969999999999 O
atom 2.2602820000000001 3.6594620000000000 2.3619949999999998 O
atom 2.2792309999999998 3.7156509999999998 7.3722120000000002 O
atom 2.4330289999999999 8.7455970000000001 2.5471789999999999 O
atom 2.2815470000000002 8.9772960000000008 7.4605689999999996 O
atom 7.4101049999999997 3.5038800000000001 2.3087460000000002 O
atom 7.2119010000000001 3.7778250000000000 7.4019659999999998 O
atom 7.3685400000000003 8.8474690000000002 2.3556499999999998 O
atom 7.2410280000000000 8.9937360000000002 7.3684680000000000 O
