lattice_vector 10.1003933099999994 -0.1188198300000000 0.0153180900000000 
lattice_vector -0.1146539700000000 10.2764519599999993 0.0559495300000000 
lattice_vector 0.0490276600000000 0.0487323400000000 10.0725935100000008 
atom 1.0417537100000001 0.4180539700000000 1.3644864699999999 Si
atom 1.2305391800000001 -0.0942827700000000 6.3611363499999998 La
atom 1.1763511900000001 5.3779395000000001 1.3403039500000000 Hf
atom 1.4166213500000000 5.0961587300000000 6.3305038500000004 Hf
atom 6.1613227400000001 -0.2639838700000000 0.9769699100000000 Hf
atom 6.3193305600000000 -0.3930440900000000 6.4361959799999999 Hf
atom 6.2123033500000000 5.1938526999999999 1.3963502600000000 Hf
atom 6.6081806600000004 5.1078461700000002 6.1846931800000000 Hf
atom 1.3344427600000000 2.9341694600000001 3.6683899300000000 Hf
atom 1.2165996800000001 2.7503376300000002 8.8400493499999993 Hf
atom 1.2078808100000000 7.9324956400000000 3.6208030000000000 Hf
atom 1.4443380299999999 7.4691410200000004 8.6607388200000006 Hf
atom 6.0624828099999997 2.3773614300000001 3.9259881399999998 Hf
atom 6.5776971000000000 2.4639039000000000 8.9315514700000005 Hf
atom 5.9787063099999997 7.7890682199999999 3.6394138900000002 Hf
atom 6.3742326900000004 7.3521981800000002 8.7421820399999994 Hf
atom 3.9461045900000000 2.4223638099999998 1.2180525900000001 Hf
atom 3.8131549400000000 2.4376584700000001 6.5060308200000003 Hf
atom 3.6922260599999999 7.5280965100000001 0.9553760300000000 Hf
atom 3.6594688400000002 7.7436279199999998 6.0548441799999999 Hf
atom 8.8277059300000005 2.4050668100000001 1.4362736899999999 Hf
atom 8.8647762100000005 2.2665422500000001 6.2183756800000003 La
atom 8.8436244700000000 7.7181934600000002 1.4212000600000001 Hf
atom 8.7760564900000002 7.7673303400000000 6.3487589299999998 Hf
atom 3.7184552100000001 0.0112030100000000 3.4492039399999999 Hf
atom 3.6125511000000001 -0.0422426400000000 8.9255821399999995 Hf
atom 3.9214921800000000 4.9870090800000000 3.9997789099999999 Hf
atom 3.9793691800000000 4.8466171700000000 8.8440653900000008 Hf
atom 8.5068009300000007 -0.1053540500000000 3.7921068099999999 Hf
atom 8.8490286099999995 -0.2307372100000000 8.9231444799999995 Hf
atom 8.7207547000000005 4.9915971399999997 3.6285197000000000 Hf
atom 8.8984444000000007 4.9807037100000002 8.7414465700000008 Hf
atom 0.4325067600000000 1.8154239500000000 0.4819630500000000 O
atom 0.0559516800000000 6.9274391199999998 0.1612906200000000 O
atom 0.4320158800000000 7.7760370700000001 5.4689869900000003 O
atom 5.0230805800000002 1.2048406400000000 -0.1634871000000000 O
atom 4.3458953600000001 1.4583956899999999 4.7747575900000001 O
atom 5.0219870100000001 6.3435501700000003 0.0062781500000000 O
atom 5.1989274999999999 6.4209812599999996 5.0704310799999996 O
atom 0.0442802500000000 1.0970231600000000 2.6707320700000001 O
atom -0.0578013100000000 1.2423114799999999 8.0800214199999996 O
atom -0.0760671200000000 6.3916878199999996 2.6604826300000002 O
atom 0.1865612700000000 6.2169062799999999 7.5562328799999996 O
atom 5.2532032199999996 1.0503253400000001 2.3725070100000001 O
atom 4.7511215000000000 0.5768755200000000 7.2217325700000004 O
atom 4.8580413800000004 6.2895610599999996 2.5396547400000000 O
atom 5.4370170299999998 5.6824222799999999 7.7492076699999997 O
atom -0.0138465200000000 3.8310510899999999 2.3881183699999999 O
atom 0.1144499000000000 3.7771929300000000 7.4581637900000004 O
atom -0.5754500200000000 8.7501521499999999 3.1037103899999998 O
atom -0.0768008900000000 8.7820616499999993 8.0333142100000003 O
atom 4.9862225899999997 3.6803388699999999 2.6744466000000000 O
atom 4.9812259299999999 3.1621015099999998 7.8835320199999996 O
atom 4.5962357899999997 8.8390418000000004 2.3078251500000002 O
atom 5.2514947000000003 8.1595302200000006 7.2188529700000004 O
atom 0.3448338600000000 4.3792531800000001 -0.2136697900000000 O
atom 0.1601054700000000 4.4613311800000002 4.8229678199999997 O
atom -0.2014679300000000 9.6445120400000004 0.6481387600000000 O
atom -1.0286630999999999 10.1122323800000000 5.7242308499999996 O
atom 5.3556135300000003 3.7813652699999998 0.1630342700000000 O
atom 5.1299179900000000 3.8351956000000000 5.3264603800000003 O
atom 4.9744467999999999 8.9083990199999992 -0.2973141700000000 O
atom 4.9223575899999998 9.1303119899999992 4.8366994900000000 O
atom 2.7527209400000001 1.7922306800000001 2.7853105000000000 O
atom 2.5267645100000000 1.4126114999999999 7.8420060200000004 O
atom 2.2725016600000001 6.9967593800000003 2.2049484300000000 O
atom 2.7880723800000000 6.3904047899999998 7.4041745800000003 O
atom 7.7558493200000003 1.6094612500000001 2.9195252799999998 O
atom 7.3825449200000000 1.0318080700000001 7.7603992300000000 O
atom 7.4248247500000000 6.5822050299999999 2.6092059200000000 O
atom 7.7835972399999998 6.4218118300000002 7.5812144799999999 O
atom 2.5838292400000000 0.7574455700000000 0.4916693100000000 O
atom 0.8602482299999999 1.8433739300000000 5.2246014299999999 O
atom 2.5428209700000002 6.0242026700000002 -0.1372911900000000 O
atom 2.5538187899999998 6.3484856299999999 4.8297766900000001 O
atom 7.6487790200000001 0.9183948800000000 0.2715246500000000 O
atom 6.9813587300000002 0.9391343100000000 5.0640832600000003 O
atom 7.5509629399999998 5.9171870000000002 -0.0042918400000000 O
atom 8.1031502999999994 6.1058936900000003 5.2015694400000001 O
atom 2.8078905500000002 3.3832789299999999 -0.0672007300000000 O
atom 2.6673780499999999 3.7073938499999999 5.0891395900000003 O
atom 2.4345242699999998 8.6278908300000001 -0.1245443700000000 O
atom 2.5400117000000000 9.0491844700000001 4.7996319500000002 O
atom 8.1165780400000003 3.2749316799999999 -0.2691550300000000 O
atom 7.5018507400000001 3.6812195000000001 4.7689456300000002 O
atom 7.4606884800000000 8.5447267900000003 0.1276006900000000 O
atom 7.3249592999999997 8.5117069000000001 5.0446584600000000 O
atom 2.4762406900000000 4.4267398900000003 2.6036909000000001 O
atom 2.6012217700000000 3.9299019400000001 7.5505376699999998 O
atom 1.8032618600000001 9.6577539300000002 2.5146164299999998 O
atom 2.6894119000000001 8.8734409099999993 7.5285878600000000 O
atom 7.6292702999999999 4.0193457300000004 2.1809419700000001 O
atom 7.5233035599999996 3.8514975499999999 7.5288140600000002 O
atom 7.1098595099999997 9.2158595099999996 2.5800052299999998 O
atom 7.5365528599999996 8.8915569100000003 7.7274944100000003 O
