lattice_vector 5.0546908200000003 0.0020561000000000 -0.0786546400000000 
lattice_vector -0.0233099400000000 10.4521149399999995 -0.1047447600000000 
lattice_vector -0.0558890200000000 -0.0656199900000000 10.2274673299999996 
atom 1.2199835500000000 0.0106126400000000 1.1653172500000000 La
atom 1.3061526999999999 0.1434138900000000 6.3800383199999997 Hf
atom 1.2083371700000001 5.2371933999999998 1.1129298999999999 La
atom 1.2945640800000000 5.3700805599999999 6.3275598999999998 Hf
atom 1.2890521600000000 2.3831415499999999 3.8665666200000000 Hf
atom 1.3959059899999999 2.4028213799999998 8.8391050599999996 Hf
atom 1.2773504600000001 7.6091132899999998 3.8144101500000001 Hf
atom 1.3843532599999999 7.6288657200000003 8.7870406200000009 Hf
atom 3.6059050400000001 2.6920816599999999 1.3028728000000001 Hf
atom 3.6679885900000002 2.7548456899999998 6.2853184799999999 Hf
atom 3.5943042400000000 7.9182328799999997 1.2506474299999999 Hf
atom 3.6563034499999998 7.9809423800000001 6.2330587399999997 Hf
atom 3.5778751400000002 5.0103529900000003 3.7954918800000002 Hf
atom 3.6755480000000000 4.9954924800000002 8.7839909600000006 Hf
atom 3.5662470399999999 10.2368864199999994 3.7432080900000000 Hf
atom 3.6637634100000001 10.2221123299999999 8.7318227099999994 Hf
atom 0.2916994300000000 2.0376863300000001 2.0632490200000002 O
atom 0.3606680000000000 1.9329466099999999 6.9741487500000003 O
atom 0.2800238900000000 7.2637850000000004 2.0110305300000002 O
atom 0.3488086800000000 7.1588326400000000 6.9221760000000003 O
atom 0.2934213200000000 0.6281890100000000 4.5404527100000003 O
atom 0.2913776500000000 0.7915018100000000 9.3449127399999998 O
atom 0.2815672800000000 5.8544930199999996 4.4885544599999996 O
atom 0.2795815600000000 6.0176237700000001 9.2930203700000007 O
atom 4.3574322199999997 4.5190348199999999 1.9660149400000000 O
atom 4.6569310499999998 4.4974626700000000 6.9655754800000000 O
atom 4.3459604599999997 9.7453361800000007 1.9135276999999999 O
atom 4.6450797799999997 9.7238613600000008 6.9129688399999996 O
atom 4.6308079199999996 3.2760042800000000 4.4867907899999997 O
atom 4.8988613399999998 3.4438728400000000 9.6553711999999994 O
atom 4.6189189900000001 8.5018709099999992 4.4345329600000003 O
atom 4.8872462900000002 8.6700289799999997 9.6031366800000004 O
atom 2.7338363700000001 1.2432434699999999 2.6051474400000001 O
atom 2.7274003599999999 1.2050098499999999 7.5774574699999997 O
atom 2.7221131900000000 6.4693466099999997 2.5529675400000000 O
atom 2.7158332999999999 6.4312357999999996 7.5253428500000004 O
atom 2.6561016199999998 1.3378886000000001 5.0977394299999998 O
atom 2.7729438200000001 1.2890153600000001 10.0965515799999999 O
atom 2.6443464200000002 6.5641280399999999 5.0456914499999996 O
atom 2.7612617799999999 6.5152080400000001 10.0444202899999997 O
atom 2.2490891000000000 3.9618202899999999 5.0682052700000000 O
atom 2.4949969699999999 3.7781248000000001 10.0407987799999994 O
atom 2.2373414899999999 9.1880029400000005 5.0160365300000000 O
atom 2.4833213500000002 9.0043408100000004 9.9886033100000002 O
atom 2.2728598700000000 3.6855124600000000 2.5930144199999998 O
atom 2.3025460799999999 3.8292696400000001 7.5494961199999997 O
atom 2.2614061300000001 8.9115348799999996 2.5409173799999998 O
atom 2.2910103600000000 9.0553668700000003 7.4974400899999996 O
