lattice_vector 10.1751953799999999 -0.0028174400000000 0.7834218200000000 
lattice_vector 0.0008132200000000 5.2255651800000003 0.0100442100000000 
lattice_vector 0.7795059500000000 0.1052438700000000 10.5137109599999992 
atom 1.4089119299999999 0.1091366900000000 1.5580235400000000 La
atom 1.8916392000000000 0.3125750900000000 6.9110475300000003 Hf
atom 6.5596002999999996 0.1882024200000000 1.9757735900000000 Hf
atom 6.9732509800000004 0.3577850100000000 7.3260082100000004 Hf
atom 1.7499981499999999 2.4810015100000000 4.3352883799999997 Hf
atom 2.1676723199999999 2.4987847799999998 9.4659880399999992 Hf
atom 6.7052552299999997 2.5819753200000002 4.5633245400000000 La
atom 7.1915438500000004 2.4966601100000001 9.8791877199999991 Hf
atom 3.7721994099999998 2.7621281000000000 1.3662550700000000 Hf
atom 4.0901597199999999 2.9096057100000001 6.6718253699999996 Hf
atom 8.8324581900000005 2.6088429500000001 1.5634914000000000 Hf
atom 9.2534202499999996 2.9489716600000002 7.0661580700000002 Hf
atom 3.8995025100000000 5.0520626200000001 4.0147454400000004 Hf
atom 4.3818892399999996 5.0712886299999997 9.2493455499999992 Hf
atom 9.0708751099999994 5.2438245999999999 4.6654055600000000 Hf
atom 9.4343128099999998 5.0767446999999999 9.6239132600000001 Hf
atom 0.5321365200000000 2.1025094000000002 0.8831487400000000 O
atom 0.8444712599999999 1.9396114300000000 6.2388436100000000 O
atom 5.5770423200000003 1.7732275600000000 1.2972181400000000 O
atom 5.8173530800000002 1.8401531799999999 6.6294378399999996 O
atom 0.6074201200000000 0.9488113900000000 3.6667748599999999 O
atom 1.0382985199999999 0.8693139700000000 8.8706675599999993 O
atom 5.8414973300000002 0.4661213100000000 3.9152568599999999 O
atom 6.1387727400000003 0.8875406900000000 9.1962621599999999 O
atom 4.8864155000000000 4.3048481699999996 2.1258911399999998 O
atom 5.2395682499999996 4.4591390100000003 7.3963412499999999 O
atom 9.3714581399999997 4.3932409999999997 2.6048935000000002 O
atom 10.2813009799999993 4.5690222699999996 7.7824406899999996 O
atom 4.6715449500000004 3.3581164399999999 4.7711094000000003 O
atom 5.5092813100000004 3.5359952300000002 10.0176255600000008 O
atom 10.1389625599999995 3.5677976600000001 5.1903072999999997 O
atom 10.5134723700000006 3.4957367300000000 10.3145276799999994 O
atom 3.0736485000000000 1.3568014300000000 2.7748256599999999 O
atom 3.3533194399999999 1.4291140700000000 7.9975508099999999 O
atom 8.1447929099999996 1.3403392400000000 3.0456988699999998 O
atom 8.4685240200000003 1.4617009400000001 8.4187121200000004 O
atom 3.1412112099999998 1.2864935500000001 5.4069731399999998 O
atom 3.6650153799999998 1.3563872699999999 10.5388678900000006 O
atom 8.3179382600000000 1.4117942800000001 5.8967973400000000 O
atom 8.6544369600000000 1.2900518100000000 10.9650625000000002 O
atom 2.4360948800000002 3.8373037499999998 0.1418673400000000 O
atom 2.5396435300000002 4.0722690500000001 5.5828260199999997 O
atom 7.3832144199999998 3.9075730399999999 0.6630514600000000 O
atom 7.8304853400000001 4.1764632600000002 6.0137742100000002 O
atom 2.5624208999999998 3.8039649299999998 2.9332814400000000 O
atom 2.8658824200000002 3.9715621300000001 8.1423874099999995 O
atom 8.0536166100000006 4.0723915100000001 3.1323068599999999 O
atom 7.9665871399999997 3.9529966600000002 8.5655808199999992 O
