lattice_vector 10.0472076500000007 0.0055067800000000 -0.1117481700000000 
lattice_vector 0.0540161100000000 10.2520344800000007 0.0298993600000000 
lattice_vector -0.0482634900000000 0.0217516500000000 10.4400275199999992 
atom 1.0585599500000000 0.2441770400000000 2.2204054499999999 Si
atom 1.3570314699999999 0.2267652700000000 6.9591313499999998 Hf
atom 1.6173577100000001 5.4133507900000000 1.7417325900000000 Hf
atom 1.3749528300000000 5.3489733800000003 7.0004301000000000 Hf
atom 1.3700217500000000 2.3992440799999999 4.3737213600000002 Hf
atom 1.4478234400000001 2.2964336799999998 9.6563832400000003 Hf
atom 1.4064426699999999 7.5323374699999999 4.3710376200000001 Hf
atom 1.4299019900000001 7.5179800900000000 9.5859636500000001 Hf
atom 3.6336919700000001 2.7543371900000002 1.7145807399999999 Hf
atom 3.5869550000000001 2.7933411499999998 6.9612027300000001 Hf
atom 3.6291850200000000 8.0011729900000006 1.6810613900000000 Hf
atom 3.6416953599999999 7.9248403600000001 6.9619846699999997 Hf
atom 3.6197955300000002 4.9399379500000000 4.3541525400000003 Hf
atom 3.6325161200000000 4.9108286200000002 9.5658517700000001 Hf
atom 3.6206136500000001 10.1088250500000001 4.3263872299999999 Hf
atom 3.6520875600000000 10.0686864000000007 9.5795399000000003 Hf
atom 6.4265116400000002 0.2272574500000000 0.7482092200000000 Hf
atom 6.3399028900000003 0.2364749300000000 5.9826554600000001 Hf
atom 6.4504623700000003 5.3595572799999998 0.7590609699999999 Hf
atom 6.3692143999999997 5.3412959999999998 6.0386670799999997 Hf
atom 6.4197997100000004 2.3864519700000000 3.3761352699999998 Hf
atom 6.3960086799999996 2.3792359099999998 8.5944147799999993 Hf
atom 6.3330418200000000 7.5149352800000004 3.3620771100000000 Hf
atom 6.4340978099999999 7.4963864500000001 8.6168314699999993 Hf
atom 8.6894955199999995 2.6651067600000000 0.7619990800000001 Hf
atom 8.6183309599999998 2.7450957599999999 5.9994004099999998 Hf
atom 8.7505563800000008 7.9424834700000000 0.7660137700000000 Hf
atom 8.6197692299999993 7.9115875600000001 6.0054073800000003 Hf
atom 8.7153344799999992 5.0671003299999997 3.4867577100000000 La
atom 8.6773487700000000 4.9153534099999998 8.6240214200000000 Hf
atom 8.5853201200000004 10.0195466199999998 3.4375206000000000 Hf
atom 8.6970289300000001 10.0533836500000007 8.5891198400000004 Hf
atom 0.5515430300000000 1.5173020500000001 1.1104638000000000 O
atom 0.3483622300000000 1.7415192100000001 6.1528616300000003 O
atom 0.3866877200000000 6.7755290099999996 0.8883244800000000 O
atom 0.2914088500000000 6.7871066799999999 6.0386937400000003 O
atom 0.3054486800000000 0.7341218100000000 3.6348418599999999 O
atom 0.3179520800000000 0.8740109100000000 8.7362658900000003 O
atom 0.6536509700000001 5.9523178200000002 3.4464321800000000 O
atom 0.3498126900000000 5.9910735300000004 8.7070646299999996 O
atom 4.7180646599999996 4.2725792299999998 0.8385626200000000 O
atom 4.6055603300000003 4.3296977600000002 6.0878564900000001 O
atom 4.7851152299999997 9.4283460100000003 0.8347825200000000 O
atom 4.6683899100000001 9.4261147300000001 6.0344021100000003 O
atom 4.6691050699999996 3.4056034300000002 3.4614941600000000 O
atom 4.6746147599999999 3.4317601099999999 8.6521132200000004 O
atom 4.6195688199999996 8.6049028500000002 3.4271056199999999 O
atom 4.7073211400000003 8.5673042499999994 8.6568812400000006 O
atom 2.5305257800000001 1.2288620299999999 2.8749551499999999 O
atom 2.7368890700000001 1.2563332400000000 8.1886097899999992 O
atom 2.9138863599999998 6.5038681399999998 3.0076127499999998 O
atom 2.7808417599999999 6.3949382200000002 8.2473651900000000 O
atom 3.0451318600000001 1.4528768599999999 0.2434702500000000 O
atom 2.7643766699999999 1.3322031999999999 5.5867824500000003 O
atom 2.8627798400000000 6.4399188199999999 0.3977886400000000 O
atom 2.7519962699999998 6.4545825299999997 5.6471977700000000 O
atom 2.2708834900000001 3.8534304599999998 3.0374003300000001 O
atom 2.2256861500000000 3.8112991300000001 8.2900969000000000 O
atom 2.1073379900000000 9.1203505400000004 2.9192004300000001 O
atom 2.2545629599999999 8.9484079500000000 8.2192957700000004 O
atom 2.2701359700000001 3.8920001200000001 0.4479169100000000 O
atom 2.1914269900000001 3.8784689600000002 5.6516087900000000 O
atom 2.3798590599999998 8.9646858700000003 0.3250202300000000 O
atom 2.2518393699999999 9.0336247800000002 5.6089678999999997 O
atom 5.3900670799999997 1.7188295700000000 1.6689004100000000 O
atom 5.3290261599999997 1.7548242100000000 6.8739353100000002 O
atom 5.3353788099999999 6.8655306700000001 1.6429676000000000 O
atom 5.3582241899999996 6.8604844399999996 6.9180348199999999 O
atom 5.3066403199999996 0.8892485800000000 4.2535593199999999 O
atom 5.4060208200000002 0.8404092200000000 9.4502438400000006 O
atom 5.3351290499999999 5.9686058299999996 4.2605073700000000 O
atom 5.3776985499999999 5.9763172000000004 9.4872967999999993 O
atom 9.6891275500000003 4.2563771800000003 6.8807672499999999 O
atom 9.8447968299999999 9.4653054700000006 1.7131671300000000 O
atom 9.7176195300000003 9.4203684100000000 6.8600908699999996 O
atom 9.6339548300000004 3.1866633499999999 4.2235431999999999 O
atom 9.7736724800000001 3.4511699400000002 9.6768956900000003 O
atom 9.6341378199999994 8.4520217100000004 4.2227102299999997 O
atom 9.7341146700000003 8.5587776499999997 9.4823541299999992 O
atom 7.8334156799999999 1.2904792599999999 9.9281369099999992 O
atom 7.7527892800000000 1.2463110799999999 4.7059154500000000 O
atom 7.8250275900000004 6.4171186000000002 9.9268504899999996 O
atom 7.5775934700000001 6.5595815399999999 4.8258804299999998 O
atom 7.8248240800000000 1.2702441799999999 2.0986270999999999 O
atom 7.7596962100000004 1.3032670399999999 7.3067294000000000 O
atom 7.7269058800000003 6.5535685700000004 2.0141388999999998 O
atom 7.8127465400000000 6.4240745500000003 7.3527488999999999 O
atom 7.2978030900000004 3.8228948699999998 9.9199965900000002 O
atom 7.1426988800000002 3.7619693199999999 4.8157983499999997 O
atom 7.3199278799999998 8.9872841200000000 9.9326195100000003 O
atom 7.2293432299999996 9.0105462599999999 4.7076041000000002 O
atom 7.3728752499999999 3.7924169700000001 1.9815696199999999 O
atom 7.2747646499999998 3.8825435200000000 7.3514500299999996 O
atom 7.3327599100000000 9.0161740300000002 2.1000174299999999 O
atom 7.2768556300000000 9.0005332399999993 7.3208514500000001 O
