lattice_vector 10.1081348000000002 0.0347692500000000 -0.1905328300000000 
lattice_vector -0.0166372700000000 5.1470305300000003 -0.0301132400000000 
lattice_vector -0.0951336500000000 -0.0263108300000000 10.4302649699999996 
atom 1.2364544900000001 -0.0279795100000000 1.5699714499999999 La
atom 1.3321667300000000 0.2071459200000000 6.9542968099999998 Hf
atom 1.2812487600000000 2.2847707900000001 4.3370889600000000 Hf
atom 1.4005307000000000 2.3936912200000000 9.5413454600000005 Hf
atom 3.5734383200000002 2.5407137400000002 1.7924208800000001 Hf
atom 3.5679617499999998 2.7734744299999998 6.8973339999999999 Hf
atom 3.5525762900000002 4.8730946599999996 4.2924565200000000 Hf
atom 3.6464995000000000 4.9765793299999999 9.4180035300000000 Hf
atom 6.6515544200000001 0.2664522300000000 0.7026327900000000 Hf
atom 6.3645596299999996 0.2212970400000000 5.9190816899999996 Hf
atom 6.3711016799999998 2.3830384200000001 3.3108562799999999 Hf
atom 6.4011005200000000 2.3644077999999999 8.4996569599999994 Hf
atom 8.7292627399999994 2.8329707300000000 0.6501474800000000 Hf
atom 8.6346323500000004 2.8095419599999998 5.8640446600000002 Hf
atom 8.5495030100000005 4.9826813599999999 3.2965257299999999 Hf
atom 8.6572142900000006 4.9526580300000003 8.4500229900000008 Hf
atom 0.5269040400000000 2.2353670700000001 1.0290068000000001 O
atom 0.2838199000000000 1.7736629300000000 6.1596347900000001 O
atom 0.2054662800000000 0.7609883400000000 3.6151295600000002 O
atom 0.3385928700000000 0.8051448400000000 8.8038897200000008 O
atom 4.6590729599999996 4.2155497500000001 5.9455424499999996 O
atom 4.6754435699999997 3.4923440900000000 3.2656399899999999 O
atom 4.6832849500000000 3.4435042299999998 8.5715495300000004 O
atom 2.7433825700000001 1.1834060500000001 3.0500286299999999 O
atom 2.7363316300000000 1.2822485500000000 8.1817992900000007 O
atom 2.8291283100000002 1.2177930100000001 0.2957098400000000 O
atom 2.6939679000000001 1.2675883999999999 5.6133771200000000 O
atom 2.2336477800000001 3.6671263100000000 3.0687997199999999 O
atom 2.1932208300000000 3.8508997699999998 8.1954195599999995 O
atom 2.7723613800000000 3.7231040900000001 0.2990289200000000 O
atom 2.1682605800000001 3.8633386399999998 5.6245277800000002 O
atom 5.3339761899999996 1.5681992600000001 1.6394920399999999 O
atom 5.2901641000000001 1.6618008000000000 6.8781919900000004 O
atom 5.2791134599999996 0.8969662400000000 4.2752014300000001 O
atom 5.4029036899999996 0.8445957800000000 9.4922450000000005 O
atom 9.1556314000000008 4.6607740099999999 1.3132749100000001 O
atom 9.6620390599999997 4.3789335100000004 6.6936026100000001 O
atom 9.6290276899999991 3.3990524299999998 4.0452961099999998 O
atom 9.7323703300000002 3.4610810500000002 9.3122551700000002 O
atom 7.8441809899999999 1.3070709500000000 9.8049551800000003 O
atom 7.7311809599999997 1.2906647800000000 4.6275882499999996 O
atom 7.8089055800000002 1.4804147900000000 2.0392401599999999 O
atom 7.7796505900000001 1.3165912700000000 7.2067762499999999 O
atom 7.2516484800000001 3.8598499400000001 9.7881794800000002 O
atom 7.2307326700000001 3.8668862900000001 4.6279829799999996 O
atom 7.0359147200000001 3.9344098999999999 2.0550835200000002 O
atom 7.2611674600000002 3.8677653099999998 7.2066209800000003 O
