lattice_vector 10.1644097200000001 0.0110865000000000 0.8270461000000000 
lattice_vector -0.0504601600000000 10.3490318499999994 -0.0757341800000000 
lattice_vector 0.8223451500000000 -0.0043686900000000 10.4870478899999995 
atom 1.5341910200000000 0.2258479600000000 1.6611705800000001 La
atom 1.9221362099999999 0.2212586400000000 6.9429369100000002 Hf
atom 1.3822098800000000 5.5188055199999999 1.5058549699999999 Hf
atom 1.9004286399999999 5.4150074799999999 6.8498721600000003 Hf
atom 6.6608922599999998 0.2351135900000000 2.0213779800000000 Hf
atom 7.0117512299999998 0.2483685100000000 7.3042888399999999 Hf
atom 6.5866614099999996 5.3904809800000004 2.0043719300000000 Hf
atom 6.9750742199999998 5.4392127600000002 7.2605180899999997 Hf
atom 1.5476946700000001 2.3813156100000001 4.4831972499999999 Hf
atom 2.1229471599999998 2.4121339800000001 9.4857940799999998 Hf
atom 1.6883775900000000 7.4943918900000002 4.2313563600000004 Hf
atom 2.1200162900000001 7.6082665100000000 9.4082072599999993 Hf
atom 6.8462420899999996 2.4132955100000002 4.6665643599999997 Hf
atom 7.2580212499999996 2.3883702900000001 9.8807827100000001 Hf
atom 6.7865301599999999 7.5911526599999997 4.6568291700000000 Hf
atom 7.2161993200000003 7.5602366300000003 9.8345376400000006 Hf
atom 3.8581336199999998 2.8311823899999999 1.2158907200000000 Hf
atom 4.1556027000000002 2.8159138900000000 6.6307124999999996 Hf
atom 3.7769252799999999 7.9557886299999998 1.2516276900000001 Hf
atom 4.1242509099999998 7.9971389200000003 6.5774774000000003 Hf
atom 8.8245758900000002 2.8403073299999999 1.7641225199999999 Hf
atom 9.1602165299999996 2.8625603800000001 7.0822209200000001 Hf
atom 8.7356319800000009 8.0056971099999998 1.7431847899999999 Hf
atom 9.2231741500000002 8.0007233000000006 6.9847729699999999 Hf
atom 4.0705938300000000 5.0059664100000001 4.0451066100000004 Hf
atom 4.3537572899999999 5.0057662100000000 9.2008084100000005 Hf
atom 3.8997917400000000 10.2386241499999997 3.9490056500000001 La
atom 4.3604532599999999 10.1494764199999992 9.1649613399999996 Hf
atom 8.9760255099999995 5.0079161599999997 4.3889133999999999 Hf
atom 9.4435065300000005 4.9991398900000004 9.6216883499999994 Hf
atom 8.9624862699999994 10.1418748399999998 4.3969681500000002 Hf
atom 9.4178255400000008 10.1406480699999992 9.5984326600000003 Hf
atom 0.4027999400000000 1.9280348199999999 0.7687371500000000 O
atom 0.7090169300000000 1.7784827900000000 6.2629605699999997 O
atom 0.3744648500000000 7.0113102899999999 0.7706604800000000 O
atom 0.7732171300000000 6.8880948699999998 6.0621543100000004 O
atom 5.5448096099999997 1.7760021900000000 1.2202598600000001 O
atom 5.8860087999999999 1.7519137899999999 6.5028559899999996 O
atom 5.4937389999999997 6.8938226800000004 1.2178708800000000 O
atom 5.9043885100000004 6.9547301199999998 6.5175902800000003 O
atom 0.6257268000000000 0.7679075000000000 3.7582657099999999 O
atom 1.0584232600000001 0.8311155700000000 8.7785620899999994 O
atom 0.5539938500000000 6.0310144100000000 3.3897910400000000 O
atom 1.0185267400000000 6.0424270299999998 8.6789484399999992 O
atom 5.9203605300000000 0.8936707600000000 3.8135704100000001 O
atom 6.1508294499999998 0.8649304700000000 9.1285692699999998 O
atom 5.7521561300000004 5.9862603500000002 3.9137097700000001 O
atom 6.0996820899999999 6.0330819299999998 9.0947227999999996 O
atom 4.7818607399999999 4.3422711700000001 2.2005676400000000 O
atom 5.2221352200000002 4.3950659500000002 7.3596823000000002 O
atom 4.8398986800000001 9.5712984799999994 1.8745151499999999 O
atom 5.2138874399999997 9.5569220700000006 7.3186284900000000 O
atom 9.9035949399999996 4.3750270999999996 2.5617114200000000 O
atom 10.3150977899999994 4.3817245199999997 7.7918487000000001 O
atom 9.6919429099999999 9.5262488500000000 2.5706513599999998 O
atom 10.2900062299999995 9.5249742800000003 7.7826166700000003 O
atom 5.0477617600000002 3.3925140800000002 4.7925813699999997 O
atom 5.5282930900000000 3.5094099999999999 9.9373024799999996 O
atom 5.0290978099999997 8.4933106400000007 4.7798918700000002 O
atom 5.4946899900000004 8.5853327900000007 9.9001172900000007 O
atom 10.0740933899999998 3.5088469500000001 5.2263752099999996 O
atom 10.5218624300000005 3.4875957600000000 10.3724625699999997 O
atom 10.0874790999999995 8.5783501300000005 5.1483268200000003 O
atom 10.5232901400000003 8.6498306700000001 10.4028117600000005 O
atom 3.4143233400000002 1.3610501900000000 8.0184010099999998 O
atom 2.9282526999999998 6.1655682799999996 2.7082157300000000 O
atom 3.3724506700000001 6.5412349200000000 7.9367999800000000 O
atom 8.2080177499999998 1.3929372700000000 3.1554467100000001 O
atom 8.4789141800000003 1.3713881299999999 8.4131915700000004 O
atom 8.0297774700000009 6.5252183800000001 3.0924397199999998 O
atom 8.4607908599999995 6.5421393099999996 8.3471510500000008 O
atom 3.0366207900000002 1.3743773100000001 5.5458447399999997 O
atom 3.7265434800000001 1.3533928300000000 10.5232116999999992 O
atom 3.1885072900000000 6.4439729600000000 5.3359150000000000 O
atom 3.5572451400000000 6.4595530500000002 10.5279700199999997 O
atom 8.2528012099999994 1.2965183800000000 5.8083456800000004 O
atom 8.7080555400000001 1.2677832300000000 11.0072274799999992 O
atom 8.2502111100000004 6.4541732200000004 5.7355715800000002 O
atom 8.6634246499999996 6.4292594500000000 10.9714095500000006 O
atom 2.2988998899999999 3.9939530099999998 0.3240370000000000 O
atom 2.6569137199999999 3.9894835899999999 5.4217781599999997 O
atom 2.3724725499999999 9.0357487400000007 0.0847323700000000 O
atom 2.5497691900000001 9.0383203400000003 5.5559918899999996 O
atom 7.3353619700000001 3.9517056400000001 0.6702065200000000 O
atom 7.7303372200000000 3.9755112300000000 5.9282515699999996 O
atom 7.3414456699999997 9.1024989400000003 0.6066828300000000 O
atom 7.7379527000000001 9.1275579499999999 5.8866246400000000 O
atom 2.7836102100000000 2.2311635000000001 2.8402779200000001 O
atom 2.8793811599999999 3.8738760499999998 8.1173922899999997 O
atom 2.5139374700000001 8.6618770999999999 2.7746263099999999 O
atom 2.8603790000000000 9.0538223299999991 8.0712791300000006 O
atom 7.5377628300000001 3.8755007899999998 3.2941931599999998 O
atom 7.9571434600000002 3.8750909800000000 8.5424655299999994 O
atom 7.4202955599999996 9.0154144499999997 3.2587117999999999 O
atom 7.9418363699999999 9.0367441500000005 8.4877270199999995 O
