lattice_vector 10.0293699400000005 0.0459498500000000 0.0770259200000000 
lattice_vector 0.0208035200000000 10.3609147499999992 0.0008975200000000 
lattice_vector -0.0309342300000000 -0.0109842000000000 10.0805180399999994 
atom 1.0074312700000001 0.2413383900000000 0.8821246300000000 Si
atom 1.0147384100000001 -0.1127962600000000 6.0057609699999999 Hf
atom 1.3559152800000001 5.3922109699999998 1.2673810000000001 Hf
atom 1.3577032300000000 5.3531461100000000 6.3012199500000001 Hf
atom 6.3816979900000002 0.2308882800000000 1.3291872199999999 Hf
atom 6.3337361899999998 0.1690370900000000 6.3063428000000004 Hf
atom 6.3501909000000003 5.3855621300000003 1.3487010100000001 Hf
atom 6.3896930400000000 5.3871808500000000 6.3312441100000001 Hf
atom 1.4114710600000000 2.4264437399999998 3.7800036700000001 Hf
atom 1.1909584099999999 2.5514646700000001 8.7521747600000008 La
atom 1.4260823199999999 7.6160333299999996 3.7874119300000002 Hf
atom 1.2848294499999999 7.6528062800000001 8.8418696800000003 Hf
atom 6.4243375800000004 2.4443808499999999 3.7987107899999999 Hf
atom 6.3422166600000001 2.4661440099999998 8.9090542599999996 Hf
atom 6.3950622600000004 7.6299861399999998 3.7933123700000002 Hf
atom 6.2572241200000001 7.6132404999999999 8.9034250299999993 Hf
atom 3.6418260899999999 2.7590505200000002 1.3533428400000000 Hf
atom 3.8153234100000000 2.8730948999999999 6.1617355399999996 Hf
atom 3.6377692700000002 8.0109690100000002 1.2920574800000000 Hf
atom 3.6730641400000001 7.9470127899999996 6.3391098899999996 Hf
atom 8.7268789200000008 2.7927567099999999 1.3833008400000000 Hf
atom 8.7012788400000005 2.7751272500000002 6.3364064800000000 Hf
atom 8.7567908899999995 7.9441022600000002 1.2524670600000001 Hf
atom 8.6374204399999996 7.9457719400000002 6.4161326699999996 Hf
atom 3.7041885899999998 5.0807437699999998 3.7519570999999998 Hf
atom 3.6825382699999998 5.0403333200000002 8.8290942399999999 Hf
atom 3.7399155199999998 10.1614278999999996 3.8158821999999999 Hf
atom 3.6317450800000000 10.4237643299999991 8.7964172499999993 La
atom 8.7325662499999996 5.0619070199999996 3.8412741200000000 Hf
atom 8.6065833600000001 5.0679184199999998 8.9235053999999998 Hf
atom 8.7369391099999998 10.2206188900000008 3.7624974299999998 Hf
atom 8.5157868099999998 10.1914965899999999 8.8919438999999993 Hf
atom 0.4390421700000000 1.7487757300000000 1.8278127500000001 O
atom 0.2765243400000000 1.6565849900000000 6.7927603599999999 O
atom 0.3416131800000000 7.0958000600000002 2.0585097200000000 O
atom 0.3012997100000000 7.0104379200000002 7.0217838900000000 O
atom 5.4467256099999997 1.9797325299999999 1.9920213899999999 O
atom 5.1690276400000004 1.7845846200000000 7.1878063299999999 O
atom 5.3552773299999998 7.1225144299999998 2.0204598499999999 O
atom 5.3294987500000000 7.0458013700000004 7.0978224200000000 O
atom 0.4085540400000000 0.6890033300000000 4.2435880700000004 O
atom 0.1872116300000000 0.5510141100000000 9.5315414399999998 O
atom 0.3622225400000000 5.8980164500000001 4.5246190000000004 O
atom 0.2816518900000000 5.8932040299999997 9.5843582099999995 O
atom 5.3861847999999997 0.7763138900000000 4.5470908300000001 O
atom 5.5373615699999998 0.7127730400000000 9.6428168900000006 O
atom 5.4143502600000000 5.8912935299999996 4.5155755299999996 O
atom 5.3231863400000003 5.8626626200000000 9.6111839499999991 O
atom 4.6622385700000004 4.5029987299999998 2.0026339000000002 O
atom 4.8094732100000002 4.4696125899999997 7.0986255500000004 O
atom 4.7524196400000003 9.7046004400000001 2.0441703100000002 O
atom 4.6764447300000000 9.6178813800000000 6.8577481699999998 O
atom 9.7287250400000005 4.5012925700000004 2.0874725000000001 O
atom 9.8212761600000000 4.3732456300000004 7.2318694299999997 O
atom 9.8663912800000002 9.7518851699999995 1.8617786300000001 O
atom 9.5184414999999998 9.6513943199999996 7.1505987600000003 O
atom 4.7551839800000000 3.3748413400000001 4.4843371100000002 O
atom 4.5121121700000000 3.1323791700000001 9.5214485000000000 O
atom 4.7528733399999998 8.4470157799999992 4.5403689299999996 O
atom 4.5802512999999996 8.4766310899999997 9.5827157500000002 O
atom 9.7056010300000004 3.3323665000000000 4.5629130099999999 O
atom 9.4782803799999993 3.4225730699999999 9.7314315100000002 O
atom 9.8914927499999994 8.6885000399999992 4.7811023800000001 O
atom 9.5224746400000004 8.4274616600000005 9.4969235500000000 O
atom 3.0110594700000002 1.4834975600000000 2.9430305200000002 O
atom 2.7174560200000002 6.4098363899999997 2.5031334500000000 O
atom 2.6730328700000001 6.4114621500000002 7.5772506599999998 O
atom 7.7625128600000002 1.2459459300000000 2.5765818399999998 O
atom 7.6184743399999997 1.2535623899999999 7.5919752400000000 O
atom 7.7440476499999997 6.4082074599999999 2.5461487799999998 O
atom 7.6997169799999998 6.4197584000000001 7.6002311599999999 O
atom 2.6113122899999999 1.3066540300000000 5.5756428400000004 O
atom 2.3904386899999999 1.2604453400000000 10.5247925000000002 O
atom 2.7473684700000001 6.5489026199999998 5.0371404699999998 O
atom 2.6467860100000000 6.6518217100000001 10.0766025999999993 O
atom 7.7827478499999998 1.3715899000000000 5.0574570799999998 O
atom 7.7620988600000000 1.4288686100000001 10.1548679699999997 O
atom 7.7626372200000002 6.6082031499999996 5.0615477899999997 O
atom 7.6533595500000002 6.5669870799999996 10.1336607099999991 O
atom 2.3600341299999998 3.9800529299999998 4.9532709099999996 O
atom 2.3953915499999998 4.1070513000000002 10.1327429599999999 O
atom 2.4078275499999999 9.0946071300000000 5.0231277099999998 O
atom 1.9514564800000000 9.2019673999999991 10.2762595900000004 O
atom 7.3656658000000004 3.9889666300000002 5.0902297100000000 O
atom 7.1810759600000003 3.9910412100000001 10.1458476100000006 O
atom 7.3967491599999997 9.1702999199999997 5.0502491100000002 O
atom 7.2477325900000000 9.1283862300000003 10.1541435100000008 O
atom 2.2592844200000002 3.8595733499999998 2.4967939600000002 O
atom 2.4899922700000001 3.8567272400000001 7.4099375900000002 O
atom 2.4707500400000000 8.9528564900000003 2.6404499900000000 O
atom 2.1752221000000000 9.0063312900000003 7.4974842400000004 O
atom 7.3610889799999999 3.8526607700000000 2.5861304100000000 O
atom 7.3667025500000003 3.8277540499999998 7.6064074799999997 O
atom 7.5029437300000001 8.9962350299999994 2.5532094399999998 O
atom 7.2010748099999997 8.9843714800000001 7.6054058199999997 O
