lattice_vector 10.0802113500000008 -0.0049326300000000 0.0587980800000000 
lattice_vector -0.1000817400000000 10.4459077499999999 -0.3185621700000000 
lattice_vector -0.0068757500000000 -0.2522141700000000 10.0611504400000005 
atom 1.1452200800000001 0.3401951300000000 1.1043610300000000 Si
atom 1.3625901400000000 -0.0089399300000000 6.3526084999999997 La
atom 0.9978011500000000 5.3261308100000004 0.8136289400000000 Hf
atom 1.3891912000000000 5.2647540700000004 6.2057790199999996 Hf
atom 6.3688092599999999 0.2263453200000000 1.2356225599999999 Hf
atom 6.2726724699999998 -0.0814274700000000 6.1918993599999999 Hf
atom 6.4038261099999998 5.4293698499999996 1.1613036800000001 Hf
atom 6.0796958999999999 5.2007168799999999 5.9139454999999996 Hf
atom 1.3841342500000000 2.1703752800000000 3.6290473799999998 Hf
atom 1.3201840400000000 2.2985050299999998 8.8772757500000008 Hf
atom 1.5386390900000000 7.2481288599999996 3.4038194900000001 Hf
atom 1.2839590800000000 7.5820314800000004 8.6961638099999998 Hf
atom 6.3534201699999997 2.3675937999999999 3.8073535700000001 Hf
atom 6.3971332900000002 2.2277756700000002 8.6284299900000008 Hf
atom 6.3823463199999999 7.6315425100000001 3.5769408899999999 Hf
atom 6.2829371099999998 7.4875994300000004 8.5153235100000000 Hf
atom 3.9720986500000000 2.7339273600000000 0.9533366700000000 Hf
atom 3.6330294900000002 2.6534185699999999 6.2873286400000001 Hf
atom 3.9494206300000001 7.8968199700000001 0.7851257800000000 Hf
atom 3.6038077999999998 7.8779871000000004 6.1012712599999999 Hf
atom 8.7083949399999998 2.8285989900000001 1.2167052100000000 Hf
atom 8.7952115699999993 2.6367558700000000 6.1794353500000003 Hf
atom 8.7160123800000004 8.0497820400000002 0.9619017300000000 Hf
atom 8.7441744600000000 7.6200047499999997 6.1739635499999999 La
atom 3.6225332699999999 4.7416911600000002 3.5901144100000000 Hf
atom 3.6034051499999999 4.9252834400000003 8.7384660400000005 Hf
atom 3.5576209699999999 10.0208398499999998 3.3614319899999998 Hf
atom 3.4613493800000001 10.1774921900000006 8.6477765499999997 Hf
atom 8.6824631100000005 4.9570690300000004 3.7372759000000002 Hf
atom 8.5624251400000002 4.8698185299999999 8.6213861099999995 Hf
atom 8.5476337200000003 10.4035383800000005 3.3217558299999999 Hf
atom 8.5375034099999993 10.1129519200000004 8.4963708600000007 Hf
atom 0.3519233100000000 1.8540441200000000 1.7846872199999999 O
atom 0.1919146700000000 1.9183007500000000 7.2237343000000003 O
atom 0.2679452400000000 7.1559872599999998 1.7262422700000000 O
atom 0.6621708500000000 7.0647176800000002 6.8343938199999998 O
atom 5.3841047900000003 1.9007450699999999 2.0563118199999999 O
atom 5.3633428500000004 1.7401926700000001 6.8812341400000001 O
atom 5.4237653999999997 7.1482845499999996 1.8526523800000001 O
atom 5.2603825200000003 6.9741398500000003 6.7463353899999996 O
atom 0.2135309700000000 0.5928876100000000 4.4114333700000001 O
atom 0.2970231100000000 0.5185575200000000 9.6081360199999999 O
atom 0.1149831000000000 6.1219796799999999 4.4605167200000002 O
atom 0.1597082200000000 5.8625971100000003 9.2156278000000000 O
atom 5.4084456300000001 0.5808849200000000 4.3427580600000004 O
atom 5.1768320399999999 0.7591331800000000 9.7189900100000006 O
atom 5.2345769899999999 5.8739047299999996 4.1898874199999998 O
atom 5.1119034399999999 6.0016583800000003 9.5977769399999993 O
atom 4.7244473600000001 4.5133194500000000 1.8013309399999999 O
atom 4.6110798900000001 4.3710779600000000 6.9919606600000002 O
atom 4.6563373700000001 9.7379279600000004 1.5952700900000001 O
atom 4.4674751600000002 9.7047472100000007 6.7432497500000004 O
atom 9.7322237200000004 4.4557696599999996 2.0429872699999998 O
atom 9.6555444300000008 4.5215705899999996 6.8513281800000003 O
atom 9.7835435400000001 9.8212497699999997 1.5629851600000000 O
atom 9.4694400299999995 9.6451309900000002 6.8414642099999998 O
atom 4.8251466799999996 3.3574667400000000 4.6513232000000002 O
atom 4.7598906699999999 3.2730786500000000 9.3033870400000005 O
atom 4.8150650300000004 8.5634964000000000 4.4443536300000002 O
atom 4.5929566599999996 8.5105740799999996 9.1428972599999998 O
atom 9.7729057800000003 3.2286377499999999 4.4041805199999997 O
atom 9.8473569800000007 3.3951324800000000 9.6933753800000009 O
atom 9.5317548300000006 8.3308834399999991 9.1822753800000001 O
atom 2.1574535600000000 0.4221089500000000 2.5176329800000001 O
atom 2.8222749000000000 1.2764306999999999 7.7380448199999998 O
atom 2.2634166800000002 5.6840954400000001 2.3985676400000000 O
atom 2.7966083099999999 6.2861548400000000 7.4392427000000003 O
atom 7.7537058800000001 1.2667017199999999 2.4286117900000002 O
atom 7.6115515499999997 0.9292899600000000 7.4799341999999998 O
atom 7.8031940200000003 6.4152132100000001 2.3174653200000002 O
atom 7.3943476500000003 6.0513545700000000 7.4039178799999998 O
atom 2.8460993100000000 1.2517130700000001 4.8768730400000004 O
atom 2.5190336100000001 1.1771444600000001 10.2619566599999992 O
atom 2.7461603600000002 6.3158671399999999 4.8388925599999997 O
atom 2.5130088000000002 6.4387401600000000 9.9679365799999999 O
atom 7.7116659099999998 1.3114558999999999 4.9711408099999996 O
atom 7.6907714800000004 1.2446108100000000 9.9914673799999996 O
atom 7.4995252600000004 6.3851694200000004 4.7481478700000004 O
atom 7.6268720600000002 6.4242979800000004 9.8437902200000007 O
atom 2.2646199700000000 3.7842437599999998 4.9388631099999998 O
atom 2.3807816700000002 3.7968867799999999 10.0466497599999993 O
atom 2.2340632399999998 8.8349263699999998 4.6490633399999997 O
atom 2.0158370500000000 9.2127898699999999 9.9838247700000000 O
atom 7.3940044399999998 3.8736787300000000 4.9822716199999997 O
atom 7.3435202100000003 3.8084889199999998 9.9664595100000000 O
atom 7.5533687199999999 9.1397921600000007 4.6291106400000004 O
atom 7.2133466100000003 9.0435418500000004 9.7723907899999993 O
atom 2.7936484799999999 3.0907277799999999 2.5437684800000002 O
atom 2.2048412900000001 3.7460688700000002 7.5121564200000002 O
atom 2.8376608900000000 8.3056352400000009 2.3522371600000000 O
atom 2.3527113399999999 8.8514365099999992 7.4815186999999996 O
atom 7.3239377899999996 3.8106451099999998 2.4532219799999999 O
atom 7.4710606999999998 3.4937246499999999 7.4810250600000003 O
atom 7.3607401699999997 9.0430990799999993 2.1811573100000001 O
atom 7.0315491999999997 8.9063966899999993 7.2919227800000002 O
