lattice_vector 10.1318610800000002 -0.0096193900000000 0.8047170200000000 
lattice_vector 0.0467894400000000 5.1082575800000001 0.0196690200000000 
lattice_vector 0.7600454600000000 -0.0418610000000000 10.4105651399999992 
atom 1.3919863600000000 0.1352691300000000 1.8623383800000000 Si
atom 1.8158216400000000 0.1641893700000000 6.8102108299999999 Hf
atom 6.6896965599999998 0.1836544600000000 1.9867756599999999 Hf
atom 6.9169855800000004 0.1748674100000000 7.2416796300000001 Hf
atom 1.6285891400000001 2.3702910099999999 4.1948305100000001 Hf
atom 2.0847870999999998 2.2376721499999999 9.4059609599999998 Hf
atom 6.8129646199999998 2.3350007800000001 4.6305655999999997 Hf
atom 7.1504745200000004 2.3029297099999999 9.9012798100000001 Hf
atom 3.6874910399999998 2.8669602200000002 1.3747287399999999 Hf
atom 4.0890831399999996 2.7164345600000002 6.6093060299999999 Hf
atom 9.0072745199999993 2.7191116499999999 1.8147337900000000 Hf
atom 9.1352145799999995 2.7003584799999998 7.0179485699999997 Hf
atom 4.0735718199999997 5.0309749899999998 4.0327988399999999 La
atom 4.3219694700000000 4.9598979500000002 9.2330519800000008 Hf
atom 8.9938053999999994 4.8932104599999997 4.4037372100000001 Hf
atom 9.4056525900000008 4.8199599299999996 9.6132445600000000 Hf
atom 0.6284657200000000 1.4836997400000000 0.8829661000000000 O
atom 0.6316825500000000 1.5712946400000001 5.9781344199999999 O
atom 5.5007562200000004 1.7283561900000000 1.3394593500000000 O
atom 5.8869812499999998 1.7387000100000001 6.5166036600000004 O
atom 0.6382749599999999 0.7484017600000000 3.3795606500000002 O
atom 0.9406878200000000 0.8227046900000000 8.6208734000000007 O
atom 6.1776094700000002 0.5581261600000000 3.9619652200000002 O
atom 6.0702546899999996 0.7951661600000000 9.0861385000000006 O
atom 5.0158687600000000 4.2480267999999999 2.0304920900000001 O
atom 5.1753677600000003 4.3137677099999996 7.2902129899999997 O
atom 10.1296047300000005 4.2361619900000003 2.5955046700000000 O
atom 10.2834389999999996 4.1448139800000003 7.8344597900000004 O
atom 4.9267004999999999 2.9566705099999999 4.6269495200000001 O
atom 5.4216202700000000 3.4168563000000001 9.9697298399999994 O
atom 10.0443620500000002 3.3572065900000001 5.1900488100000004 O
atom 10.5828639599999992 3.3601178799999998 10.4490705199999994 O
atom 2.7169295199999999 1.2921946799999999 2.4468681900000000 O
atom 3.3035680900000002 1.2429061200000000 7.8796612200000000 O
atom 8.2508605799999994 1.2758197400000000 3.0674770499999999 O
atom 8.3990091800000002 1.2615278000000001 8.3684632000000008 O
atom 2.9516323999999998 1.3346369199999999 5.4260309299999996 O
atom 3.7823495500000002 1.5786733700000000 10.2856357799999998 O
atom 8.2255804000000001 1.1951039200000000 5.7546177600000004 O
atom 8.6608003900000003 1.1918349900000000 10.9368797699999991 O
atom 2.3312905100000001 4.3810599300000002 0.5082369300000000 O
atom 2.5849224600000000 3.8156862999999999 5.5729413200000000 O
atom 7.4798610500000002 3.8277813400000000 0.7049279800000000 O
atom 7.7030148100000000 3.8369211000000001 5.9040376200000004 O
atom 2.3274474100000000 3.8200351399999999 2.8192772900000000 O
atom 2.8892336500000000 3.7428944199999998 8.1932452500000004 O
atom 7.7243835900000004 3.6960515100000002 3.2474229499999998 O
atom 7.8921203999999996 3.7440448599999998 8.5376909300000001 O
