lattice_vector 10.0898424700000007 0.0309055100000000 0.7878398000000000 
lattice_vector 0.0109292600000000 10.2496654300000003 -0.0532554800000000 
lattice_vector 0.8482438700000000 -0.0278404600000000 10.4663567499999992 
atom 1.3435880499999999 0.0915863300000000 1.8300370500000001 Si
atom 1.9332618100000001 0.1899270800000000 6.8243794700000002 Hf
atom 1.5171867000000001 5.3600789400000002 1.5932587600000001 Hf
atom 2.0129043300000000 5.3428398100000001 6.7855239599999999 Hf
atom 6.5650773700000000 0.2292932200000000 2.0525462299999999 Hf
atom 6.9973043600000002 0.2443500900000000 7.2873447499999999 Hf
atom 6.5245122200000001 5.3560896099999997 2.0152769899999998 Hf
atom 6.9325684299999999 5.4173027899999999 7.1924134200000003 Hf
atom 1.7410102700000001 2.2898507200000000 4.1225661999999996 Hf
atom 2.2342510000000000 2.2450827000000002 9.4722165999999994 Hf
atom 1.7189623100000000 7.4575966100000004 4.2128272899999999 Hf
atom 2.1977728999999999 7.5227463600000002 9.4512432200000003 Hf
atom 6.7846906200000001 2.3507232999999998 4.6568733800000004 Hf
atom 7.1862909400000001 2.3098110599999999 9.9898510399999996 Hf
atom 6.7865293500000003 7.4852406199999999 4.5858004299999999 Hf
atom 7.1326174299999998 7.5147859199999996 9.8755495999999994 Hf
atom 3.6829867400000000 2.7533653600000001 1.3264674599999999 Hf
atom 4.1533265799999999 2.7764334300000000 6.5671059800000000 Hf
atom 3.6605519499999999 7.9779278299999996 1.3572324000000000 Hf
atom 4.1661691500000000 7.9355728499999998 6.5692999099999998 Hf
atom 8.8946322999999996 2.6935296100000001 1.8349906400000000 Hf
atom 9.2868858900000006 2.7524386700000001 6.9117829500000001 Hf
atom 8.7794851800000000 7.9372052300000000 1.7428685600000000 Hf
atom 9.1877798800000008 7.9188964200000003 6.9711109499999999 Hf
atom 3.9479728700000001 4.8918636700000002 3.9476670100000000 Hf
atom 4.3702600399999998 4.9144246400000000 9.2019157800000002 Hf
atom 3.9333993000000000 10.0259984600000003 3.8977755300000001 Hf
atom 4.3837154299999996 10.0945985399999998 9.1811170999999998 Hf
atom 8.9912704899999998 4.9178376999999998 4.3702875600000004 Hf
atom 9.4963476300000007 4.9391656099999999 9.6845338299999995 La
atom 8.9903098600000000 10.0192894199999998 4.3606713900000003 Hf
atom 9.4419714900000002 10.0479979900000007 9.5898693000000002 Hf
atom 0.6471529600000000 1.4335704400000000 0.9287978600000000 O
atom 0.8628833900000000 1.6239865600000001 5.9401419000000004 O
atom 0.3865581800000000 6.8077490000000003 0.7685902700000000 O
atom 0.8387488700000000 6.8183759300000002 6.0367688399999997 O
atom 5.4325132199999997 1.6790249200000000 1.2398020599999999 O
atom 5.8884102900000004 1.7114170600000000 6.4604907699999998 O
atom 5.3484200199999998 6.8351780099999999 1.2035212000000000 O
atom 5.8819914100000004 6.8663758699999997 6.3905223099999997 O
atom 0.6708134600000000 0.7151940900000000 3.3769302500000000 O
atom 1.0750494900000001 0.8083174500000000 8.6410740900000000 O
atom 0.6386157000000000 5.9366299600000003 3.4339253200000002 O
atom 1.2858414000000000 6.0410123899999997 8.5866847699999997 O
atom 5.6376112999999997 0.8974223400000000 3.8326236599999999 O
atom 6.1504247400000001 0.8209770700000000 9.1021306200000005 O
atom 5.6706031100000001 5.9839417600000004 3.8272435100000002 O
atom 6.1127757999999996 5.9653854300000004 9.0543575700000005 O
atom 4.8253928799999999 4.2526236600000002 2.1654552100000002 O
atom 5.2856267199999998 4.2470749100000003 7.3993351699999996 O
atom 4.8585560000000001 9.3793394800000005 2.1449761700000001 O
atom 5.2886353499999998 9.4151976899999994 7.3516300200000000 O
atom 9.9001502800000001 4.2921398499999999 2.5301667200000000 O
atom 10.3852330800000008 4.2371258300000001 7.6271768000000000 O
atom 9.9914449100000002 9.4038939399999997 2.5414791800000001 O
atom 10.2883590799999993 9.4246406999999994 7.7398682399999998 O
atom 5.0889341799999999 3.4530510900000002 4.7898325399999999 O
atom 5.5708111699999998 3.5000729100000001 10.0397654099999993 O
atom 5.0476570299999999 8.5582046999999992 4.7204574199999998 O
atom 5.3620270699999999 8.5318082400000002 9.9887274999999995 O
atom 10.0671320200000007 3.3220875900000002 5.0294033599999999 O
atom 10.6097111500000008 3.1898758900000002 10.5689299200000004 O
atom 10.0698211600000000 8.5185631599999994 5.1376995699999997 O
atom 10.5046787500000001 8.5449612599999991 10.3805804500000001 O
atom 2.8185042899999999 1.1677358499999999 2.5047950200000000 O
atom 3.4045384200000002 1.2774871299999999 7.8419075899999999 O
atom 2.9666505800000000 6.4703704599999998 2.7005766599999999 O
atom 3.5548219599999999 6.4511983099999997 7.8920647500000003 O
atom 8.0419251200000001 1.2894413000000000 3.1627779199999999 O
atom 8.4489338200000006 1.5126677700000000 8.3923887399999995 O
atom 8.0463519500000000 6.4524040999999999 3.1101901500000002 O
atom 8.3380950100000000 6.5467183999999996 8.2744860100000004 O
atom 3.2202291900000000 1.2557704300000001 5.2269115199999998 O
atom 3.8786227599999998 1.4483702199999999 10.3290312199999992 O
atom 3.2109966000000001 6.3652844200000001 5.2981214000000003 O
atom 3.6042573600000001 6.4300376799999999 10.5462320900000002 O
atom 8.2587430000000008 1.2202112800000000 5.7482148000000004 O
atom 8.6971906800000003 1.2008673400000001 11.0307784800000004 O
atom 8.2344950000000008 6.3768558100000003 5.6888244099999996 O
atom 8.5236062799999992 6.4929308099999998 11.0640544799999994 O
atom 2.2836296900000002 3.9465274799999999 0.2456401000000000 O
atom 2.7017196700000001 3.8568171499999999 5.4351340300000004 O
atom 2.2008012799999999 9.3567767899999996 0.4269375400000000 O
atom 2.6923479499999998 8.9972418199999993 5.4560764900000001 O
atom 7.3007720400000000 3.7907212100000001 0.8131781100000000 O
atom 7.7671793100000004 3.8876078500000002 5.9943882799999999 O
atom 7.2964568600000002 9.0558031400000001 0.6463578900000000 O
atom 7.7213797700000004 9.0113571300000004 5.8761241699999998 O
atom 2.4869777399999999 3.7587794099999998 2.8480844500000000 O
atom 2.9255406599999998 3.7707534200000001 8.0950739400000007 O
atom 2.3604306400000001 8.9697794399999999 2.8411637100000000 O
atom 2.9194925899999999 8.9334430099999995 8.1053175000000000 O
atom 7.5531070299999996 3.7960105999999998 3.3420253799999999 O
atom 7.5681011299999996 8.9413280799999999 3.2485654400000001 O
atom 7.9519507100000002 9.0025374199999995 8.5166559199999998 O
