lattice_vector 10.1076430100000003 0.0072657100000000 0.8272626000000000 
lattice_vector 0.0399627400000000 10.2656709700000004 0.0232913200000000 
lattice_vector 0.8599568900000000 0.0163869800000000 10.4254481600000002 
atom 1.3496126900000001 0.1517486900000000 1.8267248899999999 Si
atom 1.9134413299999999 0.2104704600000000 6.8047361100000003 Hf
atom 1.5139196900000000 5.3315353999999999 1.6476299599999999 Hf
atom 1.9963637400000001 5.3407555799999997 6.8292525800000003 Hf
atom 6.6000093499999997 0.2593652800000000 2.0657886699999999 Hf
atom 6.9949754600000000 0.2052321400000000 7.2980877299999998 Hf
atom 6.6243599099999999 5.3173298100000004 2.0522331199999999 Hf
atom 7.0152646799999996 5.3752645200000000 7.2797339499999998 Hf
atom 1.7060040000000001 2.3266075499999999 4.1624537000000004 Hf
atom 2.2211019099999998 2.3173175600000002 9.4698843600000000 Hf
atom 1.7308344800000000 7.4858584300000004 4.2675252099999996 Hf
atom 2.1406726500000000 7.4652753699999996 9.4095698500000005 Hf
atom 6.8073805900000002 2.3595962400000001 4.6835811400000003 Hf
atom 7.2406081200000001 2.3714341999999999 9.9069028699999997 Hf
atom 6.7930982999999996 7.4926819699999996 4.6572585599999998 Hf
atom 7.4619036100000002 7.4053586600000001 9.8767884400000003 Hf
atom 3.7322310600000002 2.7739811900000002 1.3687741499999999 Hf
atom 4.1759960500000002 2.8074148000000001 6.5763499200000002 Hf
atom 3.7154587399999999 7.9421926100000002 1.3989994800000001 La
atom 4.1949533700000003 7.9365793699999996 6.6371170399999997 Hf
atom 8.9021237400000004 2.7101060600000002 1.8512376399999999 Hf
atom 9.2279420600000002 2.7844370000000001 7.0205823000000001 Hf
atom 8.8717127300000005 7.9569956499999996 1.8484876800000001 Hf
atom 9.2393049499999993 7.9168415100000002 7.0277854099999999 Hf
atom 3.9642920500000001 4.9209663199999998 3.9949578300000002 Hf
atom 4.4081929000000004 4.9266203099999997 9.2047391100000002 Hf
atom 3.9636505799999999 10.0863247200000004 3.9774825800000002 Hf
atom 4.3394443799999998 10.2201479200000005 9.2196551200000005 Hf
atom 8.9995039800000001 4.9290816000000000 4.4273707599999996 Hf
atom 9.5149969100000007 4.8442106699999998 9.6466169799999992 Hf
atom 9.0184403300000007 10.0533238199999992 4.4580957300000001 Hf
atom 9.4837134200000008 10.0811256700000005 9.6443201100000007 Hf
atom 0.6040394400000000 1.5288358500000001 0.9151376500000000 O
atom 0.8126463100000000 1.6623122299999999 5.9739922999999999 O
atom 0.4911696300000000 6.9097110099999997 0.8868869700000001 O
atom 0.8565667500000000 6.8314295999999999 6.0762406000000002 O
atom 5.5280908899999996 1.7915883399999999 1.3011946999999999 O
atom 5.8983964300000000 1.7160595100000000 6.5240581799999999 O
atom 5.6892155100000004 6.8396613700000000 1.1652844200000001 O
atom 5.9093280400000001 6.8527750999999997 6.4505054800000003 O
atom 0.6198118700000000 0.8090974700000000 3.3519219400000000 O
atom 1.0570970000000000 0.8732994700000000 8.6299794399999996 O
atom 0.5749189800000000 6.0033616600000004 3.4704779399999999 O
atom 1.1002170000000000 5.9663548400000002 8.6564458799999997 O
atom 5.6814011400000002 0.9062854900000000 3.8993059500000000 O
atom 6.1795653000000001 0.7509599600000000 9.1867239299999994 O
atom 5.6912192900000003 6.0147397900000001 3.8403612400000000 O
atom 6.1105906100000000 6.1367387799999999 9.0495114200000000 O
atom 4.8523973099999997 4.3220677399999996 2.1794330099999999 O
atom 5.3027498900000003 4.2943638899999996 7.3945179200000002 O
atom 4.9251728600000000 9.5802200400000004 2.2331834399999999 O
atom 5.3153181299999996 9.3948591799999992 7.4984359899999999 O
atom 9.9266448300000008 4.2573986699999997 2.6198145899999998 O
atom 10.3961694999999992 4.2176597999999998 7.8385502400000000 O
atom 10.0269322200000008 9.4580200399999992 2.6293711399999999 O
atom 10.3502056099999997 9.4093361400000006 7.8259743500000001 O
atom 5.0961386299999996 3.4451171899999999 4.8113129800000003 O
atom 5.6147339799999996 3.5565873500000000 10.0317687099999997 O
atom 5.0674080100000003 8.5817865599999994 4.7865990199999997 O
atom 10.1023381400000005 3.4072411300000001 5.1892903900000000 O
atom 10.6320563200000002 3.4018734300000002 10.5055819800000005 O
atom 10.1003230800000008 8.5486971999999994 5.2380874500000001 O
atom 10.5510215899999995 8.5568740000000005 10.4244374600000000 O
atom 2.7978298200000000 1.2112611600000001 2.5026181699999999 O
atom 3.3919591800000002 1.2906097000000001 7.8435907199999999 O
atom 2.8885905500000000 6.3640456900000002 2.8393392999999998 O
atom 3.4358609000000002 6.4557401199999997 7.9130441999999999 O
atom 8.0748696399999993 1.3196898900000000 3.1821356000000001 O
atom 8.4722977000000004 1.3303917300000001 8.3685004200000002 O
atom 8.0668961499999998 6.4668203200000001 3.1530221900000002 O
atom 8.5610847700000008 6.4078624499999997 8.3702161099999994 O
atom 3.1950661000000000 1.2872594700000000 5.2413064199999999 O
atom 3.9234403200000001 1.5923995700000000 10.2683431699999996 O
atom 3.2344484400000000 6.3890865200000002 5.3576596399999996 O
atom 3.5437945200000001 6.3384713399999999 10.4599419900000008 O
atom 8.2620772099999993 1.2411179500000000 5.7756170700000000 O
atom 8.7468764300000004 1.2626188000000000 10.9872705800000006 O
atom 8.2561222799999996 6.3877546000000001 5.7743008600000003 O
atom 8.8772813300000006 6.3524293500000004 10.9666323400000003 O
atom 2.2867419199999999 3.9158024700000000 0.3020143000000000 O
atom 2.6980505400000001 3.8887174799999999 5.4812660700000002 O
atom 2.1973376700000000 9.5790694999999992 0.4498819700000000 O
atom 2.7323877400000001 9.0246087199999998 5.5419988000000000 O
atom 7.4174009600000002 3.8490766999999999 0.7392302400000000 O
atom 7.7654927000000002 3.9019348100000002 5.9510648399999999 O
atom 7.3637429399999998 9.0240698399999992 0.7276852700000001 O
atom 7.7462651100000004 9.0278149200000009 5.9547002300000003 O
atom 2.5184648100000002 3.7602256399999998 2.8976585400000001 O
atom 2.9604933099999999 3.7954416599999998 8.1093883600000005 O
atom 2.3040346999999999 9.0859010300000005 2.9913922600000000 O
atom 2.9261400000000002 8.9534956500000007 8.1681140200000009 O
atom 7.5750341299999997 3.7864089700000001 3.3277036700000000 O
atom 8.0023526700000005 3.8225399200000001 8.5504183900000008 O
atom 7.6208010000000002 8.9632412899999991 3.3365380199999999 O
atom 8.0158177899999998 8.9226911700000002 8.5511951199999992 O
