lattice_vector 10.0966439999999995 -0.0164180000000000 -0.0159550000000000 
lattice_vector 0.0295390000000000 10.2558209999999992 0.0249190000000000 
lattice_vector -0.0116920000000000 -0.0131040000000000 10.0961770000000008 
atom 1.2906629999999999 0.0159640000000000 1.2910530000000000 La
atom 1.2320679999999999 -0.0172830000000000 6.3492340000000000 Hf
atom 1.0788920000000000 5.1425799999999997 1.0768320000000000 Hf
atom 1.2848640000000000 5.1231929999999997 6.3118239999999997 Hf
atom 6.3482219999999998 -0.0193170000000000 1.2302470000000001 Hf
atom 6.3050470000000001 -0.0495820000000000 6.3037570000000001 Hf
atom 6.3153040000000003 5.1212980000000003 1.2799929999999999 Hf
atom 6.3628439999999999 5.1297980000000001 6.3564369999999997 Hf
atom 1.1453599999999999 2.5391189999999999 3.9176000000000002 Hf
atom 1.2778929999999999 2.5442250000000000 8.8393350000000002 Hf
atom 1.2235620000000000 7.6981169999999999 3.8805540000000001 Hf
atom 1.3012950000000001 7.6850019999999999 8.8492400000000000 Hf
atom 6.3217739999999996 2.5443829999999998 3.7713410000000001 Hf
atom 6.3422510000000001 2.5246070000000000 8.8053600000000003 Hf
atom 6.3462399999999999 7.6801940000000002 3.7846820000000001 Hf
atom 6.3220349999999996 7.6618269999999997 8.8574359999999999 Hf
atom 3.9177819999999999 2.5376840000000001 1.1438510000000000 Hf
atom 3.7733979999999998 2.5442580000000001 6.3203459999999998 Hf
atom 3.8838050000000002 7.6959530000000003 1.2193099999999999 Hf
atom 3.7908569999999999 7.6810369999999999 6.3417820000000003 Hf
atom 8.8399149999999995 2.5411850000000000 1.2752450000000000 Hf
atom 8.8069880000000005 2.5219550000000002 6.3396660000000002 Hf
atom 8.8529060000000008 7.6825200000000002 1.2943300000000000 Hf
atom 8.8635289999999998 7.6620179999999998 6.3147149999999996 Hf
atom 3.7642449999999998 0.0102830000000000 3.7634089999999998 La
atom 3.8065920000000002 -0.0262630000000000 8.7992399999999993 Hf
atom 3.9939360000000002 5.1346420000000004 3.9906609999999998 Hf
atom 3.7764099999999998 5.1184469999999997 8.8516420000000000 Hf
atom 8.7994090000000007 -0.0275240000000000 3.8034599999999998 Hf
atom 8.8296340000000004 -0.0612900000000000 8.8275290000000002 Hf
atom 8.8565249999999995 5.1169500000000001 3.7705359999999999 Hf
atom 8.7994679999999992 5.1281359999999996 8.7918760000000002 Hf
atom -0.0074120000000000 1.5566329999999999 -0.0069930000000000 O
atom -0.0958340000000000 1.4580500000000001 5.1556720000000000 O
atom 0.0038920000000000 6.5964020000000003 0.0008090000000000 O
atom -0.0147350000000000 6.5776100000000000 5.0914710000000003 O
atom 5.1552569999999998 1.4553600000000000 -0.0981060000000000 O
atom 5.0680399999999999 1.5418499999999999 5.0657850000000000 O
atom 5.0946189999999998 6.5754190000000001 -0.0199100000000000 O
atom 5.0751390000000001 6.5815310000000000 5.0699030000000000 O
atom -0.0765230000000000 1.1966200000000000 2.7099959999999998 O
atom 0.0118170000000000 1.0034840000000000 7.6545230000000002 O
atom -0.0067530000000000 6.2113350000000001 2.5208420000000000 O
atom 0.0133420000000000 6.1337960000000002 7.5884859999999996 O
atom 5.1360999999999999 1.1891689999999999 2.3469199999999999 O
atom 5.0304510000000002 0.9954970000000000 7.4981650000000002 O
atom 5.0822070000000004 6.2042940000000000 2.5467100000000000 O
atom 5.0517149999999997 6.1250830000000001 7.5744769999999999 O
atom 0.1130230000000000 3.6779130000000002 2.4272360000000002 O
atom 0.0406080000000000 3.5749789999999999 7.4995229999999999 O
atom -0.0826340000000000 8.7258879999999994 2.6502900000000000 O
atom 0.0442800000000000 8.6933489999999995 7.5443379999999998 O
atom 4.9539660000000003 3.6698360000000001 2.6388620000000000 O
atom 5.0192509999999997 3.5664690000000001 7.6600050000000000 O
atom 5.1901650000000004 8.7192969999999992 2.4462449999999998 O
atom 5.0423760000000000 8.6844819999999991 7.6492920000000000 O
atom -0.1009930000000000 4.0335789999999996 -0.0991760000000000 O
atom 0.0828380000000000 4.0597640000000004 4.9852650000000001 O
atom -0.0557200000000000 9.0574119999999994 -0.0590640000000000 O
atom 0.0348120000000000 9.1785200000000007 5.0698460000000001 O
atom 4.9850230000000000 4.0579760000000000 0.0808990000000000 O
atom 5.1670569999999998 4.0193659999999998 5.1657719999999996 O
atom 5.0735789999999996 9.1759249999999994 0.0296390000000000 O
atom 5.1649479999999999 9.0404289999999996 5.1593809999999998 O
atom 2.5308530000000000 1.9477040000000001 2.5302630000000002 O
atom 2.5230070000000002 1.5034790000000000 7.5780510000000003 O
atom 2.5386549999999999 6.4781680000000001 2.5358950000000000 O
atom 2.5354969999999999 6.6169620000000000 7.5861780000000003 O
atom 7.5786949999999997 1.5018009999999999 2.5227670000000000 O
atom 7.5710670000000002 1.4670470000000000 7.5703180000000003 O
atom 7.5890940000000002 6.6152730000000002 2.5287690000000000 O
atom 7.5829620000000002 6.6160500000000004 7.5763619999999996 O
atom 2.7097950000000002 1.1954780000000000 -0.0768680000000000 O
atom 2.3492139999999999 1.1900809999999999 5.1357220000000003 O
atom 2.5238049999999999 6.2099460000000004 -0.0089900000000000 O
atom 2.5515059999999998 6.2056079999999998 5.0793889999999999 O
atom 7.6552389999999999 1.0008330000000001 0.0119210000000000 O
atom 7.5015520000000002 0.9950540000000000 5.0305640000000000 O
atom 7.5916899999999998 6.1307970000000003 0.0075290000000000 O
atom 7.5797509999999999 6.1251600000000002 5.0454249999999998 O
atom 2.4262480000000002 3.6766930000000002 0.1119050000000000 O
atom 2.6405759999999998 3.6709529999999999 4.9523089999999996 O
atom 2.6536689999999998 8.7247669999999999 -0.0868900000000000 O
atom 2.4517240000000000 8.7203909999999993 5.1857870000000004 O
atom 7.4977559999999999 3.5716470000000000 0.0401490000000000 O
atom 7.6611240000000000 3.5663710000000002 5.0179549999999997 O
atom 7.5481769999999999 8.6909690000000008 0.0364590000000000 O
atom 7.6550320000000003 8.6839549999999992 5.0343090000000004 O
atom 2.5359280000000002 5.0049400000000004 2.5340829999999999 O
atom 2.5311770000000000 4.0635579999999996 7.5797610000000004 O
atom 2.5551029999999999 8.6831049999999994 2.5505059999999999 O
atom 2.5445739999999999 9.2000170000000008 7.5997690000000002 O
atom 7.5819250000000000 4.0620260000000004 2.5286830000000000 O
atom 7.5786930000000003 4.0302780000000000 7.5764459999999998 O
atom 7.6048640000000001 9.1983350000000002 2.5365229999999999 O
atom 7.5948240000000000 9.1618399999999998 7.5863149999999999 O
