lattice_vector 10.2502138400000007 -0.0255874100000000 0.7975222700000000 
lattice_vector 0.0125783400000000 5.2134747700000004 -0.0202531500000000 
lattice_vector 0.7846041700000000 0.0375794500000000 10.4415837499999995 
atom 1.4336019799999999 0.1066741700000000 1.5471184700000000 La
atom 1.8893513600000000 0.1723419200000000 6.8569436399999999 Hf
atom 6.6420398699999996 0.1881271600000000 2.0296287500000001 Hf
atom 7.1237440300000001 0.1866606200000000 7.2834293900000002 Hf
atom 1.7596487800000000 2.3623959499999998 4.2588473300000000 Hf
atom 2.0986494300000000 2.4500840500000001 9.4469750200000000 Hf
atom 6.9053742099999997 2.3749977699999998 4.5808685000000002 Hf
atom 7.2801416100000003 2.4074341000000001 9.8370151799999999 Hf
atom 3.8324593800000000 2.7526840799999999 1.3607088899999999 Hf
atom 4.2879492099999998 2.7259205299999998 6.6708667799999999 La
atom 8.8482903000000004 2.7675716900000000 1.7300812699999999 Hf
atom 9.3302711400000007 2.8063613500000000 6.9844651799999999 Hf
atom 3.9719771900000000 4.9621607499999998 3.9414773599999999 Hf
atom 4.4177566500000003 5.0495620199999998 9.1945560700000009 Hf
atom 9.0763881800000004 4.9752981600000004 4.4167123799999999 Hf
atom 9.4860146899999993 5.0072211099999997 9.6015460299999997 Hf
atom 0.4726158200000000 2.1178778199999999 0.9173465300000000 O
atom 0.8434788400000000 1.8254136100000000 6.1638159400000001 O
atom 5.6120981199999997 1.7837780700000001 1.2694947800000000 O
atom 6.3583563099999996 1.9023285400000001 6.5232844900000000 O
atom 0.5328370000000000 0.8564564000000000 3.6155047800000002 O
atom 0.9507870400000000 0.8462003500000000 8.8017017099999997 O
atom 5.7508830399999997 0.8277603000000000 3.8959928300000000 O
atom 6.2161093899999997 0.8276004800000000 9.1512266899999997 O
atom 4.8858008899999996 4.4052371299999997 2.0401500200000000 O
atom 5.2573831799999997 4.7363036100000002 7.2837695199999999 O
atom 9.6204432600000001 4.4847404199999996 2.4781380700000000 O
atom 10.3671245899999995 4.4020353099999996 7.7320608499999999 O
atom 5.1918497099999996 3.4535817099999999 4.5960419200000002 O
atom 5.5581733499999997 3.4432342100000000 9.8502246800000002 O
atom 10.2240300600000005 3.4272062399999998 5.1132829700000002 O
atom 10.5439672000000009 3.4281139899999999 10.3000326999999992 O
atom 3.0822237200000000 1.3359457900000000 2.7875247399999998 O
atom 3.2221705900000002 1.2477620000000000 8.0670024999999992 O
atom 8.1072018799999999 1.3572683000000001 3.1312142399999998 O
atom 8.5653151899999997 1.3539005200000001 8.3606429599999998 O
atom 3.0983878200000001 1.1341780900000000 5.3187158999999999 O
atom 3.6934493900000001 1.3261778500000001 10.5014115700000001 O
atom 8.4331864000000003 1.2640530000000001 5.7225152599999998 O
atom 8.7145094099999998 1.2544115300000001 10.9727146799999993 O
atom 2.5051488300000000 3.8259864800000001 0.1423081000000000 O
atom 2.6452230999999999 3.9544710799999998 5.4208449700000001 O
atom 7.4120190099999999 3.9345363700000000 0.6446752400000000 O
atom 7.8705706700000002 3.9741977600000000 5.8742083100000002 O
atom 2.6276135400000000 3.7323863700000000 2.8909925799999998 O
atom 2.8175196100000002 3.9273093900000000 8.1489935700000000 O
atom 7.5424361299999996 3.8648178299999998 3.2837045699999998 O
atom 8.0464231300000009 3.8541865700000000 8.4745304299999997 O
