lattice_vector 10.1238380899999996 0.0259464300000000 0.8368200800000000 
lattice_vector 0.0100575300000000 10.2291901599999999 0.0238273800000000 
lattice_vector 0.9278774100000000 -0.0194729100000000 10.5031659499999996 
atom 1.3128553199999999 0.2356993000000000 1.7662798200000001 Si
atom 1.9804747100000000 0.1794573500000000 6.8500303100000002 Hf
atom 1.4900183800000000 5.4402039300000000 1.7558762200000000 Hf
atom 2.0096501099999999 5.2884719899999997 6.8815485299999999 Hf
atom 6.6432638800000001 0.2149270900000000 2.1050010200000000 Hf
atom 7.0510826199999999 0.2152592900000000 7.3208633299999999 Hf
atom 6.5801147999999996 5.3541017599999998 2.0608003799999999 Hf
atom 7.0997417100000000 5.3272000500000001 7.3036352899999999 Hf
atom 1.7583398699999999 2.3072764299999999 4.1803354900000000 Hf
atom 2.1902295199999999 2.2346429500000000 9.4174403600000005 Hf
atom 1.8066060600000000 7.4369730699999996 4.3464257899999996 Hf
atom 2.1355041699999999 7.4515178600000000 9.5022295099999994 Hf
atom 6.8372403100000003 2.3256902099999999 4.6894692600000001 Hf
atom 7.3549736000000001 2.3298259400000001 9.9818071800000006 Hf
atom 6.8236917699999999 7.4428973100000002 4.7184675699999996 Hf
atom 7.2603189099999996 7.4969504000000002 9.9992593099999993 Hf
atom 3.8319796899999998 2.6777239000000002 1.4338191300000001 Hf
atom 4.2176041599999996 2.7737961100000001 6.6034522600000001 Hf
atom 3.6842613700000002 8.0113690900000005 1.4666144800000001 Hf
atom 4.2515036000000004 7.9117393199999997 6.7191094099999997 Hf
atom 8.9028100400000003 2.7544123100000002 1.8527583400000001 Hf
atom 9.3020240199999993 2.7662062800000000 7.0650282600000001 Hf
atom 8.8227904400000003 7.9364928600000004 1.8571409600000000 Hf
atom 9.2843752700000000 7.8709851700000000 7.1065412300000004 Hf
atom 3.9953358200000002 4.8812761800000004 4.0111294500000003 Hf
atom 4.4637215200000000 4.9419422500000003 9.3768082199999991 La
atom 3.9922327800000001 9.9778293799999993 4.0256502999999997 Hf
atom 4.4472242599999996 10.1380992800000005 9.3578966399999999 Hf
atom 9.0288670700000004 4.8813828900000003 4.4496855899999996 Hf
atom 9.5120013399999994 4.8966542000000004 9.7208883799999999 Hf
atom 9.0654333499999993 9.9934910899999991 4.5022013100000002 Hf
atom 9.4837396100000007 10.0083749999999991 9.7024851800000000 Hf
atom 0.5742308500000000 1.5014099400000001 0.8379151800000000 O
atom 0.8476220700000000 1.5889827700000001 5.9685215700000001 O
atom 0.2774765100000000 6.7327877899999997 0.8152162300000000 O
atom 0.8583696100000000 6.7346085699999998 6.0873460799999997 O
atom 5.5093682499999996 1.5977974900000000 1.2663625599999999 O
atom 5.9192354800000002 1.6307421400000000 6.4546786300000001 O
atom 5.3796110700000002 6.7813971700000000 1.2304273600000000 O
atom 5.9305114300000001 6.7765431400000002 6.4815035800000000 O
atom 0.6458851900000000 0.8190755199999999 3.3129038300000002 O
atom 1.0489072800000001 0.8613109000000000 8.6169872600000001 O
atom 0.6083490200000000 6.0182796700000001 3.4802132299999999 O
atom 1.1090081199999999 5.9448259800000001 8.7279631999999996 O
atom 5.6799504799999996 0.9045556400000000 3.8430495599999999 O
atom 6.2143913599999996 0.8898418100000000 9.1244449500000009 O
atom 5.7036985199999997 5.9982643400000004 3.8713073200000001 O
atom 6.2860937000000003 6.1309980199999998 8.9984100199999997 O
atom 4.9193229199999999 4.2131392400000003 2.2580703799999999 O
atom 5.4313296600000003 4.1648028999999998 7.3707629199999998 O
atom 4.9607796500000001 9.3096083299999997 2.3064021100000001 O
atom 5.3574623199999998 9.3531363600000006 7.5615207699999996 O
atom 10.0309120800000002 4.1935844800000002 2.6927238999999998 O
atom 10.4228184200000005 4.1938329699999999 7.9258426200000001 O
atom 10.0710300099999994 9.3967168799999996 2.6693448300000000 O
atom 10.4322274000000004 9.2917280000000009 7.9513457399999998 O
atom 5.1271827099999996 3.4151834299999999 4.8151441699999999 O
atom 5.7716584099999997 3.4320742700000002 10.2947784900000006 O
atom 5.1389832100000001 8.5787792599999992 4.9002125400000001 O
atom 5.4855978700000003 8.5979726500000009 10.1761367800000002 O
atom 10.1980597799999995 3.4384819900000001 5.2586088200000001 O
atom 10.7235762799999996 3.4507363199999999 10.6049712199999995 O
atom 10.2100972599999995 8.5739720399999992 5.3267170799999999 O
atom 10.6165258999999992 8.5919244300000006 10.5720751100000001 O
atom 2.8037100300000000 1.1473912600000000 2.4952332500000001 O
atom 3.4502444500000000 1.2444073200000001 7.8691406400000004 O
atom 3.0122744199999998 6.4256427900000004 2.8053200800000000 O
atom 3.3443485599999998 6.5219321499999996 7.9450164299999999 O
atom 8.1069465600000008 1.3071657200000000 3.1856971500000002 O
atom 8.5667700999999994 1.3010430500000001 8.3985272799999997 O
atom 8.0666463999999998 6.4323298900000001 3.1773454000000001 O
atom 8.6425257999999996 6.4084086500000002 8.4337166700000008 O
atom 3.2249110999999999 1.2424201300000000 5.2418476600000004 O
atom 3.8922444399999998 1.6804097600000001 10.3244796300000008 O
atom 3.2707556200000001 6.3297630800000002 5.3932478300000000 O
atom 3.5247006999999999 6.5973638100000001 10.7763363800000000 O
atom 8.3189457499999993 1.2260477200000000 5.7868870000000001 O
atom 8.8405709300000002 1.2365104300000000 11.0714690000000004 O
atom 8.3096569599999999 6.3450076900000001 5.7970953300000003 O
atom 8.7299828200000000 6.3804259500000002 11.0600171799999991 O
atom 2.7295428700000000 3.8496792300000000 5.4772143800000004 O
atom 2.2662798099999999 9.5190892999999992 0.6108366400000000 O
atom 2.7696610700000002 8.9506253400000002 5.6232477100000002 O
atom 7.4381219700000001 3.8730401099999998 0.7663216600000000 O
atom 7.8413509899999996 3.8452280499999998 5.9573339199999999 O
atom 7.3340665899999999 9.0164131100000002 0.7595266899999999 O
atom 7.8074722899999998 8.9664093200000003 6.0111074000000002 O
atom 2.5359604899999999 3.7500614400000001 2.8483005200000000 O
atom 2.8884992500000002 3.6993330100000001 8.0843346799999996 O
atom 2.5133129799999998 8.8785511699999997 3.0349403499999998 O
atom 2.9803718799999999 8.9621372800000003 8.3214775099999994 O
atom 7.6126366100000000 3.7881800499999998 3.3375306299999998 O
atom 8.0547022899999998 3.7951851900000002 8.6152044700000001 O
atom 7.6502981200000004 8.9213276300000004 3.3936035900000001 O
atom 8.0284944700000000 8.9119875099999994 8.6326011999999999 O
