lattice_vector 10.0827232799999997 -0.0267011600000000 -0.0827473600000000 
lattice_vector 0.0033761000000000 10.2848686699999998 -0.0353716100000000 
lattice_vector -0.0462677400000000 -0.0278125000000000 5.2537334700000002 
atom 1.1882747499999999 -0.0013496900000000 1.5497148000000001 La
atom 1.3569876900000000 5.3351171500000003 1.7306162899999999 Hf
atom 1.3276690400000000 2.3548480000000001 4.3257128399999996 Hf
atom 1.3547170100000001 7.4832958200000004 4.4009431699999997 Hf
atom 3.5744621599999999 2.7269923399999998 1.7128874199999999 Hf
atom 3.6074071999999999 7.7806706600000002 1.8014671400000000 Hf
atom 3.5972320400000002 4.8453534600000001 4.3652507800000002 Hf
atom 3.6167940600000001 10.1376982699999996 4.1910060700000002 Hf
atom 6.5092770499999997 0.2491326600000000 0.7944952500000000 Hf
atom 6.4111981800000004 5.3189878600000000 0.7250083800000000 Hf
atom 6.4029534600000000 2.3215363400000002 3.3780902400000001 Hf
atom 6.4007682499999996 7.4703582099999997 3.3668571599999999 Hf
atom 8.6858310500000009 2.8313947499999998 0.7221410900000000 Hf
atom 8.6539377399999999 7.8681365799999998 0.8063229000000000 Hf
atom 8.6370057800000009 4.9247901799999996 3.3583624300000001 Hf
atom 8.6425317499999998 10.0171085299999998 3.4662114800000001 Hf
atom 0.3282547100000000 1.9250728399999999 0.8202099800000000 O
atom 0.3093519200000000 6.7892134999999998 0.7721202200000000 O
atom 0.1897983700000000 0.9127566600000000 3.5422144000000002 O
atom 0.2754132200000000 6.1057960400000004 3.4195233900000002 O
atom 4.7137908099999999 4.2066770099999999 0.7778104400000000 O
atom 4.6845985800000003 3.4076070700000001 3.3986286600000000 O
atom 4.7693732300000002 8.6726713300000000 3.3075077700000000 O
atom 2.7514126800000001 1.2783285200000001 2.9947223100000002 O
atom 2.7656818900000002 6.3406448500000003 3.0234753599999999 O
atom 2.8541241999999998 1.3543849699999999 0.2644725000000000 O
atom 2.7226778700000001 6.3693721400000003 0.3908815200000000 O
atom 2.2142743500000002 3.8243768400000002 3.0254002500000001 O
atom 2.2879790799999999 8.8474940300000000 3.0565728499999998 O
atom 2.2427263800000001 3.8722012499999998 0.4134302100000000 O
atom 2.7429391100000000 8.8824786299999996 0.3125175600000000 O
atom 5.3161105500000003 1.5710256199999999 1.7292988700000000 O
atom 5.3517093100000004 6.8145303400000001 1.6598803200000001 O
atom 5.3796812100000002 0.8093529200000000 4.3611924899999996 O
atom 5.2952025599999999 6.0186629500000004 4.3069551900000000 O
atom 9.6768449499999996 4.3301957000000000 1.6486068100000000 O
atom 9.6558271999999992 8.8177181800000000 2.2467841000000002 O
atom 9.6899216300000006 3.4870462000000000 4.2527223899999997 O
atom 9.9058182000000006 8.8986962199999997 4.8091849000000000 O
atom 7.7531913299999999 1.2725861900000000 4.7743860099999997 O
atom 7.7732307699999996 6.3807995200000001 4.7015262800000004 O
atom 7.8484017100000001 1.2672449299999999 2.1259245700000000 O
atom 7.7459665900000001 6.4093612499999999 2.0798049299999999 O
atom 7.2336713399999999 3.8323401800000001 4.6797245299999997 O
atom 7.3022827799999996 8.9219497400000005 4.7225100099999997 O
atom 7.2563889399999999 3.8344051100000001 2.0734173100000000 O
atom 7.1969096300000004 9.0279855100000006 2.0546502800000002 O
