lattice_vector 9.9711339599999995 -0.0455961400000000 0.0211983200000000 
lattice_vector -0.0036818500000000 10.4131391900000008 -0.0492322700000000 
lattice_vector 0.0613432900000000 -0.0579416100000000 9.9995541899999996 
atom 1.1397082999999999 0.3227928900000000 1.1891494300000001 Si
atom 1.3569441799999999 0.1362345300000000 6.2931902900000001 Hf
atom 1.3149070300000001 5.3384660799999999 1.1894829700000000 Hf
atom 1.4153363800000001 5.3243929699999999 6.2495023999999999 Hf
atom 6.3414111699999998 0.1691343500000000 1.2805292300000000 Hf
atom 6.2225872700000000 0.1323091200000000 6.1418578500000001 Hf
atom 6.3749688500000001 5.3875208900000002 1.2409323800000001 Hf
atom 6.3534439200000001 5.2955641499999997 6.1758292600000004 Hf
atom 1.3400338800000000 2.3328688600000000 3.6730404800000001 Hf
atom 1.3984658800000001 2.4477794500000001 8.7871238300000005 Hf
atom 1.3693537700000000 7.5342966999999996 3.7421734199999999 Hf
atom 1.3990801600000000 7.6217092500000003 8.7807329799999998 Hf
atom 6.3527582200000001 2.4044329300000000 3.7484816400000001 Hf
atom 6.3652408100000004 2.3311619000000001 8.7072359000000006 Hf
atom 6.3497459599999999 7.6009344399999996 3.7563425300000000 Hf
atom 6.2879072400000000 7.7627629599999999 8.6468591600000000 La
atom 3.7455099299999999 2.7825831900000000 1.1623779700000001 Hf
atom 3.6617861500000002 2.7368309599999998 6.2275193499999997 Hf
atom 3.6575601600000001 7.9104966399999999 1.2826864099999999 Hf
atom 3.6597113900000000 7.9703359100000002 6.2464562900000002 Hf
atom 8.6294358800000008 2.7517464399999998 1.2322091200000000 Hf
atom 8.7083544199999992 2.6690524099999999 6.2160925899999997 Hf
atom 8.7220963999999999 7.9711829500000002 1.2066095100000001 Hf
atom 8.7993594799999997 7.8089740399999998 6.1580786800000000 Hf
atom 3.6884965400000000 4.9520261100000003 3.7124649500000002 Hf
atom 3.7221836599999998 5.0174254200000004 8.7288602300000004 Hf
atom 3.5991913800000002 10.1582843100000009 3.6581004799999999 Hf
atom 3.5642149900000000 10.2525680799999996 8.8795664700000003 Hf
atom 8.6548827100000008 4.9813349499999999 3.7361016399999998 Hf
atom 8.6678829600000000 4.9754123400000001 8.7230487500000002 Hf
atom 8.6866523400000002 10.1957193900000007 3.7256164900000002 Hf
atom 8.8098208800000002 10.2696091400000000 8.7113981900000006 Hf
atom 0.3541940800000000 1.8453803799999999 1.8439163599999999 O
atom 0.2591335400000000 1.7657377299999999 7.1485328299999997 O
atom 0.3771442000000000 7.0967280900000000 1.9138852500000001 O
atom 0.4889859000000000 7.0892997400000004 6.9292885699999998 O
atom 5.3131644600000003 1.8745482499999999 1.9949646599999999 O
atom 5.3312945200000001 1.8488625900000000 6.9170309699999999 O
atom 5.3774262999999998 7.1220942999999997 1.9460155800000001 O
atom 5.3562134099999996 6.9997938000000000 6.6497034900000003 O
atom 0.3175376400000000 0.7017968800000000 4.5767742499999997 O
atom 0.4367879300000000 0.6761920700000000 9.6428701599999993 O
atom 0.3482136100000000 5.8502999300000003 4.4998626100000001 O
atom 0.4202149700000000 5.8567354399999996 9.3778055299999998 O
atom 5.3325398499999999 0.6669296100000000 4.3976014399999999 O
atom 5.3430131000000003 0.6364130000000000 9.5317359300000000 O
atom 5.4177962900000001 5.8027481400000003 4.3079309700000001 O
atom 5.3356669999999999 5.8115954299999997 9.5206604099999996 O
atom 4.6763756599999997 4.4851924199999997 1.9062152299999999 O
atom 4.6728324800000003 4.4507061500000002 6.9311803300000001 O
atom 4.7035766700000003 9.6790552299999995 1.9368834500000001 O
atom 4.7950075800000000 9.5640248999999997 7.1235302699999998 O
atom 9.6577932400000002 4.4277513500000003 1.9884060699999999 O
atom 9.6998633900000009 4.3855707900000001 6.9202918100000002 O
atom 9.8702359099999999 9.7484052699999992 1.9046313600000000 O
atom 9.6126839200000003 9.5891412299999992 6.9129480699999997 O
atom 4.6776469799999996 3.2492253199999999 4.4649565700000000 O
atom 4.6862512399999998 3.2255665300000000 9.3775030499999996 O
atom 4.7064552600000003 8.5346768500000003 4.5102881600000000 O
atom 4.3149449200000003 8.4822494899999992 9.4648508899999992 O
atom 9.6487732699999995 3.1871445800000000 4.4191200500000001 O
atom 9.7002795600000002 3.2672268400000002 9.4883386499999993 O
atom 9.6587007099999997 8.4378775099999999 4.3619887999999998 O
atom 9.6704791900000000 8.4383104099999997 9.3769927899999992 O
atom 2.3413888599999999 0.8056569200000000 2.4223119899999999 O
atom 2.7124374900000001 1.1976024999999999 7.4954771999999998 O
atom 2.6510724899999998 6.2227729500000004 2.4702630600000002 O
atom 2.7841654700000000 6.4158458300000003 7.4968435800000002 O
atom 7.7162607699999999 1.1820080300000000 2.4871543599999999 O
atom 7.5932175700000002 0.9578409300000000 7.4792266300000003 O
atom 7.7286846899999997 6.4006080699999996 2.4864496100000002 O
atom 7.7789740399999996 6.2999983600000000 7.3761764000000003 O
atom 2.7133766399999999 1.3347575700000001 4.9389921100000000 O
atom 2.6850877099999999 1.4171087300000000 10.0365176900000002 O
atom 2.7666516200000002 6.5253330600000004 4.9744976400000001 O
atom 2.6906500000000002 6.5631966799999999 10.0090829699999997 O
atom 7.6799767000000001 1.3267086900000000 4.9744928100000001 O
atom 7.7341777100000000 1.3828556400000001 9.9535661500000003 O
atom 7.7065329599999997 6.5226936000000002 4.9332865699999999 O
atom 7.8495717699999998 6.4734437600000003 10.0186196100000000 O
atom 2.3043753499999999 3.9244147699999998 4.9549789000000004 O
atom 2.3913326600000002 3.9769965200000001 9.9578731900000008 O
atom 2.2969387800000001 9.1471510200000008 5.0538388599999999 O
atom 2.1480437299999999 9.4007065399999998 10.2889721099999996 O
atom 7.3366971599999999 3.9128975600000002 4.9634444599999998 O
atom 7.3175712500000003 3.9160353600000000 9.9554185999999998 O
atom 7.3630693400000000 9.1247952399999992 5.0720998799999997 O
atom 7.4926784299999998 9.2967524800000003 9.9815786299999996 O
atom 2.3792080800000002 3.6327826600000002 2.4500893100000001 O
atom 2.3186658499999999 3.7794604199999999 7.4713729899999999 O
atom 2.5355177900000001 8.7116957399999997 2.6793746999999999 O
atom 2.3032008600000000 9.0620857600000004 7.5745941300000004 O
atom 7.2870971899999999 3.7861328300000001 2.4675919400000002 O
atom 7.3581584700000002 3.6729685200000000 7.4542953399999998 O
atom 7.3853249300000003 8.9939529399999998 2.4829587900000001 O
