lattice_vector 10.1734882700000000 0.0087872000000000 0.6654806800000000 
lattice_vector 0.0183398300000000 10.2101441499999996 0.0422219900000000 
lattice_vector 0.9213338500000000 -0.0216476500000000 10.5465751700000006 
atom 1.2177199100000000 0.2435100600000000 1.7598480299999999 Si
atom 2.0053081499999998 0.1935278900000000 6.8674458100000004 Hf
atom 1.5233227199999999 5.3103580499999996 1.6907116900000001 Hf
atom 2.0272385100000001 5.2572611299999998 6.9233457600000001 Hf
atom 6.6307906399999998 0.1926757000000000 1.9465929300000000 Hf
atom 7.0835944399999997 0.2090545900000000 7.1900511800000002 Hf
atom 6.6009709799999996 5.3638696699999997 1.9683555600000000 Hf
atom 7.1346850499999999 5.3032349099999996 7.2308770700000000 Hf
atom 1.6745783800000000 2.2890150600000001 4.2411414900000004 Hf
atom 2.2446880600000001 2.3397953199999999 9.4959389400000003 Hf
atom 1.7644143100000000 7.3737741300000001 4.3421377799999998 Hf
atom 2.1864644000000002 7.4083167899999998 9.5566981299999991 Hf
atom 6.8136857800000001 2.3305484999999999 4.5453886499999996 Hf
atom 7.6747966300000003 2.1797090600000000 9.7958283500000007 Hf
atom 6.8525236700000001 7.4347151900000004 4.6485897400000002 Hf
atom 7.2867568599999997 7.5250311300000003 9.9686076799999999 Hf
atom 3.7936657899999999 2.4890544900000000 1.5611508000000001 La
atom 4.2498989900000002 2.7540950300000002 6.5698076399999996 Hf
atom 3.6846949499999999 7.9945828399999996 1.4584202300000000 Hf
atom 4.2703258699999997 7.8744326999999998 6.7112393800000003 Hf
atom 8.9300444300000006 2.7381632200000001 1.7190276000000000 Hf
atom 9.3429913399999993 2.7744377400000002 6.9222467099999996 Hf
atom 8.9005303700000002 7.8711080600000001 1.7474815299999999 Hf
atom 9.3518834099999992 7.8313303799999998 7.0035270199999999 Hf
atom 3.9884171899999998 4.9265155299999996 3.9900943299999998 Hf
atom 4.5398152200000004 4.8895043200000003 9.4148726400000005 La
atom 3.9893474100000001 9.9516028799999994 4.0436250899999999 Hf
atom 4.5131505599999997 10.1079529299999997 9.2778764299999992 Hf
atom 9.0577107699999999 4.8891121200000001 4.3216337400000002 Hf
atom 9.5615993800000005 4.8991731400000003 9.6189527399999992 Hf
atom 9.0755479999999995 9.9690167200000008 4.3994906599999997 Hf
atom 9.6735243200000003 9.9173285300000007 9.5987773500000007 Hf
atom 0.5819586700000000 1.5024922500000000 0.8227939000000000 O
atom 0.7998126700000000 1.5525747200000000 5.9967063400000002 O
atom 0.3219425400000000 6.6910305799999996 0.8192821000000000 O
atom 0.8647903400000000 6.6942409700000001 6.1178261899999997 O
atom 5.7270060799999998 1.5692519899999999 0.8483082300000000 O
atom 5.8854511599999997 1.5176324999999999 6.2343195800000002 O
atom 5.4554401300000004 6.8538378000000000 1.1728244100000000 O
atom 5.9403714599999997 6.7130090999999998 6.4318910999999996 O
atom 0.4157634700000000 0.9785244700000000 3.2803258899999999 O
atom 1.1324649899999999 0.8773887100000000 8.6559871600000005 O
atom 0.5733935300000000 6.0125917800000002 3.4714469900000000 O
atom 1.1215082000000001 5.9391503700000001 8.7645226300000001 O
atom 5.5207080499999996 1.1061569700000000 3.5315553000000000 O
atom 6.2554295299999998 1.0411137600000000 8.9060063700000001 O
atom 5.7304854299999999 6.0240317299999999 3.7965886800000002 O
atom 6.3959959900000003 6.0450181699999996 9.0212197599999993 O
atom 4.8748945199999998 4.3937354900000001 2.0870709900000000 O
atom 5.5300978199999999 4.0344340399999998 7.4576560199999999 O
atom 4.9652245400000004 9.3240181199999999 2.2760437100000002 O
atom 5.4461168200000003 9.2788205799999997 7.5493084000000001 O
atom 10.0098595800000005 4.1528776000000001 2.5851817600000002 O
atom 10.4808974700000004 4.1523877300000001 7.8337529000000004 O
atom 10.1207150299999995 9.3355222700000002 2.5865183799999998 O
atom 10.5591462299999996 9.1949219499999995 7.8698610899999997 O
atom 5.1512416300000003 3.4779538500000000 4.7732386900000003 O
atom 5.2140995099999996 8.6204738400000007 4.9196672899999996 O
atom 5.5546527799999996 8.6473981599999998 10.1963643299999998 O
atom 10.2205555799999992 3.4786193200000000 5.1912212499999999 O
atom 10.6758283800000005 3.4069959299999999 10.4890231000000007 O
atom 10.2717398400000004 8.5830477900000002 5.2241234700000003 O
atom 10.7345545500000004 8.5414752600000003 10.5273699500000006 O
atom 2.5902945200000000 0.9428537600000000 2.6749545600000002 O
atom 3.5040331199999999 1.2326392500000001 7.7883155600000000 O
atom 2.9973230300000000 6.3683192899999996 2.7498426299999998 O
atom 3.4270854200000000 6.4392815099999998 7.9919065600000003 O
atom 8.0378601199999995 1.2902133300000000 3.0214004600000002 O
atom 8.6913587299999993 1.2325931400000001 8.2523891900000006 O
atom 8.1044875500000000 6.4277401100000002 3.0728724100000000 O
atom 8.7009195600000009 6.3547005199999997 8.2978896500000001 O
atom 3.2050651600000002 1.2554282600000000 5.2259918900000004 O
atom 3.9879273700000000 1.5983138900000000 10.1634180900000004 O
atom 3.2811226200000001 6.3339603999999996 5.3884982600000004 O
atom 3.6119874300000001 6.5970078699999997 10.7540143500000003 O
atom 8.3032350600000004 1.2341167900000001 5.6490885899999999 O
atom 9.0477410999999996 1.1872195200000000 10.9035149699999998 O
atom 8.3341170299999998 6.3374518200000001 5.6968689499999998 O
atom 8.7768124600000004 6.3569202999999996 10.9804637700000001 O
atom 2.1232142700000001 3.9086243899999999 0.3531730800000000 O
atom 2.7659643599999999 3.8504758600000000 5.5572818000000002 O
atom 2.2533395100000000 9.4832393199999991 0.6709127800000000 O
atom 2.8074570400000001 8.9377321799999994 5.6673450200000000 O
atom 7.3729775000000002 3.8318933300000002 0.5869594400000000 O
atom 7.8408445100000002 3.8387562700000002 5.8506660400000001 O
atom 7.4402019900000003 8.9906941699999994 0.6567123300000000 O
atom 7.8665446699999997 8.9358591599999997 5.9374185500000003 O
atom 2.4490233799999999 3.7932515699999998 3.0625782500000001 O
atom 2.9538107400000002 3.7008416999999998 8.1044540000000005 O
atom 2.6349926799999999 8.7389878999999997 3.1177659900000001 O
atom 3.0482343099999998 8.9070040099999996 8.3454707599999995 O
atom 7.6059161099999999 3.7893093499999999 3.2060781000000000 O
atom 8.1041137400000007 3.7478751099999998 8.5138284199999994 O
atom 7.6685340100000001 8.8990735300000008 3.2936813300000001 O
atom 8.1184257800000008 8.8853213899999997 8.5647540699999993 O
