lattice_vector 10.1291120600000006 0.0479628300000000 -0.0843681500000000 
lattice_vector 0.0235394900000000 10.2908583199999999 -0.0552097900000000 
lattice_vector -0.0349600400000000 0.0496611700000000 10.5063451099999998 
atom 1.0198048300000000 0.2636803400000000 2.2860947600000001 Si
atom 1.1982167200000000 0.1923595600000000 6.8128083400000001 Hf
atom 1.4344153600000000 5.3264941600000002 1.7795823300000000 Hf
atom 1.3600677400000001 5.4748108100000001 7.0221238300000000 Hf
atom 1.3475474999999999 2.4880580200000000 4.3515863000000001 Hf
atom 1.4298104700000001 2.3111959899999999 9.5886336399999994 La
atom 1.3351512400000001 7.4979725799999999 4.3411817900000003 Hf
atom 1.2817705600000000 7.4900039500000002 9.7388677999999995 Hf
atom 3.6636109800000001 2.7320884799999998 1.7550196300000001 Hf
atom 3.6374236999999998 2.7058212500000001 6.9913121399999998 La
atom 3.6284770900000001 7.9768073499999996 1.6086576299999999 Hf
atom 3.7650003399999998 7.9659461900000004 6.8051121400000003 Hf
atom 3.6373254300000002 4.9761753600000000 4.3617329399999996 Hf
atom 3.7882984999999998 4.8925682699999999 9.7861319200000008 Hf
atom 3.6082221699999999 10.1381325300000000 4.2224149799999999 Hf
atom 3.8424554799999999 10.1550841399999996 9.6506496100000003 Hf
atom 6.5440119000000001 0.2383927300000000 0.8028006200000000 Hf
atom 6.4328307799999997 0.2414619400000000 6.0238827700000002 Hf
atom 6.5353497699999998 5.3733876299999999 0.7723756000000001 Hf
atom 6.4589694099999999 5.3655861399999996 5.9723439300000001 Hf
atom 6.4405877000000000 2.3915845099999999 3.4145510400000001 Hf
atom 6.5631250000000003 2.4131602299999999 8.7133622200000005 Hf
atom 6.3809389300000001 7.5116487500000000 3.3189164500000001 Hf
atom 6.4463542599999997 7.5646927200000000 8.6145463400000004 Hf
atom 8.7951500800000009 2.7572145500000000 0.8583983200000000 Hf
atom 8.6798149999999996 2.8534872500000001 6.0549245000000003 Hf
atom 8.7522997599999997 7.9845845100000004 0.7597149700000000 Hf
atom 8.6401705100000008 7.9046510100000003 5.9391616999999997 Hf
atom 8.7187561400000000 4.9657733799999999 3.3733194300000000 Hf
atom 8.7055114899999992 4.9832045100000002 8.6702990199999999 Hf
atom 8.6222235900000008 10.0739345700000005 3.4087424899999998 Hf
atom 8.6965882200000006 10.1034499499999999 8.5620643899999997 Hf
atom 0.4900629300000000 1.4753990500000000 1.1940154400000000 O
atom 0.3386026500000000 1.8378361800000000 6.1733226900000000 O
atom 0.3029719800000000 6.7962853399999998 0.9157869500000000 O
atom 0.2620075100000000 6.8298085400000001 5.9984383899999996 O
atom 0.2619783500000000 0.7713596300000000 3.6987325900000001 O
atom 0.3003737600000000 0.6431432200000000 8.6048077000000003 O
atom 0.3307463300000000 5.9602278699999998 3.4881692499999999 O
atom 0.2814996300000000 5.9884616900000003 8.7697124500000001 O
atom 4.8292718199999998 4.2771096200000001 0.9476154500000000 O
atom 4.7220759599999997 4.4301420599999997 6.0151268900000003 O
atom 4.8729788899999997 9.4051085200000006 0.8356803700000000 O
atom 4.6774613000000000 9.5499717099999994 5.9464195100000001 O
atom 4.6861015400000001 3.3876729000000001 3.5179797800000001 O
atom 4.8275824600000004 3.3977722099999998 8.9195152800000006 O
atom 4.6034177100000004 8.5724163299999994 3.3808481499999998 O
atom 4.6675130899999999 8.5984521500000000 8.5584036799999996 O
atom 2.5070820199999999 1.2619264299999999 2.8579135999999998 O
atom 2.7418685100000002 6.5228369600000002 2.9902948000000000 O
atom 2.3609183599999999 7.1909184200000000 8.0468892600000004 O
atom 3.2469705599999998 1.4236544600000001 0.2514426800000000 O
atom 2.5808393500000002 1.2311769200000000 5.4395816400000001 O
atom 2.7803568699999999 6.3917959199999999 0.3773349400000000 O
atom 2.7902787000000000 6.4730201599999999 5.6112185400000003 O
atom 2.2926383499999998 3.8818733700000001 3.0787305699999998 O
atom 2.4461335000000002 4.3245927899999996 8.3458240900000007 O
atom 2.0957880699999998 9.1850091200000001 2.7976220399999998 O
atom 2.7908177500000000 10.8257430400000008 8.0242389299999992 O
atom 2.3777200199999999 3.9032102100000001 0.5595986900000000 O
atom 2.1144913500000002 4.0016828499999999 5.5960270500000000 O
atom 2.4842296500000001 8.9090918400000003 0.0613974400000000 O
atom 2.2478851099999999 8.9942770099999994 5.5744939100000002 O
atom 5.4684039499999999 1.7198793600000000 1.7043599700000001 O
atom 5.6475140300000000 1.7767617899999999 6.9605104799999999 O
atom 5.3758221199999996 6.8839576800000000 1.6180314000000000 O
atom 5.4274229800000002 6.9080688700000001 6.8474746900000003 O
atom 5.3361719299999999 0.8906499300000000 4.2855007699999996 O
atom 5.5915109899999997 0.8252869700000000 9.5341170099999992 O
atom 5.3842445999999997 6.0395247400000001 4.2341488700000003 O
atom 5.3923765000000001 6.0853866900000000 9.5578304000000003 O
atom 9.8419772499999993 4.2571223900000001 1.7130778700000000 O
atom 9.7819784300000006 4.3339955000000003 6.9550080799999998 O
atom 9.8695377099999995 9.5171596699999998 1.7307769000000000 O
atom 9.7281665499999992 9.3482158700000006 6.8154725300000001 O
atom 9.6832069900000004 3.4378515400000000 4.2828046600000000 O
atom 9.6513894800000006 3.5047745199999998 9.6719121300000008 O
atom 9.7151571800000003 8.5796771799999991 4.2284285500000003 O
atom 9.7651229599999994 8.6587200400000004 9.5863460899999993 O
atom 7.9615552000000003 1.3031399600000000 10.0408768199999994 O
atom 7.8023060099999997 1.2861907699999999 4.7607377099999999 O
atom 7.8497733399999996 6.4965380200000000 9.9692267900000004 O
atom 7.8096444199999997 6.4304424400000002 4.6568665700000000 O
atom 7.8785154700000000 1.3005150100000000 2.1584192199999999 O
atom 7.9855048799999997 1.3451793200000000 7.3752810499999999 O
atom 7.8410502099999997 6.4693194299999996 2.0701469399999999 O
atom 7.8195000400000003 6.4926202599999998 7.3335873500000002 O
atom 7.3085831800000003 3.9025057200000002 10.0527224900000007 O
atom 7.3052654900000000 3.8760021600000001 4.7349886999999997 O
atom 7.3264470199999998 9.0161869600000006 9.9439897800000008 O
atom 7.2617964300000004 8.9848815599999998 4.6607614999999996 O
atom 7.3814173099999998 3.8716511900000001 2.1206381900000002 O
atom 7.3326164599999997 3.9320030400000001 7.3752570100000003 O
atom 7.3838824499999998 9.0269364200000002 2.0612933999999998 O
atom 7.2823031800000004 9.0615839699999992 7.2926694300000001 O
