lattice_vector 10.0314606299999998 0.0474098800000000 0.0231731900000000 
lattice_vector 0.0256869100000000 10.4171834200000006 0.0000608600000000 
lattice_vector 0.0049261300000000 -0.0395157300000000 5.0301410300000002 
atom 1.2740751600000000 0.0190927400000000 1.2044899800000000 La
atom 1.3410943200000001 5.3563242700000000 1.2503523800000000 Hf
atom 6.3824942599999996 0.2159609700000000 1.3075896899999999 Hf
atom 6.3773259099999997 5.3647975399999996 1.3100233400000001 Hf
atom 1.3768558900000001 2.4158375400000001 3.7228527699999998 Hf
atom 1.3016307100000000 7.5409207399999998 3.7317301600000001 Hf
atom 6.3989312600000003 2.4443893700000001 3.7978364199999999 Hf
atom 6.3461853000000001 7.6389080700000003 3.8762455099999999 Hf
atom 3.6754950200000001 2.7670567199999998 1.2510824500000000 Hf
atom 3.7766114200000001 7.9087528000000002 1.3164416500000000 Hf
atom 8.7157712600000004 2.8330360699999999 1.2778646400000000 Hf
atom 8.6240743999999996 7.9848429000000003 1.3486720100000000 Hf
atom 3.6997467700000000 5.0138974300000001 3.7762831600000002 Hf
atom 3.8179731200000000 10.3222019399999994 3.7046922100000002 Hf
atom 8.6987511000000008 5.0334988999999997 3.8105377200000001 Hf
atom 8.6626378200000005 10.2438327900000008 3.8327308800000002 Hf
atom 0.3766187800000000 2.0494668500000000 1.9017611000000001 O
atom 0.3550398700000000 7.1096115600000003 1.9667992000000001 O
atom 5.4070846899999996 1.9342769500000001 1.9612626099999999 O
atom 5.3863179399999996 7.0911556100000004 2.0778599500000001 O
atom 0.3514140400000000 0.6955257700000000 4.1664656799999999 O
atom 0.3505617000000000 5.8543659200000002 4.4742217899999996 O
atom 5.4811680300000001 0.6673139900000000 4.4557516899999996 O
atom 5.3175404400000001 5.9294060200000001 4.5996003400000003 O
atom 4.6944811399999997 4.5033213099999996 2.0022423100000002 O
atom 4.6718228999999996 9.7540684399999993 1.8842569499999999 O
atom 9.6505581700000000 4.6194820999999999 1.9740943500000001 O
atom 9.4684350899999998 9.6516092600000007 2.1004323500000002 O
atom 4.7041911699999996 3.2955006800000000 4.4766249699999996 O
atom 4.6263570999999999 8.5221318000000004 4.5301398900000001 O
atom 9.6951123999999993 3.3321759499999999 4.4943150100000002 O
atom 9.8376348199999999 8.6054441199999996 4.6824363000000000 O
atom 2.8293081400000002 1.3077020200000000 2.5063181999999999 O
atom 2.7142317700000000 6.3507287100000003 2.4967281200000002 O
atom 7.7436609199999999 1.2518644100000000 2.5558692999999999 O
atom 7.7079974000000000 6.4555130099999998 2.5754814399999999 O
atom 2.7943275500000002 1.3716948700000000 4.9430689900000004 O
atom 2.6643365200000000 6.6721051400000002 5.0398097899999996 O
atom 7.7569406799999996 1.3828788200000000 5.0799174699999998 O
atom 7.7194172600000002 6.5646130600000001 5.0687791000000004 O
atom 2.3507399800000002 3.9925684600000002 5.0067334299999997 O
atom 7.3249578700000004 3.9882171700000000 5.0424840700000004 O
atom 7.3513145499999997 9.1383107900000002 5.1074620399999997 O
atom 2.3128994100000000 3.8371221100000001 2.4809263100000001 O
atom 2.4807200400000000 8.9031197800000008 2.6803765799999999 O
atom 7.3401345700000000 3.8500514300000002 2.5373893500000002 O
atom 7.1996403700000000 9.0436392100000003 2.6018135099999999 O
