lattice_vector 10.0942061100000000 0.0426110000000000 0.7944296600000000 
lattice_vector 0.0454333600000000 10.2510146500000001 -0.0180907200000000 
lattice_vector 0.8779171500000000 -0.0272480200000000 10.4702246999999993 
atom 1.3356747800000000 0.2493606100000000 1.7966466299999999 Si
atom 1.9369620299999999 0.2028509700000000 6.8347559400000000 Hf
atom 1.6005884399999999 5.3244874500000003 1.6403151899999999 Hf
atom 2.0018055700000001 5.3207360499999998 6.8636330000000001 Hf
atom 6.5738876499999996 0.2485465700000000 2.0259315899999999 Hf
atom 7.0130882600000000 0.2185156300000000 7.2626912399999997 Hf
atom 6.4686129399999999 5.2865559099999997 2.1015488200000001 Hf
atom 7.0382427099999996 5.3467856400000002 7.2829934300000003 Hf
atom 1.7309492300000000 2.3093447700000000 4.1973923500000003 Hf
atom 2.2379764700000000 2.2988687200000002 9.4456620699999991 Hf
atom 1.7661398800000001 7.4431260400000001 4.2577756200000003 Hf
atom 2.2454455000000002 7.4425748399999998 9.4256250300000008 Hf
atom 6.7902057700000000 2.3324802199999999 4.6305078200000001 Hf
atom 7.2533848000000001 2.3552412700000001 9.8942773499999994 Hf
atom 6.7927302000000003 7.4708527699999996 4.6730368200000001 Hf
atom 7.1522458899999997 7.5517216400000002 9.8284178299999994 Hf
atom 3.6992307499999999 2.7253361300000001 1.3292223100000000 Hf
atom 4.1920154600000004 2.7799035600000002 6.5867460099999997 Hf
atom 3.6907969399999998 7.9924360600000002 1.3955861000000001 Hf
atom 4.2102090900000002 7.9299055999999997 6.6303927700000003 Hf
atom 8.8829573199999992 2.7689481499999999 1.8015479299999999 Hf
atom 9.2227337100000000 2.7756639200000000 6.9897076000000000 Hf
atom 8.8357100200000005 7.8630344100000000 1.7850752800000000 La
atom 9.2429032099999997 7.9083208899999997 7.0233638200000001 Hf
atom 3.9308246300000000 4.8889126999999997 4.0189922500000002 Hf
atom 4.4402158700000003 4.9043931599999997 9.2359439299999995 Hf
atom 3.9750040499999999 10.0043422000000000 3.9418942700000001 Hf
atom 4.4290131099999996 10.1199372499999996 9.2301122299999996 Hf
atom 9.0066956099999995 4.9145711700000003 4.3988522100000003 Hf
atom 9.5054990099999994 4.8500773800000001 9.5900435700000006 Hf
atom 9.0428666599999996 10.0389493600000002 4.3982068800000000 Hf
atom 9.4906646099999996 10.0578020499999994 9.5823377000000001 Hf
atom 0.6207114700000000 1.5691677900000001 0.8967880300000000 O
atom 0.8500520400000000 1.6708120900000001 6.0149340799999997 O
atom 0.7183330400000000 6.8551594700000003 0.7929995000000000 O
atom 0.8750779900000000 6.7993371199999997 6.1017164499999996 O
atom 5.4780243500000001 1.7291474499999999 1.2175061800000000 O
atom 5.8995286299999998 1.6875353300000000 6.4395141100000002 O
atom 5.6325590300000004 6.8936520100000003 1.2187898600000000 O
atom 5.9243495399999997 6.8339011999999997 6.4748242400000002 O
atom 0.6653781300000000 0.8098409500000000 3.3958135100000000 O
atom 1.0766263000000000 0.8602171900000000 8.6515135500000007 O
atom 0.6466690100000000 5.9555072300000003 3.4525383299999999 O
atom 1.1023648800000001 5.9457971100000000 8.7198583099999993 O
atom 5.6136740500000002 0.9270686000000000 3.7908641400000000 O
atom 6.1669021300000004 0.8717050400000000 9.0807266999999996 O
atom 5.6005867199999999 6.0046647999999996 3.8845575999999999 O
atom 6.1310951700000000 6.0195133399999996 9.0425452899999996 O
atom 4.8109139200000000 4.2361213099999997 2.2060286499999999 O
atom 5.3234355300000002 4.2474972900000001 7.4112858900000003 O
atom 4.9217608600000000 9.3644696300000003 2.1802888299999998 O
atom 5.3423134399999999 9.3978220399999994 7.4189037400000002 O
atom 9.9375782000000008 4.3069320299999996 2.5735315900000000 O
atom 10.3740703700000001 4.2436546499999999 7.8197322099999997 O
atom 10.1097980700000001 9.5475530600000003 2.6122881599999999 O
atom 10.3392152799999995 9.4512044799999995 7.7331840500000002 O
atom 5.0888448899999998 3.4385857600000000 4.8014199000000000 O
atom 5.6172260999999999 3.5212618600000001 10.0845775199999999 O
atom 5.0854208300000003 8.5718910099999999 4.8106184799999996 O
atom 5.4212065300000001 8.5556436100000006 10.0291250099999996 O
atom 10.1136820099999998 3.4109574899999999 5.1764230600000003 O
atom 10.6155356699999999 3.4027679900000001 10.4837934700000002 O
atom 10.1210409400000003 8.5257971599999998 5.1808574900000002 O
atom 10.6611685900000008 8.5838997799999994 10.2460179500000006 O
atom 2.7945926299999999 1.1431423100000000 2.4651104799999999 O
atom 3.4168254899999999 1.2940205499999999 7.8501639200000000 O
atom 3.0305015000000002 6.4238681499999997 2.7280943199999999 O
atom 3.4519581499999998 6.4324531199999999 7.9403490500000000 O
atom 8.0649940400000002 1.3114718900000000 3.1235344000000000 O
atom 8.4964080499999994 1.3380710200000001 8.3457014399999991 O
atom 7.9238980899999998 6.3155282499999998 3.2346979899999999 O
atom 8.5229747699999994 6.4541323799999999 8.4544496099999993 O
atom 3.2102898299999998 1.2481345100000001 5.2371659700000004 O
atom 3.8808555500000002 1.5004344300000001 10.3055195400000006 O
atom 3.2253521500000000 6.3529754499999997 5.3641961299999998 O
atom 3.8325726400000000 6.4248888700000002 10.5423769400000005 O
atom 8.2725368699999997 1.2467651399999999 5.7367805100000000 O
atom 8.7531403300000008 1.3036308700000001 10.9888032199999994 O
atom 8.2948130399999993 6.3664646700000000 5.7954733599999999 O
atom 2.2994141899999998 3.9484917199999998 0.2643599000000000 O
atom 2.6967639200000000 3.8664089700000002 5.5105749299999998 O
atom 2.3009630200000002 9.4419880099999993 0.5264983800000000 O
atom 2.7314547600000001 8.9902264699999996 5.5317937500000003 O
atom 7.4207202600000004 4.0294961899999997 0.6949178000000000 O
atom 7.7595988000000000 3.8859133699999999 5.9100173199999997 O
atom 7.2598402100000001 9.1353988899999994 0.5394890600000000 O
atom 7.7808481199999999 9.0013595700000000 5.9217416500000004 O
atom 2.5120041600000000 3.7234788999999999 2.8959513800000001 O
atom 2.9666511999999998 3.7884756300000002 8.1285055899999996 O
atom 2.5115561099999999 8.8786778000000002 2.9504698000000000 O
atom 2.9979755500000000 8.9423390299999994 8.1677447000000001 O
atom 7.5691717299999999 3.7502547300000000 3.2847168500000001 O
atom 8.0041435500000002 3.8059397700000002 8.5287990699999998 O
atom 7.5196854399999999 9.0189427599999998 3.3867458199999998 O
atom 8.0010491199999993 8.9410802700000005 8.4864453399999995 O
