lattice_vector 5.0129169300000003 0.0138959400000000 -0.0036728200000000 
lattice_vector -0.0131538100000000 10.4075380800000001 -0.0021012200000000 
lattice_vector 0.0236403200000000 -0.0259823000000000 10.0837817899999997 
atom 1.2670772500000000 0.0567314900000000 1.2143757500000001 La
atom 1.3737658200000000 0.1493981300000000 6.3084375899999996 Hf
atom 1.2899774399999999 5.3891954699999998 1.2860710500000001 Hf
atom 1.3641257400000000 5.3753191300000003 6.3405313400000001 Hf
atom 1.4096454899999999 2.4576187599999999 3.9121949499999999 Hf
atom 1.3591910199999999 2.4409120999999998 8.7625929399999993 Hf
atom 1.3301059200000001 7.5881518999999997 3.8474998100000000 Hf
atom 1.3920166899999999 7.6078080500000000 8.8330620599999996 Hf
atom 3.4886390999999999 2.8328612799999999 1.2356526999999999 Hf
atom 3.7124887400000000 2.7734752000000000 6.3059610199999998 Hf
atom 3.6367045899999999 7.9385868100000003 1.2863614200000000 Hf
atom 3.6843569399999998 7.9670885199999999 6.2886208799999999 Hf
atom 3.6739850399999998 5.0224357800000003 3.7825018699999999 Hf
atom 3.7075463399999999 5.0173327399999996 8.8401591199999991 Hf
atom 3.6383274299999999 10.2298164600000003 3.7952509900000000 Hf
atom 3.6939811599999999 10.2164400999999998 8.7619422999999994 Hf
atom 0.4572181400000000 1.9602681799999999 6.8379167000000001 O
atom 0.3169557500000000 7.0881127900000003 2.0234902400000001 O
atom 0.3795183400000000 7.1068110000000004 7.0101233699999996 O
atom 0.4136158300000000 0.6631861000000000 4.3541019600000004 O
atom 0.3972858300000000 0.7238620700000000 9.1918686600000008 O
atom 0.3456474400000000 5.8406438600000001 4.5269251199999996 O
atom 0.3564228700000000 5.9091291799999999 9.5519793800000006 O
atom 4.6187680699999998 4.4392309699999997 1.9676656100000001 O
atom 4.7055625499999998 4.5020376799999999 7.0383576000000003 O
atom 4.3251798800000003 9.7814461900000005 1.9525975499999999 O
atom 4.6524847700000000 9.7124409800000002 6.9401261099999996 O
atom 4.6409664900000003 3.2732554100000000 4.4511053499999997 O
atom 4.6947411900000002 3.3082212800000002 9.5432205499999991 O
atom 4.6491849600000004 8.5009994100000004 4.4881701100000004 O
atom 4.8377813099999996 8.5824232800000004 9.6420326099999993 O
atom 2.7465111300000000 1.4156120400000001 2.5797618099999999 O
atom 2.7624338200000000 1.2229054800000001 7.5127218899999999 O
atom 2.6816405200000002 6.3735317800000004 2.5203488699999999 O
atom 2.7509135499999999 6.4192212599999996 7.5623028699999999 O
atom 2.7438514000000001 1.3570906100000000 5.0677400600000002 O
atom 2.7955535199999999 1.4117288299999999 9.9759945000000005 O
atom 2.7151111700000001 6.5595404799999999 5.0491225499999999 O
atom 2.7195411699999998 6.5179306199999996 10.0930435000000003 O
atom 2.3359756800000002 3.9786676200000000 5.0641821699999996 O
atom 2.3053421599999999 3.9798542100000001 10.0842687000000009 O
atom 2.2895368299999999 9.1661879400000004 5.0576717999999996 O
atom 2.4718406200000000 9.0279764799999995 9.9792847200000008 O
atom 2.1859018699999999 3.8743248200000000 2.5381575199999999 O
atom 2.3551991999999999 3.8400975499999999 7.5567617599999997 O
atom 2.2871530400000002 8.8676431000000004 2.6104912100000002 O
atom 2.3168817599999998 9.0211575100000001 7.5287095199999996 O
