lattice_vector 10.1640330500000005 0.0630410300000000 -0.0348156100000000 
lattice_vector 0.0353343500000000 10.4427429800000002 0.0204354500000000 
lattice_vector 0.0180588500000000 -0.0095792900000000 5.0906168899999997 
atom 1.2219925500000000 0.1286736500000000 1.2731476799999999 La
atom 1.4804495200000001 5.4580258900000000 1.2884319500000001 Hf
atom 6.4105111900000002 0.1952097300000000 1.2512268900000001 Hf
atom 6.4192790300000002 5.4058521099999997 1.2512193400000000 Hf
atom 1.5377046900000000 2.4795699400000002 3.8078613500000000 Hf
atom 1.4858659800000000 7.6995231700000000 3.8787718299999998 Hf
atom 6.4377523200000004 2.4720044200000002 3.7949141499999999 Hf
atom 6.4275399300000000 7.6751800100000001 3.8209572600000001 Hf
atom 3.7505233400000000 2.7996962800000000 1.2594088999999999 Hf
atom 3.7960236799999998 8.0390174900000009 1.2856504300000000 Hf
atom 8.6501745400000001 2.7919974399999998 1.2380079799999999 Hf
atom 8.7379558900000003 8.0146284500000000 1.3087818899999999 Hf
atom 3.7778227200000001 5.0766752000000004 3.8156219299999998 Hf
atom 3.8046426100000001 10.3081244499999993 3.8156644900000001 Hf
atom 8.9670666800000003 5.1436378899999999 3.8013683100000000 La
atom 8.7438909400000000 10.2555101299999993 3.8179884400000001 Hf
atom 0.2429726700000000 2.1711387000000002 2.1477820599999999 O
atom 0.2919358100000000 7.0404611099999999 2.1581302299999998 O
atom 5.4596665499999997 1.9490052800000000 1.9325867699999999 O
atom 5.3873535600000002 7.1111819900000004 2.0482444700000002 O
atom 0.3591856700000000 0.7074106400000000 4.1242584400000002 O
atom 0.6229485700000000 6.0510982400000000 4.6627269699999996 O
atom 5.4739471799999997 0.7237254200000000 4.5041351599999997 O
atom 5.4596230600000002 5.9175145799999997 4.5371592400000003 O
atom 4.7192545900000002 4.5455014299999998 1.9684747100000000 O
atom 4.7689382299999998 9.7945349900000007 2.0016912400000000 O
atom 9.8327048200000000 4.5618631299999999 1.5568931300000000 O
atom 9.6069266899999999 9.6595864000000002 2.0926257800000001 O
atom 4.7335589799999997 3.3199699800000002 4.4832299200000003 O
atom 4.8418581700000001 8.6006881600000007 4.5984629500000000 O
atom 9.9510012799999998 3.0975128500000002 4.6611802700000000 O
atom 9.9376165299999997 8.6693638800000006 4.6726388800000001 O
atom 2.8621925799999999 1.3488699399999999 2.5652250300000001 O
atom 2.7656365500000000 6.4743849500000001 2.5899860299999999 O
atom 7.7854130100000001 1.2353179500000000 2.5055775100000002 O
atom 7.7243476800000002 6.5423596599999998 2.4527934199999999 O
atom 2.8294406900000002 1.4250120700000000 5.0446318300000001 O
atom 2.9056395099999999 6.6164778799999997 5.1364665299999999 O
atom 7.8424705200000000 1.3776955900000001 5.0449172899999999 O
atom 7.7374652399999997 6.7113927499999999 5.1002898400000003 O
atom 2.4127654199999999 4.0314335200000002 5.0761831800000001 O
atom 2.5072788199999998 9.1673282000000000 5.0219377300000003 O
atom 7.3350543400000001 3.9176809499999998 5.1001931100000002 O
atom 7.4674348500000001 9.2348719100000007 5.1246339100000000 O
atom 2.3550545700000001 3.8892975100000000 2.5242360900000000 O
atom 2.4951459100000002 8.9981955500000002 2.5782244799999998 O
atom 7.3678757499999996 3.8420644700000000 2.4882901099999999 O
atom 7.3274944499999997 9.0930017200000002 2.5809095100000001 O
