lattice_vector 10.0261742900000002 0.0263990100000000 -0.0187267100000000 
lattice_vector 0.0011020200000000 5.1936794700000002 -0.0157415600000000 
lattice_vector -0.0004277200000000 0.0079499600000000 10.1189832099999997 
atom 1.1883362600000000 0.0609106300000000 1.2007496099999999 La
atom 1.3351027300000000 0.1991075000000000 6.3329426000000000 Hf
atom 6.3153770600000003 0.1951324600000000 1.2583347400000000 Hf
atom 6.3480066099999997 0.1875006800000000 6.2974558099999998 Hf
atom 1.4125965800000000 2.4824288999999999 3.9007166999999998 Hf
atom 1.3777734500000001 2.4697522699999999 8.8056481099999999 Hf
atom 6.3335030400000001 2.4396024600000001 3.7999737200000001 Hf
atom 6.3462788699999999 2.4309908600000001 8.8074440200000002 Hf
atom 3.6773995899999998 2.7352184300000002 1.2352604199999999 Hf
atom 3.6888755199999999 2.8020864699999999 6.3149440400000003 Hf
atom 8.4989192700000000 2.8292386700000001 1.2309039700000000 Hf
atom 8.6886934100000008 2.7846062599999999 6.3005540199999999 Hf
atom 3.6570218300000001 5.0536066899999996 3.7329885100000002 Hf
atom 3.7015285599999999 5.0447779900000000 8.8204429599999994 Hf
atom 8.6727325999999998 5.0113408699999997 3.8323482800000002 Hf
atom 8.6570163800000000 5.0471094000000001 8.7793040999999992 Hf
atom 0.4010001300000000 1.9629679700000000 6.9303689899999998 O
atom 5.3939587600000003 1.9211166099999999 1.9637535300000000 O
atom 5.3694932499999997 1.9173250600000000 7.0080043800000000 O
atom 0.3697376700000000 0.7065000900000000 4.4220646099999996 O
atom 0.2627992700000000 0.8528171700000000 9.3069362000000009 O
atom 5.3652446800000000 0.6973987800000000 4.4761166499999998 O
atom 5.3863666400000003 0.7104364100000000 9.5456050099999992 O
atom 4.6107896999999998 4.5443227600000000 1.9017906000000000 O
atom 4.6833141100000004 4.5188934600000001 7.0134034900000000 O
atom 9.5792010699999999 4.1993237900000002 2.2093243800000000 O
atom 9.6652282100000004 4.5398943100000002 7.0025793900000002 O
atom 4.6700118799999997 3.3119793600000000 4.5018293900000002 O
atom 4.7410407599999997 3.3248101100000000 9.5417436200000001 O
atom 9.6984831000000007 3.3220505000000000 4.5751466399999998 O
atom 9.7661304900000001 3.4658950900000001 9.6961944700000000 O
atom 2.6919143499999998 1.2871326199999999 2.5609939800000001 O
atom 2.7213442500000000 1.2485104400000000 7.5487563399999997 O
atom 7.7840269700000002 1.2526329000000000 2.4891074099999999 O
atom 7.7208362700000004 1.2349730699999999 7.5290828200000002 O
atom 2.7194634899999999 1.4008548300000001 5.0729246999999997 O
atom 2.7626879500000001 1.4098724199999999 10.0160080800000006 O
atom 7.7029630600000001 1.4030141400000000 5.0325552099999999 O
atom 7.7133201800000002 1.3803922700000000 10.0626273899999994 O
atom 2.3287160999999998 4.0264344400000001 5.0437451199999996 O
atom 2.4357784100000002 3.9031075300000002 10.0031918799999993 O
atom 7.3148003099999999 3.9776385900000002 5.0464956599999997 O
atom 7.3187700199999997 3.9877405200000000 10.0973989000000000 O
atom 2.4027536500000002 3.7153620799999998 2.5743386099999999 O
atom 2.3131829499999998 3.8666151800000002 7.5243071300000004 O
atom 7.1740646999999997 3.8811397599999999 2.5161536899999999 O
atom 7.3245593800000002 3.8315652199999999 7.5628940199999999 O
