lattice_vector 10.0259225500000007 0.0165790300000000 0.0627569600000000 
lattice_vector -0.0466660100000000 10.2057139400000008 0.0443867000000000 
lattice_vector 0.0349018300000000 0.0138719400000000 10.0260859300000007 
atom 1.2471499399999999 -0.0429494400000000 1.2617480100000000 Si
atom 1.2657151400000000 0.0197484700000000 6.2736363400000004 Hf
atom 1.2967181400000001 5.1390135099999998 1.2276765000000001 La
atom 1.2450400699999999 5.0969855500000003 6.3074088300000000 Hf
atom 6.2613937999999996 0.0170982400000000 1.3014893300000001 Hf
atom 6.2718369200000001 0.0364306300000000 6.3208385900000001 Hf
atom 6.2451259099999996 5.1028700300000001 1.3254715100000001 Hf
atom 6.3204284900000003 5.1244657499999997 6.2782778800000001 Hf
atom 1.3478358100000001 2.5895529499999999 3.7706440300000001 Hf
atom 1.2127917399999999 2.5726433100000001 8.7615942300000000 Hf
atom 1.1734897500000001 7.7002670200000001 3.7977946500000002 Hf
atom 1.2069169000000000 7.7042612500000001 8.7411148599999997 Hf
atom 6.3156839900000001 2.5504155100000001 3.8102659900000000 Hf
atom 6.2417165900000002 2.5376005199999998 8.8627680699999996 Hf
atom 6.2649650000000001 7.7098484999999997 3.8294713900000001 Hf
atom 6.2752517100000000 7.6765949600000001 8.8451630899999998 Hf
atom 3.8036187799999999 2.5800695700000000 1.3643443700000000 Hf
atom 3.7432113299999998 2.5344390200000002 6.3521229899999998 Hf
atom 3.8025236599999999 7.7010373999999997 1.3531155399999999 Hf
atom 3.7480590399999998 7.6701774499999997 6.3126977899999996 Hf
atom 8.7880795000000003 2.5934680200000000 1.2402013000000001 Hf
atom 8.7945151300000006 2.5565858900000000 6.2961432999999998 Hf
atom 8.7517502399999998 7.7113415700000001 1.4013348800000001 Hf
atom 8.7648638299999995 7.7148332999999996 6.3395610400000004 Hf
atom 3.7612934700000000 0.0589801000000000 3.8015591400000002 Hf
atom 3.7336100700000001 -0.0722330600000000 8.8480132200000003 Hf
atom 3.7892642300000001 5.1524585900000002 3.8664226500000001 Hf
atom 3.8706898600000001 5.0595687099999997 8.7205208200000008 Hf
atom 8.8287733799999994 0.0469456400000000 3.7722211500000000 Hf
atom 8.7814022699999992 0.0711546500000000 8.8398185500000004 Hf
atom 8.7772089199999996 5.0954073099999997 3.8272617699999998 Hf
atom 8.7259238600000000 5.1569517300000003 8.8165086400000003 Hf
atom -0.2416352000000000 1.5509680500000000 -0.2474202600000000 O
atom -0.0680458600000000 1.5202317599999999 4.8136805300000001 O
atom -0.0983291400000000 6.7078958999999996 -0.0185551800000000 O
atom 0.0539264900000000 6.6307030200000003 5.1267721200000000 O
atom 4.8229335000000004 1.4486080900000000 -0.0226142200000000 O
atom 4.9569433700000003 1.5188173500000000 4.9973697100000001 O
atom 4.8406668000000002 6.5656716800000003 -0.0102902900000000 O
atom 5.0341567899999999 6.6337015700000004 5.0553482499999998 O
atom 0.2597432400000000 0.9042662100000000 2.2391289699999999 O
atom 0.0175172800000000 1.0960396200000000 7.3800198500000000 O
atom -0.1050136300000000 6.2644204900000000 2.6244852900000000 O
atom 0.0315390000000000 6.1910236400000001 7.5651142199999999 O
atom 5.1605424600000003 1.1073855399999999 2.5467651600000001 O
atom 5.0380582399999998 1.0490851600000000 7.5536703999999997 O
atom 4.9809285900000004 6.1973823899999996 2.5335689900000000 O
atom 5.0743686700000001 6.1715261600000000 7.5153705300000002 O
atom -0.0055718100000000 3.5112724000000002 2.5307176999999998 O
atom 0.0374727700000000 3.6191772400000000 7.4395173300000002 O
atom -0.2606455500000000 8.6731903700000004 2.7756365299999999 O
atom -0.1579980700000000 8.7770043500000003 7.6987761399999997 O
atom 5.1136998299999998 3.6304226300000000 2.5383583900000000 O
atom 5.0143703999999998 3.6120150999999998 7.5842429800000000 O
atom 4.8409040200000000 8.7834372399999996 2.7168154900000001 O
atom 4.8657405999999996 8.6955654100000004 7.7211825599999999 O
atom -0.1092605500000000 3.9937959400000000 -0.1228109400000000 O
atom 0.0338335400000000 4.0825602900000000 4.9952895399999999 O
atom 0.1900707000000000 9.2721747699999995 0.2842832700000000 O
atom 0.0007402000000000 9.1758181000000008 5.1483494500000004 O
atom 5.0104775500000001 4.0279670699999999 0.0554094400000000 O
atom 5.0457618300000000 4.0626010700000004 5.0696006300000001 O
atom 5.0609807199999999 9.1164156500000004 0.1516570200000000 O
atom 5.0023032799999996 9.1692482799999997 5.1847509799999996 O
atom 2.7520008100000002 1.5575885400000000 2.7496289599999999 O
atom 2.5890058800000002 1.4558470200000000 7.7170121099999998 O
atom 2.5367232400000002 6.7177359200000000 2.6244577900000001 O
atom 2.5752040100000002 6.5718298500000003 7.7101024899999997 O
atom 7.7273121099999997 1.5339723800000000 2.6480875400000001 O
atom 7.5927681299999996 1.5252863800000001 7.6448399000000000 O
atom 7.4170207799999996 6.6428303399999997 2.5151953499999999 O
atom 7.5331600600000002 6.6370674999999997 7.5614530799999997 O
atom 2.2620611300000002 0.7873103600000000 0.2285486700000000 O
atom 2.4982723000000000 1.1015115799999999 5.1559998900000004 O
atom 2.5612703300000002 6.1815418299999996 5.1528008800000000 O
atom 7.3873484899999999 1.0963072700000001 0.0783847000000000 O
atom 7.4972819800000003 1.0862244500000000 5.1070777400000003 O
atom 7.4004038500000000 6.1783448500000002 0.0075913900000000 O
atom 7.5475902100000001 6.2118558699999999 5.0475642100000000 O
atom 2.5463282500000002 3.4524582399999999 -0.0142628700000000 O
atom 2.5123051699999999 3.6249796299999999 5.1020673199999997 O
atom 2.6836458599999999 8.3910070500000007 -0.1648494700000000 O
atom 2.5671469199999999 8.7432319399999994 4.9076796900000002 O
atom 7.4544417400000000 3.6208231799999999 0.0619092500000000 O
atom 7.5466512699999999 3.6374259300000000 5.0549741299999997 O
atom 7.6324854400000000 8.7403504699999992 0.0058964500000000 O
atom 7.5638221000000003 8.7535779799999993 5.0337155899999999 O
atom 2.6504306899999999 4.0056586200000002 2.6422944099999999 O
atom 2.5180522900000000 4.0335658299999997 7.5462409600000004 O
atom 2.2290343799999999 9.2825169200000008 2.3180600099999999 O
atom 2.4092095400000000 9.1220497199999997 7.4803364600000002 O
atom 7.5577101400000002 4.0943802399999996 2.5393266200000002 O
atom 7.5318505800000004 4.0673187200000003 7.5525573000000001 O
atom 7.3916588299999999 9.1888205700000007 2.5714784200000000 O
atom 7.4016889800000003 9.1736915299999993 7.5950539700000004 O
