lattice_vector 10.0107510000000008 0.0205130000000000 0.1874160000000000 
lattice_vector -0.0003040000000000 10.4033789999999993 -0.0309320000000000 
lattice_vector 0.0011380000000000 -0.0855550000000000 10.0962280000000000 
atom 1.2231840000000000 0.3148910000000000 1.1910799999999999 Si
atom 1.3766840000000000 0.1374860000000000 6.3571629999999999 Hf
atom 1.2606170000000001 5.2427380000000001 1.0212159999999999 Hf
atom 1.1818569999999999 5.1159929999999996 6.2479889999999996 Hf
atom 6.3000530000000001 0.2249810000000000 1.3868819999999999 Hf
atom 6.2429209999999999 0.1207000000000000 6.3827759999999998 Hf
atom 6.4124280000000002 5.4232639999999996 1.4217660000000001 Hf
atom 6.3826369999999999 5.3162269999999996 6.4479050000000004 Hf
atom 1.3977930000000001 2.3296389999999998 3.7064390000000000 Hf
atom 1.3640250000000000 2.4215490000000002 8.8489229999999992 Hf
atom 1.0734470000000000 7.7762130000000003 3.3218679999999998 Hf
atom 1.1990200000000000 7.5293419999999998 8.6464569999999998 Hf
atom 6.3376049999999999 2.4273660000000001 3.9184180000000000 Hf
atom 6.3331600000000003 2.3607209999999998 8.8746980000000004 Hf
atom 6.4682480000000000 7.6743449999999998 3.9307900000000000 Hf
atom 6.3322380000000003 7.6237510000000004 8.9929839999999999 Hf
atom 3.8686539999999998 2.7629570000000001 1.0590059999999999 Hf
atom 3.6709160000000001 2.7176030000000000 6.3240210000000001 Hf
atom 3.7603160000000000 7.8260730000000001 1.2165550000000001 Hf
atom 3.7765520000000001 7.8994669999999996 6.2952290000000000 La
atom 8.6817820000000001 2.7431100000000002 1.3954400000000000 Hf
atom 8.6857720000000000 2.6469330000000002 6.4210130000000003 Hf
atom 8.6516959999999994 8.0572239999999997 1.2949720000000000 Hf
atom 8.6732340000000008 7.9834040000000002 6.4282339999999998 Hf
atom 3.7274710000000000 5.1315739999999996 3.6940080000000002 La
atom 3.7964310000000001 5.1835410000000000 8.7226619999999997 Hf
atom 3.6780580000000000 10.1916620000000009 3.7388620000000001 Hf
atom 3.5236130000000001 10.2044139999999999 9.0398890000000005 Hf
atom 8.7573240000000006 5.0079650000000004 3.9277940000000000 Hf
atom 8.5995740000000005 4.9655069999999997 8.9616270000000000 Hf
atom 8.7361860000000000 10.3082740000000008 3.9031460000000000 Hf
atom 8.7073780000000003 10.2392090000000007 8.9205749999999995 Hf
atom 0.2841900000000000 1.7243970000000000 1.9347850000000000 O
atom 0.2393110000000000 1.7828930000000001 7.2174649999999998 O
atom 0.1986820000000000 6.9884950000000003 1.7259199999999999 O
atom 0.2614900000000000 6.9667370000000002 6.9132720000000001 O
atom 5.2281230000000001 1.8170990000000000 2.2460230000000001 O
atom 5.3381390000000000 1.8547240000000000 7.1491160000000002 O
atom 5.2696329999999998 6.9641640000000002 2.3900709999999998 O
atom 5.1845080000000001 6.6687190000000003 7.6598899999999999 O
atom 0.2527620000000000 0.7864610000000000 4.6730309999999999 O
atom 0.2882940000000000 0.5544000000000000 9.7917129999999997 O
atom 0.6913930000000000 6.0089379999999997 4.3773039999999996 O
atom 0.2666270000000000 5.8006440000000001 9.4222450000000002 O
atom 5.3238120000000002 0.7663190000000000 4.6590990000000003 O
atom 5.1031990000000000 0.9248610000000000 9.8839810000000003 O
atom 5.3422970000000003 6.2723950000000004 5.0102849999999997 O
atom 5.1476800000000003 6.0862629999999998 10.0626090000000001 O
atom 4.8679629999999996 4.3168160000000002 1.9338649999999999 O
atom 4.6702100000000000 4.4016180000000000 7.0193550000000000 O
atom 4.7441380000000004 9.6208430000000007 1.9905370000000000 O
atom 4.7286950000000001 9.7156730000000007 7.3337830000000004 O
atom 9.7642670000000003 4.4011030000000000 2.2089599999999998 O
atom 9.5922090000000004 4.3860960000000002 7.2247669999999999 O
atom 10.1054340000000007 9.6027000000000005 2.2247870000000001 O
atom 9.6970150000000004 9.6375569999999993 7.1859060000000001 O
atom 4.8003960000000001 3.3304290000000001 4.7001770000000000 O
atom 4.7460769999999997 3.4475769999999999 9.4645869999999999 O
atom 4.9352029999999996 8.7637540000000005 4.5688490000000002 O
atom 4.6746639999999999 8.6061490000000003 9.6534800000000001 O
atom 9.7806940000000004 3.3863020000000001 4.7405840000000001 O
atom 9.7237089999999995 3.3051100000000000 9.8027580000000007 O
atom 9.6332220000000000 8.5546199999999999 4.6192080000000004 O
atom 9.6009209999999996 8.4550509999999992 9.6278509999999997 O
atom 2.2934540000000001 0.6861460000000000 2.5312049999999999 O
atom 2.7025190000000001 1.1749510000000001 7.6428180000000001 O
atom 2.5220600000000002 6.2740039999999997 2.1409140000000000 O
atom 2.5113919999999998 6.1858899999999997 7.3372240000000000 O
atom 7.7054330000000002 1.2046380000000001 2.5955119999999998 O
atom 7.6531770000000003 1.1026860000000001 7.6411939999999996 O
atom 7.7585670000000002 6.4396560000000003 2.6568230000000002 O
atom 7.6735550000000003 6.3679439999999996 7.7064510000000004 O
atom 2.7194799999999999 1.3640129999999999 5.0044930000000001 O
atom 2.4899019999999998 1.3752400000000000 10.2382399999999993 O
atom 2.6388739999999999 6.6910520000000000 9.8038419999999995 O
atom 7.6977200000000003 1.4014260000000001 5.1173219999999997 O
atom 7.6553449999999996 1.3736809999999999 10.1582849999999993 O
atom 7.8416839999999999 6.5418669999999999 5.1652120000000004 O
atom 7.6599539999999999 6.5699560000000004 10.2202129999999993 O
atom 2.2707109999999999 3.8642140000000000 5.0356439999999996 O
atom 2.4348630000000000 4.0027580000000000 9.9536510000000007 O
atom 2.2577590000000001 9.2444830000000007 5.0568549999999997 O
atom 2.2450320000000001 9.3443319999999996 10.5115239999999996 O
atom 7.3863750000000001 4.0002329999999997 5.1671100000000001 O
atom 7.3102039999999997 3.9555030000000002 10.2207580000000000 O
atom 7.4105080000000001 9.2391279999999991 5.1472759999999997 O
atom 7.3154839999999997 9.2297740000000008 10.1716219999999993 O
atom 2.4204960000000000 3.4757539999999998 2.3507520000000000 O
atom 2.2649379999999999 3.7010820000000000 7.5189909999999998 O
atom 2.8395320000000002 8.4821030000000004 2.8941210000000002 O
atom 2.2004600000000001 9.0754470000000005 7.7784500000000003 O
atom 7.4143299999999996 3.8267340000000001 2.6822650000000001 O
atom 7.3314870000000001 3.7166969999999999 7.6818840000000002 O
atom 7.4312839999999998 9.0685040000000008 2.5920339999999999 O
atom 7.2832689999999998 8.9147719999999993 7.6576409999999999 O
