lattice_vector 10.1177652600000005 0.0365290000000000 0.0052610200000000 
lattice_vector -0.0322120800000000 9.9940245300000008 -0.0231741400000000 
lattice_vector -0.0031417200000000 0.0237602900000000 9.9945019700000000 
atom 1.2643118900000001 0.0092158500000000 1.2556198300000001 Si
atom 1.2630216400000001 0.0205186700000000 6.2528607500000000 Hf
atom 1.2479795000000000 5.0060353700000002 1.2436174499999999 Hf
atom 1.2463559500000001 5.0178138299999997 6.2412215099999999 Si
atom 6.3235926100000004 0.0286857500000000 1.2589048000000000 Hf
atom 6.3215033399999996 0.0402547700000000 6.2565669699999997 Hf
atom 6.3074730700000003 5.0252148200000004 1.2484423400000000 Hf
atom 6.3050313400000002 5.0373560599999996 6.2447707499999998 Hf
atom 1.3386370800000000 2.5146936300000000 3.7493625599999998 Hf
atom 1.1714992300000000 2.5254979299999998 8.7456276699999993 Hf
atom 1.1560461000000000 7.5105031499999999 3.7376066799999998 Hf
atom 1.3207091600000000 7.5232499300000004 8.7348307599999995 Hf
atom 6.3483612300000001 2.5326279500000002 3.7523327599999998 Hf
atom 6.2786807400000004 2.5445437200000001 8.7494534200000000 Hf
atom 6.2642167200000003 7.5301036899999998 3.7402712299999998 Hf
atom 6.3311958300000004 7.5417907599999996 8.7384254000000006 Hf
atom 3.7806985200000001 2.5249840200000002 1.2679961099999999 Hf
atom 3.7782905400000000 2.5241004100000000 6.2350789400000002 Hf
atom 3.7635246800000002 7.5092576500000003 1.2264186100000001 Hf
atom 3.7629084599999998 7.5336513099999998 6.2540518299999999 Hf
atom 8.8505828399999995 2.5412999599999999 1.2390675799999999 Hf
atom 8.8484046799999998 2.5414343599999998 6.2670911800000004 Hf
atom 8.8339976000000000 7.5263406499999999 1.2584544900000001 Hf
atom 8.8317595099999995 7.5503236800000000 6.2247939399999996 Hf
atom 3.7868883900000001 0.0411090800000000 3.7635942400000002 Hf
atom 3.7851826100000001 0.0220589100000000 8.7491598400000008 Hf
atom 3.7702060700000000 5.0074614700000000 3.7395167100000002 Hf
atom 3.7696537200000000 5.0506812900000000 8.7495110999999994 Hf
atom 8.8584661100000002 0.0281371100000000 3.7654197900000002 Hf
atom 8.8569757500000001 0.0701800400000000 8.7497068500000008 Hf
atom 8.8420331500000007 5.0549003299999997 3.7409588500000002 Hf
atom 8.8406773100000002 5.0362632200000004 8.7504135600000001 Hf
atom -0.3180977900000000 1.4886119099999999 -0.2365825100000000 O
atom -0.1753162000000000 1.4632770399999999 4.7985326400000003 O
atom -0.1895364100000000 6.4482962400000003 -0.2099736700000000 O
atom -0.3371178400000000 6.4972832299999999 4.7491624000000003 O
atom 4.7899794399999998 1.3199586100000000 -0.0442090600000000 O
atom 4.8859713700000000 1.3285549100000000 4.9556606900000002 O
atom 4.8719600400000003 6.3151949800000002 -0.0533373500000000 O
atom 4.7712913800000001 6.3269334700000002 4.9427658000000001 O
atom 0.3385702700000000 1.0027627400000001 2.2467904900000000 O
atom 0.1341368800000000 1.1521524900000000 7.3831515400000001 O
atom 0.1201423400000000 6.1383274400000003 2.3742153799999999 O
atom 0.3198003400000000 6.0101303599999998 7.2327188900000001 O
atom 5.2914523899999999 1.2476131399999999 2.4751934000000002 O
atom 5.2177641200000000 1.2525897500000001 7.4659109600000004 O
atom 5.2031048499999999 6.2379288600000002 2.4572046200000002 O
atom 5.2731813799999996 6.2560895800000003 7.4616026900000003 O
atom -0.1813226600000000 3.5544798599999998 2.6971935500000002 O
atom -0.3276155500000000 3.5272130800000001 7.7325048900000004 O
atom -0.3426335300000000 8.5133181300000000 2.7239562799999999 O
atom -0.1986926200000000 8.5627074800000003 7.6830991099999997 O
atom 4.8792455400000003 3.7269782000000000 2.5478949100000001 O
atom 4.7793430700000004 3.7358541500000002 7.5473611800000002 O
atom 4.7648917900000001 8.7211049000000003 2.5381645100000001 O
atom 4.8617720200000001 8.7356357500000001 7.5330088000000002 O
atom 0.1272603700000000 3.8670192399999999 0.1131951100000000 O
atom 0.3279309500000000 4.0180932299999998 5.2492393100000001 O
atom 0.3130262100000000 9.0041446599999997 0.2402611400000000 O
atom 0.1094450200000000 8.8756304000000004 5.0993722400000001 O
atom 5.2116259400000002 3.8061492900000000 0.0383218400000000 O
atom 5.2823277400000004 3.8100702200000001 5.0291142300000002 O
atom 5.2669422700000004 8.7977775000000005 0.0190404700000000 O
atom 5.1935161100000000 8.8140705199999996 5.0234388799999996 O
atom 2.8377251900000000 1.5071456400000001 2.7414412200000000 O
atom 2.6918860499999999 1.4807964100000000 7.7016872400000000 O
atom 2.6772872500000000 6.4663497599999999 2.6930030299999999 O
atom 2.8192214899999999 6.5153023100000000 7.7268232299999999 O
atom 7.8484940200000004 1.3352083800000001 2.5560316699999999 O
atom 7.7488091299999997 1.3453896000000001 7.5515213699999997 O
atom 7.7345194800000003 6.3297481199999996 2.5433499899999998 O
atom 7.8303355000000003 6.3454611800000000 7.5431226899999997 O
atom 2.1845859299999999 1.0030577500000000 0.2593967000000000 O
atom 2.3839228299999999 1.1561085900000001 5.1185831300000002 O
atom 2.3702853300000002 6.1407032900000003 0.1099914800000000 O
atom 2.1652368000000002 6.0125889299999997 5.2448373200000002 O
atom 7.3481626499999999 1.2487512500000000 0.0378043800000000 O
atom 7.4182383800000000 1.2545324300000000 5.0417285700000001 O
atom 7.4038644700000003 6.2396791800000004 0.0339716500000000 O
atom 7.3292779699999997 6.2587075499999996 5.0246557999999997 O
atom 2.6870642100000000 3.5584007400000002 -0.2014589800000000 O
atom 2.8311516499999998 3.5321779300000000 4.7576707799999998 O
atom 2.8161637700000002 8.5167185599999993 -0.2511694300000000 O
atom 2.6691421100000001 8.5671901899999998 4.7845936399999998 O
atom 7.7434987399999997 3.7303636299999998 -0.0460244700000000 O
atom 7.8401272500000001 3.7410587199999998 4.9494068200000001 O
atom 7.8254313099999999 8.7253289899999995 -0.0602029300000000 O
atom 7.7256168000000001 8.7397929800000007 4.9390384000000003 O
atom 2.3762277799999998 3.8810943500000001 2.3811103999999998 O
atom 2.1718766800000000 4.0289747599999997 7.2373721299999998 O
atom 2.1573254199999998 9.0147335700000006 2.2292542100000001 O
atom 2.3591072799999999 8.8899981500000003 7.3671309300000001 O
atom 7.4108709599999996 3.8186115200000001 2.4639482899999998 O
atom 7.3370600399999999 3.8244846199999998 7.4674822299999999 O
atom 7.3219165999999998 8.8081845899999998 2.4575283200000002 O
atom 7.3933081899999999 8.8282461600000008 7.4490220400000000 O
