lattice_vector 9.9946661900000002 0.0117672000000000 -0.1064132000000000 
lattice_vector 0.0386568400000000 10.2141483599999994 0.0406748100000000 
lattice_vector -0.0361539800000000 0.0225319900000000 10.4262566600000000 
atom 1.0529468000000000 0.2597164400000000 2.2071583700000001 Si
atom 1.3567280100000001 0.2247996000000000 6.9349885200000001 Hf
atom 1.4090102600000001 5.3358079700000003 1.7831861300000000 Hf
atom 1.3832844000000000 5.3351270000000000 7.0197664800000004 Hf
atom 1.3669289700000000 2.4138635100000001 4.3763197500000004 Hf
atom 1.4520147800000001 2.2752968000000000 9.6275670400000006 Hf
atom 1.3529448500000001 7.4715667799999999 4.3821686900000003 Hf
atom 1.4286801400000000 7.4969647400000001 9.5983476999999997 Hf
atom 3.5844145900000002 2.7505933499999999 1.7180275800000000 Hf
atom 3.5969924400000002 2.7916918700000002 6.9653733700000000 Hf
atom 3.5781142099999999 7.9389466200000003 1.7068961300000001 Hf
atom 3.6199329200000001 7.8939638600000004 6.9550319600000003 Hf
atom 3.6018154000000000 4.9273939699999998 4.3668973700000002 Hf
atom 3.6003885400000000 4.8973562700000004 9.5897639399999992 Hf
atom 3.5864954600000001 10.0490043700000005 4.3219669999999999 Hf
atom 3.6312389999999999 10.0248347500000001 9.5814554300000001 Hf
atom 6.3973187899999999 0.2351301100000000 0.7392678900000000 Hf
atom 6.3214224300000001 0.2348382600000000 5.9834694500000003 Hf
atom 6.4093754799999996 5.3331105399999998 0.7748880600000000 Hf
atom 6.3869410899999997 5.3403048499999999 6.0067082799999998 Hf
atom 6.3609412000000001 2.3714588700000001 3.3693675100000000 Hf
atom 6.3926739799999996 2.3701571499999998 8.5999074400000008 Hf
atom 6.3455966400000001 7.4550716200000000 3.3673730700000002 Hf
atom 6.4034441600000003 7.4695163300000003 8.6146543700000002 Hf
atom 8.6990760700000003 2.7221634500000000 0.8019313300000001 Hf
atom 8.5850847199999993 2.7911484199999999 5.9823885800000003 Hf
atom 8.6916429399999995 7.9177252400000002 0.7808386700000000 Hf
atom 8.5900364800000002 7.8830930199999996 5.9982501600000004 Hf
atom 8.5938106100000002 4.9250509200000003 3.3651964599999999 Hf
atom 8.6450310399999992 4.8894136899999996 8.6284031900000002 Hf
atom 8.5207814200000005 9.9989346500000007 3.4407638299999999 Hf
atom 8.6374773800000000 10.0350922800000006 8.5962467799999995 Hf
atom 0.5718887200000000 1.4958103500000000 1.0723641600000000 O
atom 0.3288591100000000 1.7451664600000001 6.0975647600000000 O
atom 0.3971680700000000 6.8504320999999999 0.9255760700000000 O
atom 0.3381643900000000 6.8243929799999998 6.1163838000000004 O
atom 0.2684541500000000 0.8190934500000000 3.5879821100000000 O
atom 0.3463473100000000 0.8452701000000000 8.6983648299999992 O
atom 0.3350352000000000 5.9521762499999999 3.5179123099999998 O
atom 0.3622780700000000 5.9438740399999999 8.7550464699999999 O
atom 4.6847136699999998 4.2547164899999999 0.8570651000000000 O
atom 4.6418132800000000 4.3018743099999996 6.0680513600000001 O
atom 4.7454986500000000 9.3713023799999995 0.8558349400000000 O
atom 4.6272310900000004 9.4084602999999998 6.0509624899999999 O
atom 4.6267078599999998 3.3886811300000002 3.4766365499999998 O
atom 4.6688030400000002 3.4253326799999999 8.6575327899999994 O
atom 4.5850920100000003 8.5267915199999997 3.4504056300000001 O
atom 4.6820634999999999 8.5264272099999996 8.6534603499999996 O
atom 2.5178352799999999 1.2356653799999999 2.8816254400000001 O
atom 2.7455427700000001 1.2516502599999999 8.1671919499999994 O
atom 2.7406853999999998 6.4613084900000004 3.0542624500000000 O
atom 2.7824864800000002 6.3790175500000004 8.2606584900000009 O
atom 3.0465987999999999 1.4444403699999999 0.2423853100000000 O
atom 2.7526315100000001 1.3359952500000001 5.5677349400000002 O
atom 2.7997951500000000 6.3796258699999999 0.4481398400000000 O
atom 2.7499370700000001 6.4198481500000000 5.6558746099999997 O
atom 2.2378818500000000 3.8562194000000001 3.0764917100000000 O
atom 2.2306686099999999 3.8013902300000000 8.2920922899999994 O
atom 2.0751581200000002 9.1011368200000007 2.9266982900000000 O
atom 2.2385945100000000 8.9220170200000002 8.2137153600000001 O
atom 2.2202411199999998 3.8671126899999999 0.4682517700000000 O
atom 2.2074532699999998 3.8737485299999999 5.6698101400000001 O
atom 2.3558412899999999 8.9293409799999992 0.3487896100000000 O
atom 2.2230252600000000 8.9857866299999998 5.5987200799999997 O
atom 5.3513551899999996 1.7205711500000000 1.6673601300000001 O
atom 5.3266790100000003 1.7500540499999999 6.8659729900000004 O
atom 5.3270554199999998 6.8349149100000002 1.6650136099999999 O
atom 5.3591021599999999 6.8491967599999999 6.8825786300000003 O
atom 5.2909370899999999 0.8573497100000000 4.2402567099999997 O
atom 5.3894178799999999 0.8337750900000001 9.4330249300000002 O
atom 5.3289564199999999 5.9675242600000002 4.2768230799999998 O
atom 5.3471679600000002 5.9611688100000002 9.4904650400000001 O
atom 9.6857408500000002 4.2525339300000002 1.6622886200000000 O
atom 9.6551373500000004 4.2625449900000003 6.8935121600000002 O
atom 9.7644991799999996 9.4559559800000006 1.7367858599999999 O
atom 9.6526469699999993 9.3952669400000008 6.8522614199999996 O
atom 9.6192961100000005 3.4172446500000002 4.2496196099999999 O
atom 9.6970886800000002 3.3615806300000002 9.5514110500000005 O
atom 9.6042116699999998 8.5060901900000001 4.2618690299999997 O
atom 9.6719736699999999 8.5359842300000004 9.4825521399999992 O
atom 7.8066542200000004 1.2842328199999999 9.9123742099999994 O
atom 7.7148914399999997 1.2736483100000000 4.6987901000000001 O
atom 7.7924347400000000 6.3992866099999999 9.9398151400000003 O
atom 7.7468633599999999 6.3913120000000001 4.6993659499999998 O
atom 7.7780454499999996 1.2961615600000000 2.0910771300000000 O
atom 7.7461255800000002 1.3185990400000001 7.2886952300000001 O
atom 7.7666891299999996 6.4226736100000004 2.0921217500000000 O
atom 7.7841420599999998 6.4057028899999997 7.3294304300000004 O
atom 7.2686415400000000 3.8195975299999998 9.9481502200000005 O
atom 7.2131231400000004 3.8427518900000002 4.7049197800000000 O
atom 7.2631288600000001 8.9518544999999996 9.9305386799999997 O
atom 7.1744294999999996 8.9292182499999999 4.7194850300000004 O
atom 7.2627791000000004 3.8373185699999999 2.0892273299999999 O
atom 7.2344276799999996 3.8729445299999998 7.3227167299999998 O
atom 7.2877501999999996 8.9602184299999994 2.1076031000000000 O
atom 7.2356430600000001 8.9749632800000008 7.3206148700000000 O
