lattice_vector 10.0879109499999995 -0.0339283100000000 -0.0722300300000000 
lattice_vector 0.0732852700000000 10.1981344299999996 0.0323348500000000 
lattice_vector -0.0768830900000000 0.0089953200000000 10.5400760499999997 
atom 1.2135005500000000 0.0913776000000000 2.0160037499999999 Si
atom 1.3192914600000001 0.0617536400000000 6.9476517099999997 La
atom 1.4258095099999999 5.3764925699999999 1.7744431700000001 Hf
atom 1.3809703600000001 5.2350379199999999 7.0602150100000003 Hf
atom 1.3836633700000001 2.3446220699999998 4.3410969200000000 Hf
atom 1.3743725700000000 2.2840199299999999 9.7154491400000005 Hf
atom 1.3806822800000000 7.4251174799999999 4.4213050000000003 Hf
atom 1.3106631799999999 7.6855951300000003 9.5647522899999995 La
atom 3.6332597899999999 2.7998506500000002 1.7700338499999999 Hf
atom 3.6107301299999999 2.7478345700000002 7.0611680200000002 Hf
atom 3.6381693099999999 7.9245086699999998 1.7896605400000001 Hf
atom 3.7413260099999999 7.6750741600000003 6.8558096199999996 Hf
atom 3.6479601399999999 4.8549731100000004 4.4209149800000000 Hf
atom 3.5857798900000000 4.9149332000000001 9.6919420600000006 Hf
atom 3.6920200799999998 10.0161976799999994 4.3551015000000000 Hf
atom 3.6727557800000001 10.2223594099999993 9.8532260699999998 Hf
atom 6.4702279999999996 0.1701022100000000 0.7912568200000000 Hf
atom 6.3818770799999998 0.1973992700000000 6.0460582399999998 Hf
atom 6.4682606600000003 5.2913963900000001 0.7976000500000000 Hf
atom 6.4539376400000004 5.2644749099999997 6.0689771800000001 Hf
atom 6.4427504799999999 2.3058440600000001 3.3863330899999999 Hf
atom 6.4116180600000003 2.3578049600000002 8.6873677899999997 Hf
atom 6.4304144399999998 7.4006215700000002 3.4411840599999999 Hf
atom 6.6688519900000003 7.3026504799999996 8.7528973699999995 Hf
atom 8.8127748100000005 2.6516036399999998 0.8540941500000000 Hf
atom 8.6674313600000001 2.7246298000000002 6.0042394200000002 Hf
atom 8.7684426200000001 7.8575958699999999 0.9132361100000000 Hf
atom 8.7068282400000001 7.7908807700000002 6.1126591000000001 Hf
atom 8.7002423400000009 4.8563026400000000 3.3959800400000000 Hf
atom 8.7474220900000006 4.7479538200000002 8.7157363500000002 Hf
atom 8.7481062200000004 9.9561199100000000 3.5143066599999999 Hf
atom 8.6445931799999993 9.9825244400000006 8.7718650399999998 Hf
atom 0.5582741400000000 1.4178184300000001 0.9814156500000000 O
atom 0.2349484900000000 1.6716827999999999 5.9235366899999997 O
atom 0.2807838000000000 6.7183103900000001 0.8850781800000000 O
atom 0.3064224200000000 6.6604217500000003 6.0679547300000003 O
atom 0.3750203900000000 0.8319971500000000 3.4141952500000001 O
atom 0.1743387800000000 0.9476426400000000 8.7915003899999995 O
atom 0.2673923500000000 6.0729955799999997 3.4393964900000000 O
atom 0.3235319100000000 5.8532929600000001 8.7215046500000000 O
atom 4.7746322100000000 4.2029249799999997 0.7909690600000000 O
atom 4.7184081800000000 4.2138581300000002 6.0931639100000003 O
atom 4.8461575400000001 9.1674770399999996 0.6872168500000000 O
atom 4.8206684400000004 9.2535526699999995 6.0799683800000004 O
atom 4.7661198499999999 3.4522727400000002 3.4366591099999999 O
atom 4.7275720899999998 3.4850443900000001 8.7166059300000001 O
atom 4.7665586600000003 8.5958621599999994 3.3869621099999998 O
atom 3.1696216200000000 8.8517523600000008 8.4111232099999995 O
atom 2.6602785400000002 1.1730829199999999 2.8357555699999999 O
atom 2.7449556099999999 1.3065336400000001 8.3342346299999992 O
atom 2.7803734300000000 6.4087373300000001 3.0947131400000001 O
atom 2.8852871000000002 6.2500184200000000 8.1876515399999992 O
atom 3.1002837099999998 1.6442729599999999 0.2182799200000000 O
atom 2.8529130199999999 1.3619684200000000 5.5171275399999997 O
atom 2.8821135400000002 6.4729722100000000 0.4846127700000000 O
atom 2.7252023500000000 6.3010963599999998 5.6625570500000002 O
atom 2.2911647700000000 3.8346648399999999 3.1009598500000002 O
atom 2.2407498100000001 3.7793284900000002 8.3981304500000000 O
atom 2.1892565199999998 8.9868635300000008 3.0735516500000002 O
atom 2.2543357700000000 3.9539548199999999 0.4707961800000000 O
atom 2.2568105799999998 3.8050723899999999 5.7252258600000001 O
atom 2.2591090000000000 9.4399192099999993 0.7210320200000000 O
atom 2.5123042600000001 8.7642909299999996 5.5686553300000003 O
atom 5.3749358799999998 1.6052765700000000 1.7194949300000000 O
atom 5.3317533099999999 1.6586071099999999 7.0073551700000003 O
atom 5.3588031400000000 6.7150571399999999 1.8119203600000000 O
atom 5.4872088600000000 6.7905237200000004 7.1259082400000002 O
atom 5.3641189300000001 0.8725010200000000 4.3426227300000004 O
atom 5.4095346900000001 0.7826908900000000 9.5593916799999992 O
atom 5.3129020100000002 6.0688697100000004 4.4918696599999999 O
atom 5.3458244900000000 6.1101973400000000 9.6894668799999994 O
atom 9.8331609199999992 4.1239826800000001 1.7710156600000000 O
atom 9.7702563399999995 4.0446853799999998 7.0422991499999998 O
atom 9.9500067100000003 9.1972632500000007 1.9870839700000000 O
atom 9.7886389999999999 8.7680156999999994 7.5237687900000001 O
atom 9.7662133000000004 3.4601957699999999 4.3433134500000001 O
atom 9.7577701099999992 3.3380215500000001 9.7536088900000006 O
atom 9.9074254100000001 8.7292609500000005 4.7090484600000000 O
atom 9.6362094599999999 8.8871799599999992 10.0728525399999995 O
atom 7.7547941900000001 1.2319522899999999 10.0850907200000002 O
atom 7.7971948400000004 1.2385764200000000 4.7271921700000004 O
atom 7.8973006500000000 6.2928042000000000 10.0574470700000003 O
atom 7.8225880600000002 6.3223857299999997 4.7852513200000004 O
atom 7.8646215599999998 1.2252139200000001 2.1354916300000002 O
atom 7.7925401299999999 1.2602975999999999 7.3705076099999998 O
atom 7.7829000199999996 6.3419232100000000 2.1584864200000000 O
atom 7.8899912199999997 6.2924952999999997 7.4348648900000001 O
atom 7.3037817100000000 3.7650655199999998 10.0545993599999992 O
atom 7.2850311699999999 3.7995175300000001 4.7452429499999997 O
atom 7.1925454499999999 8.8086677699999996 10.0656065199999993 O
atom 7.3752833799999999 8.8659591199999994 4.7961435000000003 O
atom 7.3657312499999996 3.7715231100000000 2.1023118099999998 O
atom 7.2905499799999998 3.8030732600000001 7.3919066000000004 O
atom 7.4086430099999996 8.9252338499999997 2.1932745599999999 O
atom 7.2687360099999996 8.9090074900000005 7.4420144600000002 O
