lattice_vector 10.0924365399999996 -0.1039958400000000 0.1011655800000000 
lattice_vector -0.2189261600000000 10.0905336000000005 0.0470478400000000 
lattice_vector -0.1360245300000000 -0.0177206800000000 10.2033245299999997 
atom 1.2876457900000000 -0.0420518300000000 1.2383362200000001 Si
atom 1.0626319700000000 0.1042662400000000 6.4086488099999999 Hf
atom 1.2463753099999999 4.9725608499999998 1.3189716400000000 Hf
atom 1.0324500400000001 5.0637024300000002 6.3943859600000001 Hf
atom 6.3655798399999997 -0.1639622500000000 1.3462359800000001 Hf
atom 6.1946457800000001 -0.0261860900000000 6.4185835700000000 Hf
atom 6.0590576699999996 5.1098919900000004 1.7241389499999999 Hf
atom 6.1844133299999999 4.9143357500000002 6.4299175699999997 Hf
atom 1.2680060200000001 2.3438994000000002 3.7536724499999998 Hf
atom 1.0273297400000001 2.5749607800000001 8.9303670799999999 Hf
atom 1.0549035700000000 7.4937662500000002 3.8240418799999998 Hf
atom 0.9236633000000000 7.6031264800000002 8.8765036599999991 Hf
atom 6.3564258100000002 2.3526574000000000 3.7608532900000000 Hf
atom 6.1182768500000000 2.4633011800000002 8.9882404900000008 Hf
atom 6.2288695499999998 7.6472214799999998 3.9213805000000002 Hf
atom 5.9759261300000004 7.4504892800000002 9.0401021799999999 La
atom 3.8189953900000000 2.4547115200000000 1.2963758900000000 Hf
atom 3.6070702899999998 2.5507791100000001 6.4192617199999997 Hf
atom 3.4142177600000001 7.7311506500000000 1.2476909100000000 Hf
atom 3.3967499499999998 7.6696747199999997 6.4469368200000003 Hf
atom 8.7480460699999991 2.4563490099999998 1.2155573700000000 Hf
atom 8.6590561699999995 2.4679282200000001 6.4537072000000002 Hf
atom 8.6948580199999999 7.3853088299999996 1.3702466000000000 Hf
atom 8.5206818400000000 7.5163915699999997 6.4926571099999997 Hf
atom 3.8034430100000001 -0.0387902700000000 3.8138109099999999 Hf
atom 3.6178353799999998 0.0161035300000000 8.8642131299999996 Hf
atom 3.4894455799999999 4.8780437499999998 3.8797919599999999 Hf
atom 3.6081712399999999 5.0555675999999998 9.0053656800000006 La
atom 8.9566386399999995 -0.1898218700000000 3.8201093400000001 Hf
atom 8.6422284900000008 -0.0311603800000000 8.9896393000000003 Hf
atom 8.7870337799999998 4.8115986900000003 3.7990654899999998 Hf
atom 8.5968350200000003 4.9687055600000001 9.0259247100000000 Hf
atom -0.2436918900000000 1.4920268500000000 -0.3025523400000000 O
atom -0.0985466100000000 1.2761379900000001 4.8540400999999997 O
atom -0.3731783900000000 6.6103678500000003 -0.3018204300000000 O
atom -0.2352857400000000 6.2998154900000003 4.8558295200000003 O
atom 4.7276601500000002 1.4662566900000000 -0.2790138900000000 O
atom 4.9712843600000003 1.2463630500000000 4.8804997999999999 O
atom 4.7892272599999997 6.3821876399999997 0.6633149500000000 O
atom 4.7917729299999996 6.2813475099999998 7.1096531100000000 O
atom 0.3304168800000000 0.8895221200000000 2.2447991699999998 O
atom -0.1928043800000000 1.3266697500000000 7.4080489199999997 O
atom -0.0925343800000000 6.0797850100000002 2.3025344699999999 O
atom -0.2177295300000000 6.3643126600000004 7.3865497500000004 O
atom 5.2287760900000002 1.1511734700000000 2.3276173700000000 O
atom 4.8633524000000001 1.1939390700000001 7.4096828600000002 O
atom 5.0959306599999996 6.0359810899999999 3.3999079100000000 O
atom -0.1498272900000000 3.4818806100000002 2.7245631200000000 O
atom -0.1630590300000000 3.8440299400000000 7.8475317999999996 O
atom -0.4352212400000000 8.4649439399999995 2.8746968300000000 O
atom -0.4012066100000000 8.8927541100000003 7.9314635100000004 O
atom 4.8679671999999998 3.5949495699999998 2.8148080900000001 O
atom 4.9595571400000003 3.6439593000000001 7.7915337899999999 O
atom 4.6816962000000002 8.6523363399999997 2.7346492900000001 O
atom 4.5744915600000002 8.8544866300000002 7.7658993000000001 O
atom -0.0229528400000000 3.9723450400000000 0.1719237200000000 O
atom -0.3032021500000000 3.8736206200000001 5.2882438499999997 O
atom 0.1296600600000000 9.0319102699999991 0.3785074900000000 O
atom -0.1146533100000000 8.8058257300000005 5.3346944399999998 O
atom 5.2419781199999997 3.7786014799999998 0.3331858500000000 O
atom 4.6671618800000001 4.0079373299999999 5.3680658399999999 O
atom 4.8429857399999996 9.0418484699999997 0.2106263800000000 O
atom 4.9292690900000000 8.6583291300000003 5.2784197600000002 O
atom 2.8314534800000000 1.4562922700000001 2.8714410300000002 O
atom 2.3256066700000000 1.3401744799999999 7.9203487099999998 O
atom 2.4864251600000000 6.4326151800000000 2.7024288699999999 O
atom 2.2067901200000000 6.4598138900000004 7.7315811900000000 O
atom 7.8178577999999996 1.2276676500000001 2.7922970100000000 O
atom 7.3763182799999996 1.1622896800000000 7.9081240199999998 O
atom 7.5433179399999997 6.2996580800000004 2.8550950700000000 O
atom 7.4209018400000000 6.1330794800000001 7.8291199300000001 O
atom 2.3014836900000000 0.9244385800000000 0.3569931900000000 O
atom 2.4573441200000001 1.0942240500000000 5.3212081900000001 O
atom 2.1372357000000002 6.3034883600000002 0.1714047900000000 O
atom 2.4415941299999999 6.1438657399999999 5.2416423400000003 O
atom 7.3640196900000001 1.1348599500000001 0.2304671000000000 O
atom 7.3892802199999998 1.3377481000000000 5.3509903599999999 O
atom 7.4019498300000004 5.9615630399999997 0.3660484500000000 O
atom 7.0899894899999998 6.4567817800000000 5.4045202200000002 O
atom 2.4885967400000002 3.5097700199999999 -0.0042755000000000 O
atom 2.2324978000000000 3.6038234099999999 4.9884588000000001 O
atom 2.5851216500000000 8.5751793900000006 -0.3851338100000000 O
atom 2.4418557800000000 8.6386312099999998 4.7930966599999998 O
atom 7.7568199000000000 3.4596470600000000 -0.2761718100000000 O
atom 7.2682986800000000 3.8651346700000002 4.8767215000000004 O
atom 7.6441530499999999 8.7218378399999992 0.0727597600000000 O
atom 7.4709874300000001 8.9013315899999998 5.0670832299999997 O
atom 2.4124660400000000 3.8338690600000001 2.4712944299999999 O
atom 2.2898447499999999 3.7880815999999999 7.4626029500000000 O
atom 2.0487536600000000 9.0680749600000006 2.2520129500000001 O
atom 2.0996479500000000 8.9383116000000005 7.4021361299999997 O
atom 7.4638565000000003 3.7099006499999998 2.3524447999999998 O
atom 7.4174388300000000 3.6806798900000000 7.4783266700000004 O
atom 7.2817181399999997 8.7559409600000002 2.5444115200000001 O
atom 7.2510390700000000 8.8067005500000004 7.5357010600000001 O
