lattice_vector 10.0992942200000009 0.0621682700000000 0.7645402400000000 
lattice_vector 0.0158575100000000 10.2252745600000008 -0.0083703700000000 
lattice_vector 0.9142116700000000 -0.0304721200000000 10.4988378600000001 
atom 1.2639650200000001 0.2393257100000000 1.7685811199999999 Si
atom 1.9707176799999999 0.1788266300000000 6.8623214399999997 Hf
atom 1.5041713500000000 5.3526689699999999 1.6454611800000001 Hf
atom 2.0328160700000000 5.2886926200000000 6.8789400000000001 Hf
atom 6.5575876600000003 0.2762089600000000 1.9901068000000000 Hf
atom 7.0639786500000001 0.2516417500000000 7.2349986800000003 Hf
atom 6.5510051200000001 5.3834118100000001 2.0052339099999998 Hf
atom 7.0400162499999999 5.3499808299999998 7.2666575800000004 Hf
atom 1.7461776499999999 2.2807325700000001 4.1761646099999998 Hf
atom 2.2393443700000000 2.3197012699999999 9.4378808500000009 Hf
atom 1.7581889100000001 7.4001781800000002 4.3186695100000003 Hf
atom 2.1677488500000002 7.4243031600000000 9.4666882300000008 Hf
atom 6.8116120200000001 2.3517358800000001 4.6177932799999999 Hf
atom 7.3018871299999999 2.4262103200000000 9.9064749499999998 Hf
atom 6.8120382700000004 7.4623778400000003 4.6355253999999997 Hf
atom 7.3677898400000004 7.4273029499999996 9.9047300499999995 Hf
atom 3.6991655500000000 2.7948763300000001 1.3355354600000000 Hf
atom 4.2132262100000002 2.7803201000000000 6.6018134999999996 Hf
atom 3.6372835399999999 7.9086660300000000 1.5206842500000000 Hf
atom 4.2239653700000002 7.8954519200000002 6.6345670099999996 Hf
atom 8.8582538399999997 2.7733462499999999 1.7883686200000000 Hf
atom 9.2858064400000000 2.7957757900000000 6.9933515000000002 Hf
atom 8.8180534300000009 7.9699907500000000 1.7688853899999999 Hf
atom 9.2538823800000003 7.9034706699999999 7.0176505000000002 Hf
atom 3.9874331700000001 4.8739573700000003 3.9907631800000001 Hf
atom 4.4530705700000004 4.9467423600000000 9.2628509700000006 Hf
atom 3.9684507299999998 9.9969008899999992 3.9545475500000000 Hf
atom 4.5404579199999997 10.0148114699999997 9.4256143399999992 La
atom 9.0128548700000000 4.9174644199999999 4.3845902299999997 Hf
atom 9.5235274899999993 4.8827982099999998 9.6501107099999999 Hf
atom 9.0085932199999998 10.0076853499999991 4.3912171700000000 Hf
atom 9.4925128099999991 10.0634092899999992 9.6115979500000002 Hf
atom 0.5362416500000000 1.5010260300000000 0.8585381000000000 O
atom 0.8487116500000000 1.5913880700000000 5.9651829000000003 O
atom 0.3974409600000000 6.7969405199999997 0.8231933200000000 O
atom 0.8655203200000000 6.7489299500000000 6.1199499299999998 O
atom 5.4108523100000001 1.6761277999999999 1.1259766400000000 O
atom 5.8841077100000003 1.6280464900000000 6.3652115499999997 O
atom 5.4197283799999996 6.8767361300000003 1.1447921400000001 O
atom 5.8988373400000000 6.7330820999999998 6.3760334800000003 O
atom 0.6350676800000000 0.7716167100000000 3.3379838300000002 O
atom 1.0946929500000000 0.8384050700000000 8.6853880399999994 O
atom 0.6232236300000000 5.9560529200000003 3.4730772800000000 O
atom 1.1143596300000000 5.9446440400000000 8.7059665400000004 O
atom 5.6358028899999999 0.9501313000000000 3.7394528500000002 O
atom 6.2878136199999997 1.0489375200000000 8.9435539300000002 O
atom 5.6692952400000003 6.0358537200000004 3.7844089400000001 O
atom 6.1072188299999999 6.1511835499999998 9.0150440700000001 O
atom 4.8966206400000001 4.2429396800000001 2.2093485500000001 O
atom 5.3694223499999998 4.2013681800000002 7.4906208400000001 O
atom 4.8697496700000000 9.3738033099999996 2.1065106500000002 O
atom 5.4701033199999998 9.2373754300000002 7.4113360899999998 O
atom 9.9615128399999993 4.2407197300000004 2.6001533700000001 O
atom 10.4355444399999993 4.2095927599999996 7.8609683400000003 O
atom 9.9850029599999992 9.4459235699999997 2.5733111499999999 O
atom 10.3621792900000003 9.3686615199999999 7.8234016700000000 O
atom 5.1436021399999996 3.4836693200000002 4.8363298400000003 O
atom 5.6697211100000002 3.6127665400000000 10.1410180800000003 O
atom 5.1195004900000001 8.5794639099999994 4.7887179299999998 O
atom 10.1472889399999993 3.4435875500000002 5.1703405800000004 O
atom 10.6413648199999997 3.4460397600000001 10.5202568700000008 O
atom 10.1560785100000004 8.5694257399999998 5.2178523900000000 O
atom 10.5826599100000003 8.5784419300000003 10.4573215499999996 O
atom 2.7607093599999999 1.1622743400000000 2.4722109099999998 O
atom 3.3667705899999998 1.3480935800000000 7.8242117100000002 O
atom 2.9867972900000002 6.3613653200000000 2.7368565600000001 O
atom 3.4735754000000001 6.4001453200000000 7.9603772800000003 O
atom 8.0536793899999992 1.3296606799999999 3.1046483600000001 O
atom 8.6187346799999993 1.3419263500000000 8.3236290099999994 O
atom 8.0572753499999994 6.4653191200000002 3.1008492900000002 O
atom 8.5436205800000007 6.4265978199999996 8.3757376699999995 O
atom 3.2360859899999999 1.2568309300000000 5.2126594600000002 O
atom 3.8232783100000001 1.6508134900000000 10.3715525500000005 O
atom 3.2498794599999998 6.3248131499999998 5.3601399799999996 O
atom 3.7019682999999999 6.5380690000000001 10.5801040999999998 O
atom 8.2892013200000001 1.2602475000000000 5.7075713900000000 O
atom 8.7487364799999998 1.2753084800000001 10.9945152999999998 O
atom 8.2919338400000004 6.3664750300000001 5.7431842599999996 O
atom 8.7632890099999994 6.3707787400000004 10.9884133500000001 O
atom 2.2922399300000000 4.0560372500000001 0.2714683200000000 O
atom 2.7278102099999999 3.8381007899999999 5.5121911800000003 O
atom 2.1668111900000002 9.3505246199999998 0.7140336100000000 O
atom 2.7644934200000000 8.9746330499999996 5.5646884999999999 O
atom 7.3970748899999998 3.9239979500000000 0.7062857900000000 O
atom 7.7873380200000000 3.8805796500000000 5.9207399000000001 O
atom 7.3104896699999999 9.0328569900000009 0.6559882100000000 O
atom 7.7988453399999997 8.9819652100000003 5.8973099299999996 O
atom 2.5340472300000001 3.7393241599999998 2.9039873500000000 O
atom 2.9997473399999999 3.8183821800000000 8.1612289300000000 O
atom 2.5504601700000000 8.8009136600000009 3.0701718699999998 O
atom 2.9019934799999998 8.8324991900000001 8.1385419599999995 O
atom 7.5725482099999999 3.8188840100000001 3.2799250000000000 O
atom 8.0469574300000009 3.8440803200000002 8.5502598800000005 O
atom 7.5829986299999996 8.9482289999999995 3.2759451300000002 O
atom 7.9964933699999996 8.9228326700000000 8.5603972299999995 O
