lattice_vector 10.1222833600000008 0.0245901700000000 0.7819997700000000 
lattice_vector -0.0125540800000000 10.2651570400000001 -0.0265723200000000 
lattice_vector 0.7840996900000000 0.0179395600000000 10.4757009900000000 
atom 1.3880074499999999 0.0625255100000000 1.8484358100000000 Si
atom 1.8906701299999999 0.1999673900000000 6.8423353899999997 Hf
atom 1.5681871900000000 5.3500691900000001 1.5583382600000000 Hf
atom 1.8640491600000000 5.3672146800000000 6.8402423099999998 Hf
atom 6.5859753200000002 0.2270891000000000 2.0261264899999998 Hf
atom 6.9486304600000004 0.2917907700000000 7.2423468099999999 Hf
atom 6.4417848199999996 5.4839105400000001 1.9310403100000000 Hf
atom 6.9356847600000000 5.4217838499999997 7.3305272900000000 Hf
atom 1.6812901300000000 2.3200624699999999 4.1808709500000001 Hf
atom 2.2326471200000002 2.2882914300000001 9.4060446399999993 Hf
atom 1.7156697700000001 7.5554575100000001 4.2493728700000002 Hf
atom 2.0543025600000000 7.5135437999999999 9.4568329299999991 Hf
atom 6.7695567499999996 2.5730154700000001 4.5628227299999997 La
atom 7.1711229799999998 2.3954232599999998 9.9455591499999993 Hf
atom 6.6879114499999996 7.5403593799999999 4.6342223000000002 Hf
atom 7.1404776400000003 7.5662661599999996 9.8482476000000005 Hf
atom 3.7193162700000002 2.7424279500000002 1.3373702700000001 Hf
atom 4.0701706599999996 2.8228846100000000 6.5885125100000002 Hf
atom 3.6401257299999998 8.0393945799999997 1.3220490199999999 Hf
atom 4.1003666599999997 7.9370253599999998 6.6233539500000003 Hf
atom 9.1359059600000005 2.5735780699999999 1.6394923200000000 Hf
atom 9.2330907399999997 2.7707198300000000 7.0659376600000003 Hf
atom 8.8080884299999997 7.9809039799999999 1.7446634400000001 Hf
atom 9.1213195500000008 7.9523807900000003 7.0013150900000003 Hf
atom 3.8311011300000000 4.9712119499999998 3.9637830200000002 Hf
atom 4.3253858400000000 4.9512777699999999 9.2133692099999998 Hf
atom 3.9101393899999999 10.0793932799999997 3.9088387800000000 Hf
atom 4.3383055199999996 10.1400541799999999 9.1994989300000007 Hf
atom 9.1110920600000007 5.0818780800000001 4.4703374800000004 La
atom 9.4137427599999999 4.9347541799999997 9.7122099100000003 Hf
atom 8.9645284099999998 10.0842255099999996 4.3873694600000004 Hf
atom 9.3809898399999998 10.0941468299999997 9.5687269599999993 Hf
atom 0.7073545700000000 1.4160702400000000 0.8600694600000000 O
atom 0.8562294300000000 1.7041825799999999 6.0807262000000000 O
atom 0.3786915400000000 6.8209143599999997 0.8493604400000000 O
atom 0.7288163100000000 6.8307444799999999 6.0226098600000002 O
atom 5.5044540399999997 1.7389857500000001 1.2711524700000001 O
atom 5.7818700900000000 1.7366958100000001 6.5059172500000004 O
atom 5.3970451800000001 6.9168307200000001 1.1637739100000000 O
atom 5.7576649800000004 6.8415389400000004 6.4438728799999998 O
atom 0.6739101600000000 0.7169489000000000 3.3660700600000002 O
atom 1.0196531700000000 0.8337394200000000 8.6824585200000008 O
atom 0.9567069400000000 5.8921437900000004 3.4611823300000002 O
atom 0.9927312600000000 6.0088177900000002 8.7030556200000007 O
atom 5.6604618899999997 0.7616004700000000 3.8149923900000000 O
atom 6.1219027700000002 0.8990464300000000 9.0983240199999997 O
atom 5.7410685199999998 5.8505869600000002 3.8841783200000002 O
atom 6.0068413999999999 6.0898442499999996 9.0827788300000005 O
atom 4.8668566499999999 4.2435137999999997 2.2151635199999999 O
atom 5.2176929799999998 4.2906038000000004 7.4377808800000000 O
atom 4.8353972699999996 9.4017733099999994 2.1242078400000000 O
atom 5.2062062999999998 9.4538403899999999 7.3663660499999999 O
atom 9.9802546299999992 4.1783677900000002 2.4640070399999998 O
atom 10.2615392799999992 4.3334232799999999 7.8220241300000000 O
atom 10.0091004899999998 9.4290710999999998 2.5373329800000000 O
atom 10.2647016600000001 9.4440910000000002 7.7557377599999997 O
atom 4.7807598100000002 3.4734309400000001 4.8147163900000001 O
atom 5.5321484099999996 3.5866632799999998 10.1083863500000000 O
atom 4.9311192500000001 8.5111692699999999 4.7157670500000002 O
atom 5.3445906299999999 8.6058640000000004 9.9901433300000004 O
atom 10.0104301299999996 3.1516840400000001 5.1454201800000003 O
atom 10.5710654999999996 3.3503431699999999 10.3488418400000004 O
atom 10.0179715599999994 8.5063934799999998 5.1233439699999996 O
atom 10.4512682600000009 8.5801874900000001 10.3923754499999994 O
atom 2.8248058399999998 1.1500903800000000 2.4795948700000001 O
atom 3.3395530500000001 1.3041848000000000 7.8600614200000001 O
atom 3.0842505999999998 6.5336380800000002 2.6465329400000002 O
atom 3.3201112699999999 6.4742727000000002 7.9440602100000000 O
atom 8.1573179099999997 1.3595834499999999 3.0223435400000001 O
atom 8.4394968299999995 1.3741636900000000 8.3834654600000000 O
atom 7.8895692500000001 6.5655693599999996 3.0202548199999999 O
atom 8.4316967100000006 6.5047459500000002 8.4002526000000000 O
atom 3.1627689100000000 1.2573567100000000 5.2378561100000001 O
atom 3.8581444600000001 1.5099642099999999 10.3069189100000003 O
atom 3.1380651300000002 6.4108464400000003 5.3393803899999996 O
atom 3.5234521800000000 6.4761323199999996 10.5417579400000001 O
atom 8.3007742199999992 1.1988395400000000 5.8168812399999998 O
atom 8.6663299400000007 1.2546914899999999 10.9561639900000003 O
atom 8.0566411299999992 6.5502225999999997 5.8552789199999999 O
atom 8.5745913799999993 6.4281735400000004 10.9369789999999991 O
atom 2.2999143000000002 3.9255501000000002 0.2262448200000000 O
atom 2.4956555300000001 3.9255254800000001 5.4822056200000002 O
atom 2.2058126599999999 9.3733020699999994 0.4293574600000000 O
atom 2.6374119800000000 9.0343908000000006 5.4949484100000001 O
atom 7.4867333699999996 3.8734430600000000 1.0052433500000000 O
atom 7.7792735500000001 3.9666926000000000 6.1757409699999997 O
atom 7.3148210999999996 9.0443849299999997 0.6448455900000000 O
atom 7.6533835799999999 9.0648175799999997 5.8724400699999997 O
atom 2.4948773499999999 3.7477321199999998 2.8395923900000000 O
atom 2.8614468199999998 3.8156574900000000 8.1078589399999998 O
atom 2.3158208600000001 9.0062022000000006 2.8309438400000002 O
atom 2.8462944200000000 8.9541397000000007 8.1667726199999997 O
atom 7.9358873200000000 3.8886354200000000 8.7343665799999997 O
atom 7.5722534399999999 9.0063909399999993 3.2654729400000000 O
atom 7.8901145000000001 8.9936242199999992 8.4952300800000007 O
