lattice_vector 10.0571428800000007 0.0009108900000000 -0.0001797000000000 
lattice_vector 0.0005043400000000 10.2207686700000000 -0.0000607800000000 
lattice_vector -0.0002126300000000 0.0024504500000000 10.0569141500000008 
atom 1.2633944699999999 0.0035536000000000 1.2632209000000001 La
atom 1.2629287000000000 0.0047141700000000 6.2915001100000003 Hf
atom 1.2638820500000001 5.1140234500000004 1.2635002000000000 Hf
atom 1.2637945700000000 5.1156525000000004 6.2919737800000002 Hf
atom 6.2918357100000000 0.0038696000000000 1.2629087100000000 Hf
atom 6.2917995700000002 0.0048797300000000 6.2916512400000002 Hf
atom 6.2924319000000004 5.1149282899999999 1.2634327700000001 Hf
atom 6.2922051200000002 5.1161121100000004 6.2918569800000004 Hf
atom 1.2445316799999999 2.5812868899999999 3.8052624000000002 Hf
atom 1.2840938700000000 2.5826398400000001 8.7789938700000008 Hf
atom 1.2838913300000001 7.6479664400000003 3.8047918599999999 Hf
atom 1.2440367100000000 7.6490555300000000 8.7787061899999994 Hf
atom 6.2901612599999996 2.5566250600000000 3.7773310400000000 Hf
atom 6.2951060099999996 2.5580706800000002 8.8070272799999998 Hf
atom 6.2951105800000002 7.6732279500000002 3.7769115000000002 Hf
atom 6.2898192100000001 7.6744385099999999 8.8065548299999996 Hf
atom 3.8057522200000000 2.5808694299999999 1.2441198300000000 Hf
atom 3.7778235400000000 2.5570435300000001 6.2895973900000000 Hf
atom 3.8055266900000002 7.6475314200000000 1.2832476700000000 Hf
atom 3.7776471699999998 7.6736816299999999 6.2942620900000001 Hf
atom 8.7795965599999999 2.5815494499999998 1.2835241799999999 Hf
atom 8.8075332500000005 2.5576826499999998 6.2946742599999999 Hf
atom 8.7796323100000002 7.6477373000000002 1.2432156700000001 Hf
atom 8.8073866600000006 7.6739771299999999 6.2889964799999998 Hf
atom 3.7996096600000002 0.0262076700000000 3.7993899999999998 Hf
atom 3.7993350700000001 -0.0157828000000000 8.7831011199999995 Hf
atom 3.7864570700000000 5.1078920800000001 3.7860938300000000 Hf
atom 3.7862811900000000 5.1220830199999998 8.7977779500000004 Hf
atom 8.7832510799999994 -0.0165522500000000 3.7991076000000001 Hf
atom 8.7835516400000007 0.0280302200000000 8.7834292600000001 Hf
atom 8.7982213700000003 5.1213124600000004 3.7860526700000001 Hf
atom 8.7978904399999998 5.1099198399999999 8.7973309000000004 Hf
atom -0.0316046100000000 1.5886108000000001 -0.0319093700000000 O
atom 0.0784439800000000 1.5323587599999999 5.1398850999999999 O
atom 0.0493458300000000 6.5929754500000000 0.0486681300000000 O
atom 0.0138190800000000 6.6151113400000003 5.0720588299999996 O
atom 5.1402434599999998 1.5315736700000000 0.0782906000000000 O
atom 5.0747038800000004 1.5190461000000000 5.0744518400000000 O
atom 5.0727077100000004 6.6143233199999996 0.0133963700000000 O
atom 5.0358681199999999 6.6299644999999998 5.0352548199999996 O
atom -0.1373837300000000 1.2026965800000000 2.6649443200000000 O
atom -0.0166732100000000 1.0398789500000001 7.5767589700000002 O
atom -0.0162078600000000 6.1386119600000004 2.5416622200000001 O
atom 0.0112655300000000 6.1568568499999996 7.5807272399999999 O
atom 5.0078550699999997 1.0389159100000001 2.5438830100000001 O
atom 5.0195128599999999 1.0525539799999999 7.5648765600000001 O
atom 5.0019901999999998 6.1557256499999999 2.5145051299999999 O
atom 5.0337994000000004 6.1584450000000004 7.5492108099999999 O
atom 0.0497113100000000 3.6346537200000002 2.4779396899999999 O
atom 0.0138432500000000 3.6153457499999999 7.5116329700000000 O
atom -0.0316477300000000 8.6395614700000003 2.5583719600000001 O
atom 0.0783033900000000 8.6981730400000004 7.4437021799999998 O
atom 5.0731521700000002 3.6144799600000002 2.5133378199999998 O
atom 5.0360032800000001 3.6010191499999999 7.5482714399999997 O
atom 5.1402269499999997 8.6972801999999998 2.4481920300000000 O
atom 5.0748290999999996 8.7120308099999999 7.5088210100000001 O
atom -0.0151054000000000 4.0891761300000002 -0.0154010200000000 O
atom 0.0123341200000000 4.0737786199999997 5.0026102799999999 O
atom -0.1373435200000000 9.0249624300000004 -0.1381358600000000 O
atom -0.0172624200000000 9.1907115800000003 5.0069958600000000 O
atom 5.0031364700000003 4.0729906400000004 0.0120324200000000 O
atom 5.0348357000000004 4.0724722199999999 5.0346098200000000 O
atom 5.0077901400000000 9.1899363199999993 -0.0176139300000000 O
atom 5.0190961999999999 9.1785802000000007 5.0186048200000002 O
atom 2.5593457800000001 1.5883105500000001 2.5590639400000001 O
atom 2.4495239999999998 1.5322485400000001 7.4445713700000002 O
atom 2.4769101999999998 6.5937759299999996 2.4764523999999999 O
atom 2.5124257200000000 6.6156400800000004 7.5099556400000003 O
atom 7.4450269300000000 1.5315458300000000 2.4493544799999998 O
atom 7.5100504700000004 1.5199464800000000 7.5097515599999998 O
atom 7.5105681000000004 6.6148704000000000 2.5118699400000000 O
atom 7.5475819000000000 6.6309674799999998 7.5470313100000004 O
atom 2.6653248800000000 1.2023455000000001 -0.1376116000000000 O
atom 2.5442865900000000 1.0393647300000000 5.0073904799999998 O
atom 2.5422077600000001 6.1383897300000001 -0.0167392800000000 O
atom 2.5150595199999999 6.1561210199999996 5.0013259200000002 O
atom 7.5771644299999998 1.0388178100000001 -0.0168256400000000 O
atom 7.5653077599999996 1.0521043200000000 5.0191159499999998 O
atom 7.5814382199999999 6.1557844399999997 0.0106806200000000 O
atom 7.5497723299999997 6.1580687400000000 5.0332709299999996 O
atom 2.4784016400000000 3.6344140700000001 0.0493723800000000 O
atom 2.5137986200000002 3.6149236800000000 5.0726131700000003 O
atom 2.5591718700000001 8.6394527900000000 -0.0322870000000000 O
atom 2.4487198200000000 8.6978483799999999 5.1395641699999999 O
atom 7.5122213100000002 3.6143127100000001 0.0133157500000000 O
atom 7.5488379099999996 3.6006618600000002 5.0353944700000000 O
atom 7.4447121400000000 8.6971185000000002 0.0775641300000000 O
atom 7.5094619099999997 8.7116179700000007 5.0742141800000002 O
atom 2.5429072000000001 4.0894499299999998 2.5425247600000001 O
atom 2.5152227900000002 4.0742711500000004 7.5814266699999999 O
atom 2.6654034400000000 9.0256359899999996 2.6646525799999998 O
atom 2.5445814000000002 9.1910269099999997 7.5759435499999999 O
atom 7.5820213799999996 4.0734421100000002 2.5147476800000002 O
atom 7.5499237199999998 4.0733224400000001 7.5492117299999997 O
atom 7.5769621500000000 9.1900845699999998 2.5437077200000000 O
atom 7.5655637000000002 9.1792632699999999 7.5647103400000004 O
