lattice_vector 10.0935883200000003 0.0606809300000000 -0.0700696600000000 
lattice_vector 0.0275695800000000 10.2564477000000007 -0.0248462700000000 
lattice_vector -0.0063019900000000 -0.0057578300000000 10.5112185900000004 
atom 1.0977711299999999 0.1000596200000000 1.7601226100000000 Si
atom 1.3601252500000001 0.2269116200000000 7.0509158799999998 Hf
atom 1.3492291199999999 5.2706744399999996 1.7133151099999999 Hf
atom 1.4123284500000000 5.3938975899999999 6.9954150200000003 Hf
atom 1.2486871900000001 2.3852691799999999 4.4109860000000003 Hf
atom 1.4857244300000001 2.3277918299999998 9.6676318699999992 Hf
atom 1.4032519699999999 7.6066190300000001 4.2527241499999997 La
atom 1.3501665899999999 7.5386722400000004 9.6258250400000005 Hf
atom 3.7579462200000000 2.9222078800000002 1.6291456799999999 Hf
atom 3.6458922500000002 2.8379648000000000 6.9909547700000001 Hf
atom 3.6011395099999999 7.9925053799999999 1.7046538899999999 La
atom 3.6703076499999998 7.9482263599999996 7.0437840200000004 Hf
atom 3.6601565300000001 4.9005649800000004 4.4019657399999996 Hf
atom 3.6310398300000002 4.9911646200000002 9.5799918399999999 Hf
atom 3.7926447900000002 10.1061364099999995 4.5110624200000000 Hf
atom 3.6669850799999999 10.1582804299999996 9.6375464100000006 Hf
atom 6.4688638899999997 0.2917757100000000 0.7292908400000000 Hf
atom 6.4802185899999998 0.2828294400000000 6.0782990400000001 Hf
atom 6.5145398300000004 5.4171073700000001 0.7609596500000000 Hf
atom 6.4440002600000001 5.4056348700000001 6.0461908299999996 Hf
atom 6.4636468300000001 2.4305564400000002 3.3897657200000002 Hf
atom 6.4436284199999996 2.4256694699999999 8.6435598900000006 Hf
atom 6.4533822799999996 7.5192693899999998 3.4548591700000002 Hf
atom 6.4557929900000000 7.5369997700000004 8.6768058799999999 Hf
atom 8.7502431400000003 2.7761612800000002 0.7605158000000000 Hf
atom 8.6630789700000008 2.8575056499999998 6.0637325700000000 Hf
atom 8.7013579599999993 7.9547508000000002 0.7965919400000000 Hf
atom 8.6779074900000008 7.9720029800000001 6.0649420000000003 Hf
atom 8.6701716999999991 4.9689713800000002 3.3827936699999999 Hf
atom 8.7503687200000009 4.9495742299999996 8.6615406200000002 Hf
atom 8.6831845899999998 10.1638569400000005 3.4041489700000001 Hf
atom 8.7384185799999994 10.1084898299999999 8.6559754899999994 Hf
atom 0.5137545200000000 1.4222005000000000 0.8460033800000000 O
atom 0.2521129000000000 1.6030879499999999 6.0712136900000004 O
atom 0.3449974700000000 6.8308378500000000 0.8931133400000000 O
atom 0.2549944900000000 6.7669502899999996 6.1186951199999999 O
atom 0.3592810500000000 0.9661087200000000 3.2675553200000000 O
atom 0.3224494200000000 0.9275473900000000 8.7202330000000003 O
atom 0.3107232300000000 5.8405756100000001 3.4220754200000001 O
atom 0.3313374100000000 6.0506847300000004 8.7344458500000002 O
atom 4.7438592799999997 4.3835632899999997 0.7824800500000000 O
atom 4.7353252000000001 4.2990233199999999 6.1098074300000000 O
atom 4.7830805800000000 9.5817584900000004 0.7298445800000000 O
atom 4.7857405200000001 9.5001753900000008 6.2033736499999996 O
atom 4.7454444300000000 3.4808951200000000 3.4262649800000000 O
atom 4.7206019799999996 3.4847485900000001 8.6975576700000001 O
atom 4.6674353000000002 8.5084278799999993 3.6925906999999998 O
atom 4.7157356400000001 8.5816568699999998 8.7572586000000001 O
atom 2.4251362400000001 -0.2328915600000000 2.8676889499999998 O
atom 2.7752693200000000 1.2978472700000001 8.2292850400000006 O
atom 2.8141788000000001 6.0479993800000003 2.9360752300000001 O
atom 2.7779658899999999 6.4454324099999996 8.2650234699999992 O
atom 3.0512735800000002 1.5451370499999999 0.2969752400000000 O
atom 2.7701671999999999 1.4155364500000001 5.5439240200000004 O
atom 2.6446044799999999 6.4108615999999996 0.2679510400000000 O
atom 2.8715691300000001 6.4267028799999997 5.7263400799999999 O
atom 2.2742019800000000 3.4600101900000002 2.9988907800000000 O
atom 2.2819310700000002 3.8657433299999999 8.3008283499999997 O
atom 2.2841263000000001 8.9919429700000002 8.3732577999999993 O
atom 2.2864971900000000 3.9218729400000001 0.3934532000000000 O
atom 2.2338999099999999 3.9109323300000001 5.6658977100000003 O
atom 1.9886189400000001 9.3981201399999996 0.4423733900000000 O
atom 2.3835103700000002 9.1130433199999992 5.7789792599999998 O
atom 5.4160323300000002 1.7594944400000001 1.7088724900000001 O
atom 5.3989153700000001 1.7951367800000000 6.9300338799999999 O
atom 5.5965027400000000 6.9241342299999999 1.6970082099999999 O
atom 5.4182582500000001 6.9081357900000002 6.9517205300000002 O
atom 5.3947247100000002 0.9518522600000000 4.3480909700000003 O
atom 5.4343637700000000 0.9201048200000000 9.5085339300000005 O
atom 5.4015808700000001 5.9985746600000001 4.3300830599999998 O
atom 5.4070914999999999 6.0441414399999998 9.5745688100000006 O
atom 9.7850650399999992 4.1558131600000001 1.7374351500000000 O
atom 9.8018246500000004 4.2521703000000004 7.0129675899999997 O
atom 9.9292501299999998 9.3487763299999997 1.8328843399999999 O
atom 9.8279578500000007 9.3619090800000002 7.0523509700000000 O
atom 9.7167656200000003 3.5368328800000000 4.4116259500000004 O
atom 9.8452109900000000 3.4865886000000001 9.6621144200000000 O
atom 9.6567253799999992 8.8595987800000007 4.5021100599999997 O
atom 9.7287505299999992 8.6622161299999991 9.6532862000000002 O
atom 7.8640725600000003 1.3207030000000000 9.9733548100000000 O
atom 7.8351344699999999 1.3501543400000000 4.7253152600000004 O
atom 7.8722904800000002 6.4554766099999998 10.0103408199999997 O
atom 7.8333139000000003 6.4674165800000001 4.7453761999999999 O
atom 7.8554813200000000 1.3673575800000000 2.0788797699999999 O
atom 7.8391358100000001 1.3570395500000001 7.3620339100000001 O
atom 7.9370441400000002 6.4684689799999999 2.1204449300000001 O
atom 7.8353455399999996 6.4597978300000003 7.3959900699999999 O
atom 7.3827668900000001 3.8640466000000000 9.9921094999999998 O
atom 7.2933005199999998 3.8873241699999999 4.7475453500000002 O
atom 7.3214559399999999 9.0056690800000005 10.0024944399999995 O
atom 7.2375545900000002 9.0324454500000009 4.7505807600000001 O
atom 7.3213966800000003 3.9038483600000000 2.0784687000000002 O
atom 7.3277793400000002 3.9306842899999999 7.3715267999999998 O
atom 7.3996480800000004 9.0727287099999998 2.1276569599999999 O
atom 7.3454398999999997 9.0628962200000007 7.3871802400000002 O
