lattice_vector 10.1192852400000000 0.0520566700000000 -0.0792467400000000 
lattice_vector 0.0282225300000000 10.3074092499999992 -0.0505762400000000 
lattice_vector -0.0233627300000000 0.0442680100000000 10.4670187800000001 
atom 1.0971629199999999 0.4037808000000000 2.2878784799999998 Si
atom 1.3553814000000000 0.2825339400000000 6.9744265099999998 Hf
atom 1.4562760699999999 5.3978597900000000 1.7222539500000000 Hf
atom 1.3742649199999999 5.4405443699999996 6.9908842499999997 Hf
atom 1.4384484399999999 2.5492971199999999 4.4398498699999998 Hf
atom 1.5475079100000000 2.3584142099999998 9.6122876700000006 Hf
atom 1.3935090299999999 7.5777426300000004 4.2959069799999998 Hf
atom 1.4523988299999999 7.6155649800000003 9.5138113700000009 Hf
atom 3.6522890299999999 2.8043621900000000 1.6992096299999999 Hf
atom 3.6873357599999999 2.8733240400000000 6.9828540900000000 Hf
atom 3.5462069999999999 8.0279201699999998 1.5756505599999999 Hf
atom 3.6711145500000000 8.0225849500000006 6.8825908399999998 Hf
atom 3.6419018400000001 5.0430238300000001 4.3858136900000000 Hf
atom 3.6107190600000001 5.0023771699999999 9.5403312899999992 Hf
atom 3.5825836899999999 10.2077423100000004 4.2658462300000002 Hf
atom 3.6446491999999999 10.1625338799999998 9.4782781600000003 Hf
atom 6.3363687000000004 0.2573401000000000 0.6584432800000000 Hf
atom 6.4170698499999999 0.2789911000000000 6.0767149700000003 Hf
atom 6.3413071399999996 5.4713106199999997 0.5748971500000000 Hf
atom 6.4765424400000002 5.4376466299999997 6.0008178200000000 Hf
atom 6.3275317500000003 2.4378374699999998 3.5231707999999999 Hf
atom 6.4875047800000001 2.4820274000000002 8.6552577799999995 Hf
atom 6.3819773499999997 7.6873067099999997 3.3721129900000002 La
atom 6.4698651299999996 7.6316793499999998 8.5623964099999998 Hf
atom 9.0075347000000008 2.7970839000000001 0.6983317999999999 Hf
atom 8.7082945899999995 2.8988981800000002 6.0326301400000002 Hf
atom 8.7935394999999996 7.9904950299999999 0.9017841100000000 La
atom 8.7289338099999991 7.9779720599999999 6.0171987199999997 Hf
atom 8.7370354700000004 4.9324434999999998 3.3582879600000002 Hf
atom 8.7408749599999993 5.0368351999999996 8.6330507999999995 Hf
atom 8.7794292400000007 10.2048333499999995 3.5668773499999999 Hf
atom 8.7578817499999992 10.1828873000000009 8.5944065700000003 Hf
atom 0.6575409300000000 1.6414965300000000 1.0922137700000001 O
atom 0.3433525400000000 1.8318947699999999 6.1648780299999997 O
atom 0.6240386999999999 6.9760013499999998 0.8403011300000000 O
atom 0.4026440500000000 6.9577293899999999 6.0636302899999999 O
atom 0.3258636900000000 0.9938296700000000 3.6797824000000001 O
atom 0.3713572800000000 0.9071838300000000 8.7650518700000006 O
atom 0.3042759300000000 6.0602392299999996 3.4320521099999999 O
atom 0.3519099400000000 6.0474170799999998 8.7151428800000001 O
atom 4.7415758500000003 4.2951127199999997 0.8047283500000000 O
atom 4.6886441799999998 4.4047542499999999 6.1170278500000004 O
atom 4.7146546400000000 9.5344334499999999 0.7603620300000000 O
atom 4.6905176500000003 9.5499893300000007 6.0010225000000004 O
atom 4.6324869599999996 3.4293174400000002 3.5165664799999998 O
atom 4.7319500200000002 3.4832479099999998 8.6911407900000004 O
atom 4.3301047099999996 8.6133809299999999 3.3856336100000002 O
atom 4.7128615299999996 8.6560237299999994 8.6004126299999992 O
atom 2.5761381700000001 1.3299134100000001 2.9106822200000000 O
atom 2.7831078599999999 1.3225860300000001 8.1922207399999998 O
atom 2.7449358500000001 6.5480190100000000 2.9775629200000000 O
atom 2.7945110899999999 6.4872071900000003 8.1876805499999996 O
atom 3.1102819199999998 1.4888892600000001 0.2334527300000000 O
atom 2.7824699300000000 1.4195291400000001 5.6170497299999997 O
atom 2.8797734799999999 6.4218733900000000 0.3347070800000000 O
atom 2.7831958600000002 6.5446054399999998 5.5934288399999996 O
atom 2.2932981600000000 3.9372981100000000 3.0596924500000000 O
atom 2.2780649799999999 3.8899336999999998 8.2844773699999994 O
atom 2.0109306500000002 9.3038083500000006 2.8341932600000002 O
atom 2.2858893000000000 9.0720086999999996 8.1180591799999995 O
atom 2.2854415700000001 3.9067994800000001 0.4361175600000000 O
atom 2.2662419800000002 3.9828808499999999 5.7019462100000000 O
atom 2.3911652700000001 9.0197857399999997 0.1905403500000000 O
atom 2.2384468300000000 9.1315714099999994 5.5220838099999998 O
atom 5.5211444399999996 1.8049568700000000 1.7202000700000000 O
atom 5.4435898399999996 1.8763116200000001 6.8633611300000004 O
atom 5.3176438700000004 7.0417333600000003 1.3639267399999999 O
atom 5.4527338099999998 7.0300367100000001 6.7834809800000002 O
atom 5.3766614800000001 0.8198968400000000 4.2923502100000004 O
atom 5.4254260199999997 0.9268088300000000 9.3898751300000001 O
atom 5.3841937399999997 5.9238613600000001 4.2943761199999999 O
atom 5.3433198500000003 6.0563853800000000 9.3340700900000009 O
atom 9.8250401800000002 4.4290372099999997 1.5889120200000000 O
atom 9.7610035499999999 4.4165175600000000 6.9004495500000003 O
atom 9.8604417699999996 9.8960787400000001 1.7770166199999999 O
atom 9.7672544600000002 9.5902124499999992 6.7955915600000001 O
atom 9.8098767000000002 3.5583273700000002 4.3643821599999999 O
atom 9.8978317899999997 3.5226086099999998 9.5115690500000003 O
atom 9.7227842399999993 8.5868473000000005 4.1729348799999997 O
atom 9.8377172099999992 8.6996862000000004 9.3666594700000001 O
atom 7.9129318900000003 1.3589485699999999 10.0950464199999992 O
atom 7.8046804500000002 1.4019437500000000 4.7310174099999998 O
atom 7.7685891299999996 6.4887717699999996 9.8319514100000003 O
atom 7.9605920499999998 6.4132506500000002 4.7680406000000000 O
atom 7.3387354100000000 -0.5529538600000000 2.2537874699999998 O
atom 7.8546991999999998 1.4045716399999999 7.3814550600000004 O
atom 7.6239778400000002 6.0375760600000001 2.0546939200000001 O
atom 7.8690578000000002 6.5379465200000002 7.3179744500000004 O
atom 7.4092782699999997 3.9189694199999998 10.0200913600000003 O
atom 7.2889461999999998 3.9247658400000001 4.7312479400000003 O
atom 7.2710432000000003 9.1442742700000004 9.8669368300000002 O
atom 7.4709084499999996 9.1863576299999998 4.8560266299999997 O
atom 7.8230222700000001 3.0954207100000000 2.3132434000000002 O
atom 7.3393098500000002 3.9752873200000001 7.3675663199999999 O
atom 7.3489501700000002 9.1207414100000008 7.3356118600000002 O
