lattice_vector 10.1651684499999995 -0.0138347300000000 0.7922167300000000 
lattice_vector -0.0089894400000000 5.1670479199999999 -0.0188316000000000 
lattice_vector 0.8044494800000001 0.0335828700000000 10.3905940000000001 
atom 1.3938803799999999 0.0414240600000000 1.5270049000000001 La
atom 1.9117630100000000 0.2391484500000000 6.8242869400000004 Hf
atom 6.7712658299999999 0.2149354700000000 2.0536359300000000 Hf
atom 7.0153250399999996 0.2392772400000000 7.2271430399999996 Hf
atom 1.7181049700000000 2.3404621400000001 4.1970045799999998 Hf
atom 2.1341251600000000 2.4343561700000000 9.3662699200000006 Hf
atom 6.7288298299999996 2.3580629399999999 4.6233356299999997 Hf
atom 7.2546894699999998 2.3956323099999999 9.8139548399999992 Hf
atom 3.7553260000000002 2.6059037599999999 1.2940835399999999 Hf
atom 4.1235207999999997 2.8090046800000001 6.5409435199999999 Hf
atom 8.8261708100000007 2.8009024400000002 1.7608347600000001 Hf
atom 9.2523802699999997 2.8141968899999998 6.9432446399999996 Hf
atom 3.9182779200000000 4.9826657900000004 3.9965226100000000 Hf
atom 4.4205331299999999 4.9425971400000002 9.1157589600000009 Hf
atom 8.9543374000000000 4.9645826099999999 4.4122581099999998 Hf
atom 9.4432782900000003 4.9701424799999998 9.5365323400000008 Hf
atom 0.5416898000000000 2.1730032600000002 0.9608736000000000 O
atom 0.8636942399999999 1.8501422400000000 6.1163688299999999 O
atom 5.5330513500000000 1.6436678600000001 1.2553697500000001 O
atom 5.8410909999999996 1.7002518499999999 6.4239384800000003 O
atom 0.5493846700000000 0.8065839100000000 3.6383245700000000 O
atom 1.0803660500000001 0.7883529600000000 8.7509314800000002 O
atom 5.6884538800000000 0.7845289200000000 3.7892000399999999 O
atom 6.1362440400000002 0.9018253500000000 9.0157355300000006 O
atom 5.2895899699999998 4.2840836400000004 7.3367434400000002 O
atom 9.4041276699999994 4.5953443800000002 2.4132966499999999 O
atom 10.2935223300000001 4.4112672200000000 7.6663376799999998 O
atom 4.9997614600000002 3.4126631999999999 4.7161998399999998 O
atom 5.6276598399999997 3.5512867400000001 10.0483063500000007 O
atom 10.1138383500000000 3.3937731100000001 5.0289765099999997 O
atom 10.5063125500000005 3.3980695900000000 10.2342630099999994 O
atom 3.0358785699999999 1.2731053100000000 2.7640709499999998 O
atom 3.3913340100000000 1.3573252000000000 7.8879627899999996 O
atom 8.0398181799999993 1.4186565400000000 3.1721466299999999 O
atom 8.5104183300000003 1.3581385900000000 8.3092472999999991 O
atom 3.1631035600000001 1.2566137700000000 5.3281149000000001 O
atom 3.6828324000000001 1.2749018100000000 10.4091097500000007 O
atom 8.2247558400000003 1.2656190899999999 5.7437006899999998 O
atom 8.7258472299999994 1.2862944700000001 10.9193019000000007 O
atom 2.4837789799999999 3.7720997500000002 0.0827287600000000 O
atom 2.6377860399999999 3.9442125400000001 5.4441289599999996 O
atom 7.3685489300000002 3.9147888700000002 0.6458839300000000 O
atom 7.7522919600000000 3.9141577700000001 5.8730374599999999 O
atom 2.7642606299999999 3.7029456399999998 2.8318138099999999 O
atom 2.8806819400000001 3.8669157300000001 8.0019714099999995 O
atom 7.3554868500000001 3.8247374999999999 3.3151680500000000 O
atom 7.9855090000000004 3.8437589600000002 8.4435713700000008 O
