lattice_vector 9.9627325500000001 -0.0274523200000000 -0.0149744400000000 
lattice_vector 0.0286276000000000 10.1905353800000000 0.0542912300000000 
lattice_vector 0.0159625700000000 0.0681844200000000 10.4206556799999994 
atom 1.0501069500000000 0.2545745200000000 2.2210889200000001 Si
atom 1.4147608400000000 0.2405492300000000 6.9221227000000001 Hf
atom 1.3510778800000001 5.3284185199999996 1.8271400400000000 Hf
atom 1.4280048500000000 5.3523690200000003 7.0220676299999996 Hf
atom 1.3999561300000001 2.4127825199999999 4.4068393700000001 Hf
atom 1.4574393000000001 2.3115851400000000 9.6118760699999992 Hf
atom 1.3669321600000000 7.4664277800000001 4.4003302700000004 Hf
atom 1.4672836600000001 7.5169364400000003 9.5957318300000001 Hf
atom 3.4691004500000000 2.7557858099999999 1.6944774100000000 Hf
atom 3.6409546200000000 2.7962818500000002 6.9886512500000002 Hf
atom 3.5383688400000000 7.9027433000000000 1.7390094700000001 Hf
atom 3.6843641400000000 7.9265275400000004 6.9305935999999999 Hf
atom 3.6603240399999999 4.8929468800000002 4.3823419399999999 Hf
atom 3.6041165300000002 4.9313122299999996 9.5996686400000009 Hf
atom 3.6790159099999999 10.0956723299999993 4.3062020800000003 Hf
atom 3.6464571600000002 10.0317156199999999 9.5924212999999998 Hf
atom 6.3693831200000002 0.1475983300000000 0.8055960100000000 Hf
atom 6.4276366700000001 0.3166291500000000 6.0209411199999998 Hf
atom 6.3368189299999997 5.2849134400000004 0.8665170300000000 Hf
atom 6.4371063800000003 5.3018336699999997 6.0913273600000002 Hf
atom 6.0385234099999998 2.3078391699999998 2.9920351500000000 Si
atom 6.4049846500000003 2.3876518799999999 8.7110894400000003 Hf
atom 6.3408580600000004 7.4229650899999999 3.4396081100000000 Hf
atom 6.4178104800000000 7.4668025499999997 8.6651962000000005 Hf
atom 8.6343363400000008 2.6428984899999999 0.9532194400000000 Hf
atom 8.6022128200000001 2.7749898800000001 6.0880892199999996 Hf
atom 8.6444521099999996 7.8455383699999999 0.8773797000000000 Hf
atom 8.5882011600000006 7.8755494800000001 6.0808532299999998 Hf
atom 8.5140731200000008 4.8363945199999998 3.5209681399999999 Hf
atom 8.6600278300000006 4.8799518700000002 8.7495364599999998 Hf
atom 8.4737222400000007 9.9837989500000006 3.5657533600000000 Hf
atom 8.6451503699999996 10.0103053699999993 8.6916722899999996 Hf
atom 0.5530715899999999 1.5159857999999999 1.1095724400000000 O
atom 0.4406099400000000 1.8045497300000000 6.1474158200000000 O
atom 0.3804889100000000 6.8389157899999997 0.9541735900000000 O
atom 0.3827354600000000 6.8526510199999997 6.1395094300000004 O
atom 0.2898144300000000 0.8362301700000000 3.5956596900000002 O
atom 0.3965758400000000 0.8605050700000000 8.7097009799999991 O
atom 0.3111195000000000 5.9423922700000000 3.5510061700000000 O
atom 0.4189135000000000 5.9537738500000001 8.7816329300000007 O
atom 4.6012455900000004 4.2489439500000001 0.8931245799999999 O
atom 4.6726164299999997 4.2983943499999997 6.0930450599999997 O
atom 4.6885255800000003 9.3368556799999993 0.8975781500000000 O
atom 4.6967651000000004 9.4677064800000004 5.9970924500000002 O
atom 4.7143972099999996 3.3101308600000001 3.4189234100000001 O
atom 4.6815253800000001 3.4411437299999998 8.7085547499999993 O
atom 4.5900662900000002 8.5244692000000004 3.4741510799999999 O
atom 4.7098968100000000 8.5521218099999992 8.6531804900000004 O
atom 2.5419429700000000 1.2422210100000000 2.8951996900000001 O
atom 2.7846311300000002 1.2675145800000001 8.1716135899999998 O
atom 2.7269699599999999 6.4350500500000001 3.0754354199999998 O
atom 2.8318695900000002 6.4048740100000003 8.2549630999999994 O
atom 2.9945576100000002 1.4359429800000001 0.2388840800000000 O
atom 2.8515926800000000 1.3642454200000000 5.5602358499999998 O
atom 2.7632670199999998 6.3552415099999999 0.4720236100000000 O
atom 2.8054877100000000 6.4239682299999998 5.6480543599999997 O
atom 2.2747734099999999 3.8519265400000000 3.0917376200000000 O
atom 2.2583469599999999 3.8193821099999998 8.3029084999999991 O
atom 2.0853535700000001 9.0994688499999992 2.9360547600000002 O
atom 2.2820775200000001 8.9223950500000004 8.2079147599999995 O
atom 2.1374565500000000 3.8665250400000000 0.4777301700000000 O
atom 2.2579284600000000 3.8881133700000001 5.6808481899999999 O
atom 2.3260934000000000 8.8952746400000002 0.3601043400000000 O
atom 2.2944404899999999 9.0125158899999995 5.5703758099999998 O
atom 5.2706090200000002 1.7303919600000000 1.6197999500000000 O
atom 5.3779481699999998 1.7735612599999999 6.9263664199999999 O
atom 5.2921575399999998 6.8148514400000000 1.7186723800000001 O
atom 5.4001345000000001 6.8708056099999997 6.9084933299999998 O
atom 5.5377774400000002 1.0488990800000000 4.1052513499999996 O
atom 5.4242024500000001 0.8290817800000000 9.4885543299999995 O
atom 5.3645342899999999 5.9176178500000001 4.3152656800000004 O
atom 5.3669388800000002 5.9718773900000004 9.5506118600000001 O
atom 9.5568157500000002 4.2088175500000000 1.7827176499999999 O
atom 9.6769823699999993 4.2485345199999998 7.0241812899999996 O
atom 9.7105316500000001 9.4223747299999996 1.8379376300000001 O
atom 9.6769073599999995 9.3596744500000000 6.9688341200000004 O
atom 9.6586890499999996 3.3962855900000002 4.3592246899999996 O
atom 9.6666601199999995 3.3334110600000000 9.6802483299999995 O
atom 9.5998406700000007 8.4845353600000006 4.3638222300000002 O
atom 9.6709837699999994 8.5026580599999999 9.5844240099999993 O
atom 7.8393876799999997 1.2560696000000000 10.0684563800000006 O
atom 7.9824623700000004 1.1151271300000001 4.9688458200000003 O
atom 7.7933881600000001 6.3875384600000000 10.0349736600000004 O
atom 7.7513668300000003 6.3880046799999999 4.7904087700000000 O
atom 7.5224988000000002 1.3123446700000001 2.3140523100000001 O
atom 7.7651278599999998 1.3534496100000000 7.4572980800000002 O
atom 7.7067525699999999 6.3089043800000004 2.1870200500000001 O
atom 7.8119370000000004 6.4066018299999996 7.4278727800000004 O
atom 7.2681410599999996 3.8019853900000000 10.1139703999999995 O
atom 7.3002585900000003 3.8504150500000001 4.9034311400000004 O
atom 7.2598906400000001 8.9263642000000001 10.0038272700000004 O
atom 7.1394677399999997 8.8802971799999995 4.7864612400000004 O
atom 7.0506523000000003 3.6479783800000001 2.3280823800000001 O
atom 7.2482306500000000 3.8916551799999999 7.4767606899999999 O
atom 7.2687381499999999 8.8942615299999996 2.1723580899999999 O
atom 7.2527598099999997 8.9947460600000007 7.3817044400000000 O
