lattice_vector 10.1100377199999993 -0.0280076200000000 0.8246862100000000 
lattice_vector 0.0038470500000000 10.3098290499999994 0.0092568200000000 
lattice_vector 0.8490458800000000 0.0061336900000000 10.4120683500000002 
atom 1.5185198000000000 0.1035005100000000 1.6220687400000000 La
atom 1.9486791400000001 0.2220787800000000 6.8402748200000003 Hf
atom 1.5163479500000001 5.3788558799999997 1.6323384000000001 Hf
atom 1.9650714300000001 5.3520701900000001 6.8598958899999998 Hf
atom 6.5655275000000000 0.1791904700000000 2.0467886300000000 Hf
atom 7.0123700299999996 0.2178670200000000 7.2538983500000001 Hf
atom 6.6026622300000000 5.3156928600000004 2.0513105800000000 Hf
atom 7.0081290899999997 5.3569300499999999 7.2519323800000004 Hf
atom 1.7290698499999999 2.3604759600000000 4.2655418999999997 Hf
atom 2.1677017599999999 2.3733922700000001 9.4389044999999996 Hf
atom 1.7141440299999999 7.4633034399999998 4.3009822700000004 Hf
atom 2.1729184199999998 7.5052143500000001 9.4306228900000004 Hf
atom 6.7955137099999998 2.3672387300000000 4.6632531899999998 Hf
atom 7.2246645300000001 2.3412133300000000 9.8656880299999994 Hf
atom 6.7715555500000004 7.4796346700000003 4.6537682599999997 Hf
atom 7.2834172400000003 7.4871717699999998 9.8164609200000008 Hf
atom 3.7312190200000002 2.7780708999999999 1.3880657800000000 Hf
atom 4.1633315900000003 2.7850019399999999 6.6005928799999998 Hf
atom 3.8596108800000000 7.8586036799999999 1.2929727300000000 Hf
atom 4.1645172800000001 7.9393032799999999 6.5844991400000001 Hf
atom 8.7989307900000000 2.7737931200000001 1.7853639100000001 Hf
atom 9.2282261699999992 2.7815474099999999 7.0124790700000004 Hf
atom 8.7551303699999998 7.8965408300000002 1.8001805099999999 Hf
atom 9.2253432199999992 7.9412243199999999 6.9945806700000004 Hf
atom 3.9506129400000001 4.9177607099999996 3.9870141499999998 Hf
atom 4.4017336499999997 4.9152472400000002 9.1988496299999998 Hf
atom 4.0145321799999998 10.1367386499999999 4.0638069899999998 Hf
atom 4.4094884499999996 10.0815793399999993 9.1678406399999997 Hf
atom 9.0075923099999997 4.9166198000000003 4.4049574700000003 Hf
atom 9.4388565799999995 4.9048016199999998 9.5955509499999998 Hf
atom 8.9472597199999999 10.0791456200000002 4.4360589299999997 Hf
atom 9.4485553600000003 10.0727277999999991 9.6193890100000008 Hf
atom 0.4467873600000000 1.9135394100000001 0.8547998600000000 O
atom 0.8860688900000000 1.8149798200000000 6.1532353500000001 O
atom 0.4678102800000000 6.9760766299999997 0.9036819600000000 O
atom 0.8711127800000000 6.9150251000000003 6.1011717699999997 O
atom 5.4863390599999997 1.7251107999999999 1.2956695800000000 O
atom 5.9027174699999998 1.7425916699999999 6.4906920000000001 O
atom 5.5644652499999996 6.8710915799999999 1.2585369300000000 O
atom 5.9060432100000000 6.8896767499999996 6.5037060200000001 O
atom 0.5655720400000001 0.8351716900000000 3.6591842200000002 O
atom 1.1026741300000000 0.7876436500000000 8.7177846700000003 O
atom 0.6550699500000000 5.9538253299999999 3.4915239800000002 O
atom 1.0887972600000000 5.9500161399999998 8.6969177099999992 O
atom 5.7340139700000003 0.7946192100000000 3.9180964299999999 O
atom 6.1509657899999999 0.8137014200000000 9.0782118700000005 O
atom 5.6873268100000001 5.9646650399999999 3.8715891299999998 O
atom 6.1495156299999998 5.9659054200000003 9.0904247799999993 O
atom 4.8190838200000004 4.3328874099999997 2.1445716400000001 O
atom 5.2662199999999997 4.3148222499999997 7.3557898399999999 O
atom 4.6769913799999996 9.4986045499999996 2.1680279100000002 O
atom 5.2648743800000002 9.4799967699999996 7.3339315999999997 O
atom 9.8499935300000008 4.3698544799999999 2.5255594900000000 O
atom 10.3018105099999993 4.3420405999999998 7.7412715099999998 O
atom 9.6040259399999997 9.4941935500000003 2.5852387600000002 O
atom 10.3146593899999992 9.4737621599999997 7.7575903799999999 O
atom 5.0366452700000002 3.3957786500000000 4.7474712999999999 O
atom 5.5035511699999997 3.4119537900000001 9.9732380099999993 O
atom 5.0308221700000004 8.5329038399999995 4.7666022600000000 O
atom 5.5904065599999999 8.5642444199999996 9.9201978999999998 O
atom 10.0869770100000000 3.3830908599999998 5.1641760300000001 O
atom 10.4901807900000001 3.3540983000000000 10.3085921900000006 O
atom 10.1100696600000006 8.5229863699999999 5.1327521200000001 O
atom 10.5313169700000007 8.5238060999999998 10.3732300500000001 O
atom 3.0785195000000001 1.4090907600000000 2.8623236099999998 O
atom 3.4243825200000000 1.3239886400000000 7.9311786800000004 O
atom 2.9671553500000001 6.6132846000000001 2.7446707799999999 O
atom 3.4336915000000001 6.4823586999999998 7.9480688400000004 O
atom 8.0130348700000003 1.3228636600000001 3.1517656000000001 O
atom 8.4970569299999994 1.3149015200000000 8.3634158700000008 O
atom 8.0435019099999998 6.4573722499999997 3.1550396799999998 O
atom 8.5005253199999995 6.4713679800000001 8.3325746699999996 O
atom 3.2066584499999999 1.2430720700000000 5.3846122999999997 O
atom 3.7296659999999999 1.3001268800000001 10.4540586999999991 O
atom 3.2118357500000001 6.3744915500000001 5.3534771299999999 O
atom 3.6518007099999998 6.3503307400000004 10.5454315800000007 O
atom 8.2345448599999997 1.2487935699999999 5.7729359499999999 O
atom 8.6824013900000008 1.2088419600000000 10.9712835599999998 O
atom 8.2647991899999997 6.3847569100000001 5.7485792800000004 O
atom 8.7153727399999994 6.3541453800000003 10.9464048900000002 O
atom 2.2761988700000000 3.9072017400000001 0.2807629700000000 O
atom 2.6980474399999999 3.9042793400000000 5.4972438700000001 O
atom 2.4302958900000000 8.9035221700000005 0.1631926400000000 O
atom 2.6790279300000002 9.0688413899999993 5.4253452800000002 O
atom 7.3194593200000000 3.8778609700000000 0.6941266300000000 O
atom 7.7424940600000003 3.8990088500000000 5.9022109000000000 O
atom 7.3155881999999997 9.0318905500000000 0.6917948300000000 O
atom 7.7518248700000001 9.0473953199999997 5.9117249500000000 O
atom 2.4596950199999998 3.8654178600000000 2.8855096499999999 O
atom 2.9173400599999999 3.8249799800000002 8.0918047200000007 O
atom 2.9013253400000001 8.9700921600000001 8.0473173500000001 O
atom 7.5344615199999998 3.8092313199999999 3.3065118500000001 O
atom 7.9629066599999998 3.8006686500000000 8.4995748500000001 O
atom 7.3778536299999997 8.9294488600000008 3.3156420099999999 O
atom 7.9939286400000000 8.9617422700000002 8.4904917900000001 O
