lattice_vector 10.0360046500000006 0.0834357100000000 0.7744929000000000 
lattice_vector 0.0736027400000000 10.1384317199999998 0.0026745500000000 
lattice_vector 0.8620810200000000 -0.0307537100000000 10.4386460900000007 
atom 1.3473176400000000 0.1085303700000000 1.8139130100000000 Si
atom 1.9398184300000001 0.2152501300000000 6.7946420300000003 Hf
atom 1.5393261300000001 5.3377684199999997 1.5950447600000000 Hf
atom 2.0085059799999998 5.2682608300000000 6.8483795199999999 Hf
atom 6.5302571599999997 0.2036970500000000 2.0006619500000000 Hf
atom 6.9968673600000004 0.2527207400000000 7.2816087300000003 Hf
atom 6.5574021499999997 5.3019976900000003 1.9969426400000001 Hf
atom 6.9975508499999997 5.3202201599999999 7.2612186899999998 Hf
atom 1.7460243000000000 2.3126884099999998 4.1326192700000002 Hf
atom 2.2187610200000001 2.2352057099999998 9.4382126500000005 Hf
atom 1.7685600600000000 7.3887514300000001 4.2440739699999996 Hf
atom 2.0747562400000001 7.4692211600000000 9.4203066599999996 Hf
atom 6.7665974599999998 2.3499882799999998 4.6002196000000000 Hf
atom 7.2816193399999998 2.2858621900000000 9.8573238599999993 Hf
atom 6.8023455400000001 7.4165472499999998 4.6446567500000002 Hf
atom 7.2363833599999996 7.4523572400000004 9.9046812200000005 Hf
atom 3.7353063400000002 2.7387536400000001 1.3111314400000000 Hf
atom 4.1693445899999997 2.7745633700000001 6.5711576599999999 Hf
atom 3.6900669300000000 7.9052560300000003 1.3584899600000000 Hf
atom 4.2050885500000001 7.8411330599999998 6.6155965600000002 Hf
atom 8.8969317100000005 2.7218868299999999 1.7955049700000001 Hf
atom 9.2031290200000004 2.8023603499999998 6.9717427299999999 Hf
atom 8.7529251499999994 7.9559140900000003 1.7776099700000001 Hf
atom 9.2256624100000000 7.8784227400000004 7.0831901700000000 Hf
atom 3.9741330200000000 4.8708988800000004 3.9545965600000001 Hf
atom 4.4142805200000002 4.8891171499999997 9.2188676399999991 Hf
atom 3.9748272999999998 9.9383930599999992 3.9342102400000001 Hf
atom 4.4414346099999999 9.9874148999999992 9.2151490099999993 Hf
atom 8.9631807899999991 4.9228495299999997 4.3674261699999999 Hf
atom 9.4323583099999997 4.8533475399999997 9.6207691600000000 Hf
atom 9.0318697100000005 9.9758638299999998 4.4211714500000001 Hf
atom 9.6243827599999996 10.0825808200000004 9.4018969400000003 Si
atom 0.6201466300000000 1.4418503400000000 0.8659983999999999 O
atom 0.8415281999999999 1.6177864799999999 5.9304157899999996 O
atom 0.3834591600000000 6.7659615700000000 0.7497462800000000 O
atom 0.8869059500000001 6.7308530099999997 6.0590363600000003 O
atom 5.5087121000000003 1.6913781000000001 1.1790155899999999 O
atom 5.8793999100000001 1.6829282299999999 6.4196158099999998 O
atom 5.3607235700000002 6.7000029999999997 1.1817174100000001 O
atom 5.8849563299999996 6.7462757000000000 6.4092256599999997 O
atom 0.6480769800000000 0.8001508400000000 3.3200607199999999 O
atom 0.9628768599999999 0.8404196600000000 8.6099195700000006 O
atom 0.6340914300000000 5.9533500799999999 3.4049569200000001 O
atom 1.0439939400000000 5.9693553000000001 8.6383799200000002 O
atom 5.6027079300000002 0.9211038600000000 3.7845037499999998 O
atom 6.1097110600000004 0.9098313300000000 9.0108463200000006 O
atom 5.6910779800000002 5.9602239099999998 3.8101866200000001 O
atom 6.0838458800000002 6.0131515100000001 9.0152432999999998 O
atom 4.8878373100000001 4.1779597600000002 2.2005755499999999 O
atom 5.2806108199999997 4.2308871899999998 7.4056294700000000 O
atom 4.8619775399999998 9.2812835600000003 2.2049692699999999 O
atom 5.3689863899999999 9.2700123100000003 7.4313095400000000 O
atom 9.9276922299999999 4.2217566599999996 2.5774270399999999 O
atom 10.3375959999999996 4.2377628400000003 7.8108580999999999 O
atom 10.0088177599999995 9.3507007099999999 2.6058921499999999 O
atom 10.3236128500000000 9.3909592699999997 7.8957448200000000 O
atom 5.0867263600000001 3.4448407200000002 4.8065865800000003 O
atom 5.6109608299999998 3.4911126399999999 10.0340940799999991 O
atom 5.0922935300000001 8.5081822299999992 4.7961987700000002 O
atom 5.4629778699999996 8.4997331900000006 10.0367969299999995 O
atom 10.0847828199999991 3.4602605199999998 5.1567803799999998 O
atom 10.5882255599999997 3.4251549799999998 10.4660671000000001 O
atom 10.1301628200000007 8.5733298399999995 5.2853979899999999 O
atom 10.3515383599999993 8.7492539600000008 10.3498205999999993 O
atom 2.8065987400000001 1.1749890700000001 2.4663914100000000 O
atom 3.3522827999999998 1.2869513100000001 7.8295060999999997 O
atom 2.9993768699999999 6.4099697100000004 2.7020717500000000 O
atom 3.4068168499999998 6.4037492399999998 7.9353617300000003 O
atom 8.0096661699999991 1.3220438500000000 3.0640422100000002 O
atom 8.5882350400000007 1.2929410600000000 8.3380908700000003 O
atom 8.0284094199999991 6.4355021700000004 3.0987312299999998 O
atom 8.4472818099999998 6.4356536400000000 8.3584083800000002 O
atom 3.2118967000000000 1.2747533600000001 5.2144778499999997 O
atom 3.8762498200000000 1.4681132200000000 10.2814362199999998 O
atom 3.2448291600000001 6.3123990200000000 5.3230071800000003 O
atom 3.5790652000000001 6.4241028099999999 10.5054799699999997 O
atom 8.2324677000000008 1.2770296500000000 5.7144664900000004 O
atom 8.7416877700000004 0.9036096600000000 10.7518941300000002 O
atom 8.2745831699999997 6.3484065000000003 5.7499933700000003 O
atom 8.6727407799999998 6.2647933399999998 10.9480366500000006 O
atom 2.2989508500000002 3.9263226800000002 0.2677812600000000 O
atom 2.6971075000000000 3.8426995100000001 5.4658178800000004 O
atom 2.2300003099999999 9.2874998699999995 0.4639106700000000 O
atom 2.7392160400000001 8.9140854699999998 5.5013447099999997 O
atom 7.3926256099999996 3.7670114300000002 0.7103357400000000 O
atom 7.7268611900000002 3.8787189299999998 5.8928122700000003 O
atom 7.0954430300000002 8.7230008800000007 0.9343711300000000 O
atom 7.7597917299999999 8.9163631999999993 6.0013348400000002 O
atom 2.5244076400000002 3.7554619900000001 2.8574031899999999 O
atom 2.9432771600000001 3.7556055399999999 8.1170794900000001 O
atom 2.3834540799999999 8.8981743400000006 2.8777320700000000 O
atom 2.9620204000000001 8.8690691299999997 8.1517737799999992 O
atom 7.5648674900000001 3.7873663000000000 3.2804452400000002 O
atom 7.9723093100000000 3.7811461999999998 8.5137394999999998 O
atom 7.6193998900000004 8.9041663100000008 3.3863129600000001 O
atom 8.1650959000000007 9.0161229899999995 8.7494268399999999 O
