lattice_vector 9.9654634800000004 -0.0258721300000000 -0.1539400400000000 
lattice_vector 0.0304449900000000 10.1915654300000007 0.0085087600000000 
lattice_vector -0.1383409400000000 -0.0043902800000000 10.4081490700000003 
atom 1.0572614300000001 0.2243881200000000 2.1768017999999998 Si
atom 1.2313308700000001 0.2329779800000000 6.8962394299999996 Hf
atom 1.3920128899999999 5.3137234600000003 1.7265470400000000 Hf
atom 1.2216121499999999 5.2445045800000001 6.9255561400000003 Hf
atom 1.4219635200000000 2.3735176999999998 4.2857521500000004 Hf
atom 1.3382668900000001 2.2476034500000002 9.5849621299999992 Hf
atom 1.3214278399999999 7.4537390400000003 4.3313311399999996 Hf
atom 1.2780010399999999 7.4264844900000000 9.4943062699999992 Hf
atom 3.5913368299999999 2.7269981599999999 1.6783996200000000 Hf
atom 3.5021619500000001 2.7683674900000002 6.9413181200000000 Hf
atom 3.5354447699999998 7.9048847300000000 1.6418249600000001 Hf
atom 3.5290470200000001 7.8503512100000004 6.8992571199999997 Hf
atom 3.5645953200000000 4.9117587299999999 4.3272131299999996 Hf
atom 3.4636666599999999 4.8543345899999997 9.5226655000000004 Hf
atom 3.5887163900000001 9.9978677099999995 4.2944573300000002 Hf
atom 3.4955915900000001 9.9631397100000001 9.5061497100000008 Hf
atom 6.3666262199999997 0.2078841800000000 0.7384313600000000 Hf
atom 6.3102511699999999 0.2562663500000000 6.0098641400000004 Hf
atom 6.3762349100000000 5.2984853899999997 0.7354559300000000 Hf
atom 6.3373573900000002 5.2633042500000000 5.9924669499999998 Hf
atom 6.3500050799999999 2.3642547800000000 3.3897255400000001 Hf
atom 6.2749952799999997 2.3185745199999999 8.5673689100000008 Hf
atom 6.2984354199999997 7.4260077200000003 3.3150565500000000 Hf
atom 6.2892183199999998 7.3893833700000000 8.5437343499999994 Hf
atom 8.6746071800000006 2.6736233199999999 0.7881119300000000 Hf
atom 8.8154007799999992 2.7730489500000002 5.4942540500000003 Si
atom 8.6482238999999996 7.8628352399999999 0.7020206400000000 Hf
atom 8.4930912200000002 7.8264833700000001 5.9318923699999999 Hf
atom 8.5457761500000000 4.9338338500000001 3.3214923999999999 Hf
atom 8.4436725300000006 4.7436439699999999 8.5330106099999998 Hf
atom 8.4965394700000001 9.9585764500000007 3.3977664200000000 Hf
atom 8.4786832099999998 9.9913297199999995 8.5242963199999995 Hf
atom 0.5755968600000000 1.4856741400000000 1.0797010000000000 O
atom 0.1794507700000000 1.7831153500000001 6.0057169200000002 O
atom 0.3743985800000000 6.8129349000000001 0.8584708100000000 O
atom 0.2606179900000000 6.7839349300000000 6.0601787299999996 O
atom 0.3061313900000000 0.7764501100000000 3.5804233200000000 O
atom 0.2496779900000000 0.8122234200000000 8.6664831000000007 O
atom 0.3358240000000000 5.9097281700000002 3.4895601100000002 O
atom 0.2092118100000000 5.8344702300000000 8.6186472300000005 O
atom 4.6466004999999999 4.2497112599999998 0.8409997299999999 O
atom 4.5506390200000002 4.2723089400000003 6.0331906000000002 O
atom 4.6898988499999996 9.3502514699999999 0.8281321200000000 O
atom 4.5798907399999997 9.3736101200000004 6.0211764800000003 O
atom 4.6005472100000002 3.3357297600000000 3.4846876299999998 O
atom 4.4859349499999999 3.3342810599999999 8.6645429899999993 O
atom 4.5407297700000004 8.4706862500000000 3.4173203000000001 O
atom 4.5506959699999996 8.4424707399999992 8.6123406599999992 O
atom 2.5526734400000000 1.2026097300000000 2.8566206400000000 O
atom 2.6288331899999999 1.2201188599999999 8.1280978200000007 O
atom 2.7108486100000002 6.4362840700000001 2.9952171700000001 O
atom 2.6271704800000002 6.3085035200000004 8.1637412200000004 O
atom 3.0254288599999999 1.4241965100000000 0.2244754600000000 O
atom 2.6610027399999998 1.3042731700000001 5.5426313299999999 O
atom 2.7659701299999999 6.3597342599999998 0.3821010800000000 O
atom 2.6607652800000001 6.3656848100000003 5.5988231700000002 O
atom 2.2306355000000000 3.8264679099999999 3.0181952900000000 O
atom 2.0654763400000000 3.7547093000000000 8.2258791400000000 O
atom 2.0567308600000000 9.0571637999999997 2.8675060100000000 O
atom 2.1040800700000002 8.8747378799999996 8.1238018600000004 O
atom 2.1990418200000001 3.8506747099999998 0.4305148400000000 O
atom 2.1231416699999999 3.8345718199999999 5.6083676100000002 O
atom 2.3051631100000001 8.8867360400000006 0.2781729300000000 O
atom 2.1708490299999998 8.9561412800000006 5.5413245599999996 O
atom 5.3560969399999996 1.7138326699999999 1.6690292300000000 O
atom 5.1935305999999999 1.7104987700000001 6.8386129300000000 O
atom 5.3013203200000003 6.8215920600000004 1.6116549899999999 O
atom 5.2623896400000003 6.7914289099999996 6.8139390999999998 O
atom 5.3317920499999998 0.8213062100000000 4.2312812900000001 O
atom 5.2593939499999998 0.7762486400000000 9.4190314300000004 O
atom 5.3080470899999996 5.8828238199999996 4.1954607499999996 O
atom 5.2054773599999997 5.9015713600000002 9.4397458299999997 O
atom 9.6246570299999998 4.2322587299999999 1.5991454100000000 O
atom 9.3247223800000008 4.0028061499999996 6.6265652099999999 O
atom 9.7110535000000002 9.3887549900000007 1.6532943200000001 O
atom 9.5114777900000007 9.3624070400000008 6.7365423800000004 O
atom 9.5932161300000001 3.3120549600000002 4.0889578000000002 O
atom 9.5391191600000003 3.2651867999999999 9.4794451500000001 O
atom 9.5357035299999993 8.4225442499999996 4.1637129399999999 O
atom 9.5042348200000006 8.4230933500000003 9.3537140599999997 O
atom 7.6854736700000004 1.2002406100000000 9.9225491800000007 O
atom 7.8284419900000000 1.3783395300000001 4.7807863099999999 O
atom 7.6526283499999996 6.2909462500000002 9.8504996600000005 O
atom 7.6724002599999999 6.3575346799999997 4.6245721499999997 O
atom 7.7558406499999997 1.2823393100000000 2.1208928000000000 O
atom 7.5806735600000001 1.2705773600000001 7.3354290500000001 O
atom 7.7411929900000001 6.3923366899999996 2.0330222700000000 O
atom 7.7106666900000000 6.3714567100000004 7.2490929199999998 O
atom 7.1425851400000004 3.7217052800000001 9.9834350900000004 O
atom 7.3800721899999999 3.7359926899999998 4.8368831900000000 O
atom 7.1124260100000001 8.8647123299999997 9.8740900000000007 O
atom 7.1357674299999996 8.9410343700000006 4.6697776800000002 O
atom 7.2010969100000004 3.8361066300000002 2.1369982500000000 O
atom 6.8704661900000001 3.9795037700000000 7.4758419800000002 O
atom 7.2536772300000001 8.9198611400000001 2.0669669700000002 O
atom 7.1223874100000000 8.8990836499999997 7.2647122800000004 O
