lattice_vector 10.2387759999999997 0.0254240000000000 0.0210250000000000 
lattice_vector 0.0615610000000000 10.0599539999999994 0.1254560000000000 
lattice_vector 0.0708210000000000 0.1711170000000000 10.0597449999999995 
atom 1.1911790000000000 -0.1225940000000000 1.1136870000000001 Si
atom 1.2708800000000000 0.0952170000000000 6.2641070000000001 Hf
atom 1.2657419999999999 5.0302129999999998 1.3094209999999999 Hf
atom 1.3852530000000001 5.0573860000000002 6.2684430000000004 Hf
atom 6.3494529999999996 0.0212860000000000 1.2534600000000000 Hf
atom 6.4626640000000002 0.0882830000000000 6.3796540000000004 Hf
atom 6.4571449999999997 5.1465350000000001 1.3014740000000000 Hf
atom 6.4724709999999996 5.1326510000000001 6.3489630000000004 Hf
atom 1.3527819999999999 2.4653369999999999 3.6889210000000001 La
atom 1.3384920000000000 2.5610770000000000 8.8639650000000003 Hf
atom 1.3311200000000001 7.6403530000000002 3.7621639999999998 Hf
atom 1.4538510000000000 7.6075260000000000 8.8090060000000001 Hf
atom 6.5557770000000000 2.6765550000000000 3.8992429999999998 Hf
atom 6.4335160000000000 2.6759759999999999 8.7991849999999996 Hf
atom 6.4349150000000002 7.5777880000000000 3.8819240000000002 Hf
atom 6.3616500000000000 7.6193410000000004 8.8202180000000006 Hf
atom 4.0484929999999997 2.6576979999999999 1.3924829999999999 Hf
atom 3.8983150000000002 2.6154120000000001 6.3771810000000002 Hf
atom 3.9071110000000000 7.6172810000000002 1.3326920000000000 Hf
atom 3.8729659999999999 7.6653359999999999 6.2999309999999999 Hf
atom 8.9384759999999996 2.6252710000000001 1.2238560000000001 Hf
atom 9.0323270000000004 2.6004730000000000 6.3337190000000003 Hf
atom 9.0423849999999995 7.5725369999999996 1.3202149999999999 Hf
atom 9.1465540000000001 7.5752480000000002 6.3716739999999996 Hf
atom 4.0498440000000002 0.1728190000000000 3.8904459999999998 Hf
atom 3.9119850000000000 0.1300700000000000 8.8483730000000005 Hf
atom 3.8976180000000000 5.1576800000000000 3.8250000000000002 Hf
atom 3.8759480000000002 5.1029439999999999 8.8750009999999993 Hf
atom 8.9402089999999994 0.0046680000000000 3.8568470000000001 Hf
atom 9.0521060000000002 0.1215180000000000 8.8029440000000001 Hf
atom 9.0306970000000000 5.1112770000000003 3.8114439999999998 Hf
atom 9.1522679999999994 5.1703419999999998 8.7855740000000004 Hf
atom -0.4502610000000000 1.4955620000000001 -0.2349730000000000 O
atom -0.1941350000000000 1.2693890000000001 5.0600350000000001 O
atom -0.2098600000000000 6.4136600000000001 -0.0771840000000000 O
atom -0.1393520000000000 6.4357340000000001 4.9594149999999999 O
atom 4.7807290000000000 1.2071440000000000 0.1020050000000000 O
atom 5.0620120000000002 1.4294720000000001 5.1293829999999998 O
atom 4.8739200000000000 6.2673030000000001 0.0370650000000000 O
atom 4.9783070000000000 6.4295549999999997 5.0386059999999997 O
atom 0.3507080000000000 0.8932170000000000 2.1254620000000002 O
atom 0.2768800000000000 1.2711310000000000 7.5199730000000002 O
atom 0.2710740000000000 6.2894759999999996 2.4812240000000001 O
atom 0.3320220000000000 6.2994589999999997 7.5083880000000001 O
atom 5.5825769999999997 1.3907470000000000 2.6149110000000002 O
atom 5.3957040000000003 1.3333260000000000 7.6612600000000004 O
atom 5.3924159999999999 6.4370469999999997 2.5431889999999999 O
atom 5.3828220000000000 6.3558779999999997 7.5681219999999998 O
atom -0.1968570000000000 3.8297240000000001 2.4878700000000000 O
atom -0.1353690000000000 3.7492749999999999 7.6543549999999998 O
atom -0.3862270000000000 8.5965430000000005 2.8637320000000002 O
atom -0.1385580000000000 8.7741849999999992 7.7802540000000002 O
atom 5.0589339999999998 3.9045740000000002 2.6440969999999999 O
atom 4.9808389999999996 3.8298009999999998 7.6461059999999996 O
atom 4.8431639999999998 8.9396339999999999 2.5695570000000001 O
atom 4.9453540000000000 8.8866429999999994 7.6330080000000002 O
atom 0.3090720000000000 3.8336410000000001 0.0119290000000000 O
atom 0.1638970000000000 3.9238879999999998 5.1407249999999998 O
atom 0.3828790000000000 8.9193800000000003 0.2254760000000000 O
atom 0.3730190000000000 8.8538510000000006 5.2008409999999996 O
atom 5.4186079999999999 3.8168359999999999 0.0963800000000000 O
atom 5.4085599999999996 3.9237860000000002 5.1393079999999998 O
atom 5.4520119999999999 8.8067119999999992 0.1095120000000000 O
atom 5.4817700000000000 8.9411020000000008 5.1811639999999999 O
atom 3.0942099999999999 1.3390560000000000 2.5668020000000000 O
atom 2.8411550000000001 1.4321210000000000 7.7201209999999998 O
atom 2.8355630000000001 6.4908729999999997 2.6347290000000001 O
atom 2.8759560000000000 6.4123880000000000 7.6153560000000002 O
atom 8.2021719999999991 1.5934969999999999 2.8182550000000002 O
atom 7.9528059999999998 1.5065770000000001 7.7503609999999998 O
atom 7.9504500000000000 6.5254019999999997 2.7152630000000002 O
atom 7.9808839999999996 6.5264689999999996 7.7348960000000000 O
atom 2.0659550000000002 0.7976910000000000 0.0500660000000000 O
atom 2.6014210000000002 1.1601010000000000 5.2151110000000003 O
atom 2.3373800000000000 6.0163909999999996 -0.0276960000000000 O
atom 2.4018329999999999 6.3350850000000003 5.0882800000000001 O
atom 7.2619639999999999 1.6175160000000000 0.3345220000000000 O
atom 7.5235360000000000 1.4212300000000000 5.2404310000000001 O
atom 7.4135850000000003 6.6449439999999997 0.2579780000000000 O
atom 7.5480530000000003 6.4461930000000001 5.2060320000000004 O
atom 2.8849640000000001 3.3841980000000000 -0.1218140000000000 O
atom 2.8895409999999999 3.8496600000000001 5.0649930000000003 O
atom 2.9622380000000001 8.4220620000000004 -0.2676020000000000 O
atom 2.9480710000000001 8.7225009999999994 4.7526320000000002 O
atom 7.9857550000000002 4.0987559999999998 0.1590920000000000 O
atom 7.9477229999999999 3.9045559999999999 5.1234539999999997 O
atom 8.1205390000000008 9.2045750000000002 0.5040840000000000 O
atom 8.0479850000000006 8.9969619999999999 5.4537259999999996 O
atom 2.5990400000000000 3.9852989999999999 2.3737290000000000 O
atom 2.4044390000000000 3.8840849999999998 7.5505290000000000 O
atom 2.1280370000000000 8.8785559999999997 2.1645110000000001 O
atom 2.4097800000000000 8.8313450000000007 7.3881699999999997 O
atom 7.5198380000000000 4.0161350000000002 2.6410740000000001 O
atom 7.5517099999999999 3.9964890000000000 7.6653830000000003 O
atom 7.3254840000000003 9.1684800000000006 2.9762949999999999 O
atom 7.4875619999999996 9.1075420000000005 8.0012120000000007 O
