lattice_vector 10.0487215100000000 0.0296188800000000 -0.1360030800000000 
lattice_vector 0.0596793100000000 10.2446051400000009 0.0770447400000000 
lattice_vector -0.0500094100000000 0.0156053900000000 10.4437958299999991 
atom 1.0918412700000000 0.1586133100000000 2.1789813699999998 Si
atom 1.3409621400000000 0.2200594100000000 6.9353168299999997 Hf
atom 1.4225668899999999 5.3874806599999996 1.8157899200000001 Hf
atom 1.4187299000000000 5.3655586800000004 7.0256941199999998 Hf
atom 1.3834538300000001 2.4153705699999999 4.3656736499999997 Hf
atom 1.5013487999999999 2.2764067899999998 9.5746811399999991 Hf
atom 1.3765332800000001 7.5036014499999997 4.4418001199999999 Hf
atom 1.4426717400000000 7.5353204500000004 9.6429526699999997 Hf
atom 3.5785338100000001 2.7496594600000002 1.7112594500000000 Hf
atom 3.6120098899999999 2.8116218700000002 6.9557897600000000 Hf
atom 3.5896694800000000 7.9662504600000004 1.7387172700000000 Hf
atom 3.6598168300000000 7.9188853600000000 7.0024580600000004 Hf
atom 3.6295430999999998 4.9495907099999998 4.3757297900000003 Hf
atom 3.6254072200000000 4.9085355000000002 9.6174720400000009 Hf
atom 3.6396007899999998 10.0963165200000002 4.3800154400000002 Hf
atom 3.6492345700000000 10.0467216700000002 9.6159508700000007 Hf
atom 6.3765432400000002 0.2256865400000000 0.7265698400000000 Hf
atom 6.3666056199999996 0.2306513400000000 5.9654647499999998 Hf
atom 6.4075240700000000 5.4006007599999997 0.8572509300000000 Hf
atom 6.4307000099999998 5.3563175400000000 6.0375985999999999 Hf
atom 6.3576052100000000 2.4022722399999998 3.3730496300000001 Hf
atom 6.3768283099999996 2.2991754900000001 8.5399775600000005 Hf
atom 6.3831191199999999 7.5056381400000003 3.4136647700000000 Hf
atom 6.4450142799999997 7.4737238599999998 8.6494862500000007 Hf
atom 8.9814478599999994 2.5774293799999999 0.9843791400000000 La
atom 8.6387152000000000 2.8094059499999999 5.9669918600000003 Hf
atom 8.7425857899999997 7.9334435299999999 0.7966344300000000 Hf
atom 8.6567723200000000 7.9217326100000003 6.0321537599999999 Hf
atom 8.6474481599999997 5.0049938500000000 3.3854746400000000 Hf
atom 8.7720788600000006 4.9334267499999997 8.5994983699999992 Hf
atom 8.5673385999999994 10.0289488599999999 3.4640442100000000 Hf
atom 8.6863405700000005 10.0715625200000005 8.6236826000000004 Hf
atom 0.8920171000000000 1.2721743100000000 0.9547651700000001 O
atom 0.3226310000000000 1.7372992000000000 6.0617543100000004 O
atom 0.4646270500000000 6.9628773099999997 0.9775776100000000 O
atom 0.3728718900000000 6.8900131399999998 6.1902407699999999 O
atom 0.2375700000000000 0.8847676400000000 3.4502990800000002 O
atom 0.3250582400000000 0.8529351400000000 8.6902014100000002 O
atom 0.3689582500000000 5.9779321100000002 3.6307273400000000 O
atom 0.4016673600000000 5.9805095100000001 8.7667421399999998 O
atom 4.7071717199999998 4.2695000900000002 0.8624499900000000 O
atom 4.6783375899999999 4.3098944599999998 6.0752812399999998 O
atom 4.7625765900000001 9.3867123299999999 0.8769592600000000 O
atom 4.6882360500000004 9.4230103700000001 6.0923917899999998 O
atom 4.6164861899999998 3.4148297500000000 3.4809645599999999 O
atom 4.7072731299999999 3.4405956799999999 8.6571946700000009 O
atom 4.6175555199999998 8.5769767899999998 3.4695164900000002 O
atom 4.7170942000000000 8.5353681699999999 8.6967702500000001 O
atom 2.5871270900000001 1.2343284900000000 2.9411691900000001 O
atom 2.7352760599999999 1.2548642000000001 8.1439491799999999 O
atom 2.7688365899999998 6.4979729300000004 3.0934906500000001 O
atom 2.8118543200000001 6.4031481699999997 8.2976008599999993 O
atom 3.1867804000000000 1.5294588200000001 0.1362612600000000 O
atom 2.7523523800000000 1.3435010300000001 5.5860566299999999 O
atom 2.8384397300000002 6.4122433499999998 0.4626056700000000 O
atom 2.7793801700000000 6.4407116000000002 5.6944534800000000 O
atom 2.2206998699999998 3.8728703000000002 3.0766867699999998 O
atom 2.2719765900000000 3.8241622899999999 8.2821943099999995 O
atom 2.0906194000000000 9.1110063399999994 2.9676232499999999 O
atom 2.2637480600000002 8.9541515100000009 8.2577064999999994 O
atom 2.2018299300000002 3.8903382299999998 0.4648992500000000 O
atom 2.2272797600000001 3.8890170199999998 5.6646588500000004 O
atom 2.3790228800000000 8.9783928399999997 0.3858839700000000 O
atom 2.2636701900000000 9.0248503600000003 5.6477982500000001 O
atom 5.3293990400000002 1.7341280699999999 1.6663764599999999 O
atom 5.3322716500000000 1.7350555299999999 6.8596030299999997 O
atom 5.3433203699999998 6.8614448499999998 1.7145470400000000 O
atom 5.3898408299999998 6.8521714100000004 6.9319585100000003 O
atom 5.3026984099999996 0.8872502100000000 4.2752483100000003 O
atom 5.3741129100000000 0.7888626300000000 9.4069157899999993 O
atom 5.3626077299999997 6.0021535500000001 4.3176977799999996 O
atom 5.3809667599999997 5.9714766900000003 9.5444711299999998 O
atom 9.6854939899999994 4.5792319900000003 1.6378572100000000 O
atom 9.7142376200000005 4.3430167500000003 6.7910618700000001 O
atom 9.7914331699999995 9.4918769399999992 1.7456520700000000 O
atom 9.7027986199999994 9.4523729000000003 6.8711295100000003 O
atom 9.6367991300000000 3.3871509299999998 4.1410900200000000 O
atom 9.7710148799999992 3.4052373700000000 9.4093371000000001 O
atom 9.6846294999999998 8.5655949499999995 4.2987075600000004 O
atom 9.7087081800000004 8.5574626200000008 9.4900056799999994 O
atom 7.7297316800000004 1.2714703500000000 9.8554036200000006 O
atom 7.7565112899999997 1.2896027699999999 4.6999137900000001 O
atom 7.8329936499999997 6.3181308500000002 9.9859525599999994 O
atom 7.7854095000000001 6.4401124599999999 4.7349538400000002 O
atom 7.5985607799999997 1.1815550500000001 2.1790895400000001 O
atom 7.7755953399999997 1.3195964800000000 7.2462918800000002 O
atom 7.7948617000000002 6.4972416700000002 2.1309936299999999 O
atom 7.8315782499999997 6.4489144100000004 7.3437789899999997 O
atom 7.2592986399999999 3.8681760299999999 4.7534485399999999 O
atom 7.2997477100000001 8.9404204200000006 9.9748001399999993 O
atom 7.2294972800000004 8.9688678799999995 4.7489017300000000 O
atom 7.2087476300000004 3.9414785499999998 2.1521757899999998 O
atom 7.2989418199999996 3.8865876400000001 7.4123404400000004 O
atom 7.3363392300000001 8.9612106699999998 2.1270628299999998 O
atom 7.2893548199999998 9.0017578100000009 7.3593818799999999 O
