lattice_vector 10.1505604799999993 0.0337699300000000 0.8600510300000000 
lattice_vector 0.0239836900000000 10.3525112200000002 0.0011635100000000 
lattice_vector 0.7823887400000000 0.0022236200000000 10.4242770100000008 
atom 1.3243501400000000 0.0414348000000000 1.4999149100000000 Hf
atom 1.8770419599999999 0.2398896700000000 6.9411789199999996 Hf
atom 1.5592400000000000 5.4141261800000002 1.6309532000000000 Hf
atom 1.9063013700000000 5.4178569200000002 6.8334714400000003 Hf
atom 6.6498317599999996 0.2294463300000000 2.0538166699999998 Hf
atom 6.9584534099999997 0.2337267600000000 7.2878104900000000 Hf
atom 6.6578628999999996 5.4271394300000004 2.0540267299999999 Hf
atom 6.9726525700000002 5.4458491300000000 7.2925959200000001 Hf
atom 1.5835759599999999 2.5045704700000000 4.2278879900000002 La
atom 2.1235683100000000 2.3900582699999999 9.5131648200000001 Hf
atom 1.7377857200000000 7.5574700699999999 4.2315728799999999 Hf
atom 2.1180001200000000 7.5490502499999996 9.4354743400000007 Hf
atom 6.8505429199999996 2.4351536600000001 4.6862883999999996 Hf
atom 7.2395527399999997 2.3700556499999998 9.8943427300000000 Hf
atom 6.8019470300000000 7.5857881000000003 4.6999145000000002 Hf
atom 7.1932348700000004 7.5649286499999997 9.8646518099999998 Hf
atom 3.8931144199999999 2.9736120200000000 1.2159191800000000 Hf
atom 4.1454837900000001 2.8281643000000001 6.6407836199999997 Hf
atom 3.7953596500000000 7.9944061099999999 1.3607365600000001 Hf
atom 4.1299259499999996 8.0065381700000007 6.6099598999999998 Hf
atom 8.8593580700000008 2.8562630400000000 1.8498488700000000 Hf
atom 9.1247807099999996 2.8320375300000000 7.1070492300000003 Hf
atom 8.7995683299999996 7.9441415099999997 1.7819716999999999 Hf
atom 9.2294718299999996 8.0146298300000005 7.0364147600000004 Hf
atom 4.0260119899999998 4.9997579200000004 3.9906663299999998 Hf
atom 4.3172004499999996 5.0280914000000001 9.1465601700000008 Hf
atom 3.9464743699999998 10.2589689199999992 4.0279597400000000 La
atom 4.3703492500000003 10.1580729800000000 9.2394155100000006 Hf
atom 8.9927404099999997 5.0484103400000002 4.4412917500000004 Hf
atom 9.4452810300000003 4.9785265100000000 9.6268684600000007 Hf
atom 9.0298395599999992 10.1597730899999998 4.4274326899999998 Hf
atom 9.4339264499999995 10.1331234800000001 9.6544436000000005 Hf
atom 0.4775107600000000 1.8088860300000000 0.9261772800000000 O
atom 0.6454175900000000 1.7104506100000001 6.2670506499999998 O
atom 0.4564066600000000 6.9575183200000001 0.8886024900000000 O
atom 0.8111852800000000 6.9265194399999999 6.0639598699999997 O
atom 5.5171875600000000 1.8003976700000000 1.3225256100000000 O
atom 5.9129085000000003 1.7989845499999999 6.5307730099999999 O
atom 5.5626401100000002 6.9683270100000003 1.3034615000000001 O
atom 5.9204462299999996 6.9912976799999997 6.5573673499999998 O
atom 0.7882320900000001 0.5501689300000000 3.3763874399999998 O
atom 1.0434104900000001 0.7638491900000000 8.8261353600000003 O
atom 0.6966107600000000 5.9172295999999998 3.5152817500000002 O
atom 1.0408092300000000 5.9801324600000001 8.6983845399999993 O
atom 5.9471618099999999 0.8452065900000000 3.8755444600000000 O
atom 6.0839329900000001 0.8591767300000001 9.1570619099999995 O
atom 5.7791048399999996 5.9934728399999999 3.9376345900000000 O
atom 6.0963282000000003 6.0239828500000003 9.1351954600000003 O
atom 4.9572050100000000 4.4108383800000004 2.1366211000000002 O
atom 5.2167692099999998 4.4188006399999997 7.3629244199999997 O
atom 4.9309799500000002 9.5497666399999996 1.9921975999999999 O
atom 5.2121492800000002 9.5874662700000002 7.3705631599999997 O
atom 9.9697877300000002 4.3765576099999999 2.6248991199999998 O
atom 10.3003299500000001 4.3859128700000003 7.7806510299999996 O
atom 9.7587822499999994 9.6013747400000007 2.4281966000000001 O
atom 10.3022697000000001 9.5424607600000009 7.8334788299999998 O
atom 5.0100597799999997 3.3433790999999999 4.7162036100000000 O
atom 5.4924013000000000 3.5011829300000001 9.9224362300000006 O
atom 5.0474439999999996 8.5183488100000009 4.8056625400000001 O
atom 5.4321247200000000 8.5645620200000003 9.9203870599999995 O
atom 9.7844146399999996 3.4177550200000000 5.2418451599999996 O
atom 10.5205141700000002 3.4292727200000002 10.4007216200000006 O
atom 10.0832818399999997 8.5691699200000002 5.1493507799999998 O
atom 10.5020696400000002 8.5634642200000002 10.3757078800000002 O
atom 3.3963152800000000 1.3717424100000000 8.1255413200000000 O
atom 3.0356676500000002 6.5046756500000003 2.7345366000000002 O
atom 3.3703451300000000 6.5298170899999999 7.9401734599999996 O
atom 8.2116426699999998 1.3998557800000000 3.1832963400000001 O
atom 8.4072524600000005 1.3384695099999999 8.4316513900000007 O
atom 8.0942866599999999 6.5475808400000002 3.1692444700000002 O
atom 8.4701654400000006 6.5415416100000003 8.3885631400000005 O
atom 3.0980457800000001 1.3383467499999999 5.6375821699999999 O
atom 3.6309436000000002 1.2562288300000000 10.8101566299999998 O
atom 3.2082154200000002 6.4839421200000000 5.3309712800000000 O
atom 3.5918704600000000 6.4523092799999997 10.5496101400000004 O
atom 8.2609078500000006 1.2495003700000000 5.8064969700000004 O
atom 8.6671533400000005 1.2713042999999999 11.0108762200000001 O
atom 8.2661731700000001 6.4703508599999999 5.7910161999999996 O
atom 8.6823244299999995 6.4360683500000002 10.9726650200000009 O
atom 2.3066389300000001 3.9796925299999999 0.2070293000000000 O
atom 2.8004797099999998 4.0738336000000004 5.5351935599999997 O
atom 2.2981378900000000 9.0832032700000003 0.2106819700000000 O
atom 2.5675178600000002 9.0551907299999996 5.5787200400000003 O
atom 7.4002714300000001 3.9466315500000002 0.7198790800000000 O
atom 7.6074012900000003 3.9979116200000000 5.9727334299999999 O
atom 7.3898393799999997 9.1039785099999992 0.6886295700000000 O
atom 7.7627682399999998 9.1381982199999996 5.9304162500000004 O
atom 2.6852482400000000 3.8491411900000001 2.7162579099999999 O
atom 2.8582885199999999 3.8409441700000002 8.0978322100000000 O
atom 2.4148825899999999 8.9371148900000001 2.7295023899999999 O
atom 2.8967087800000000 9.0223089499999993 8.1255914199999992 O
atom 7.5872613800000002 3.8890372100000001 3.3208403600000000 O
atom 7.9435686700000003 3.8591030499999999 8.5731248900000008 O
atom 7.5827281900000001 9.0242103900000004 3.3282666100000000 O
atom 7.9409437599999997 9.0340921099999996 8.5309854800000000 O
