lattice_vector 10.1174490699999993 0.0250414500000000 0.0142814100000000 
lattice_vector 0.0220993800000000 10.2344863999999998 -0.0020342300000000 
lattice_vector -0.0240860100000000 -0.0326250600000000 10.4313328300000006 
atom 1.1437830200000001 0.1026609500000000 1.9094076400000000 Si
atom 1.3625097500000001 0.1841135800000000 6.9645254699999999 Hf
atom 1.3727364200000001 5.3213171800000003 1.7947362099999999 Hf
atom 1.4097283599999999 5.2917332899999998 6.9855418699999996 Hf
atom 1.3706309999999999 2.3187072500000001 4.2832071200000001 Hf
atom 1.4316187800000000 2.2659249500000000 9.6242248099999994 Hf
atom 1.3485655400000001 7.4567492800000004 4.4015763100000003 Hf
atom 1.2973858300000001 7.4372927300000002 9.5415768500000002 Hf
atom 3.6394777999999999 2.7971885699999999 1.7443766400000000 Hf
atom 3.6394003100000001 2.7651771699999999 6.9703957499999998 Hf
atom 3.6146957099999999 7.8527141000000000 1.6144778300000000 La
atom 3.6428234499999999 7.8833759900000002 7.0585813300000000 Hf
atom 3.6519742200000000 4.9132791800000000 4.4151266199999997 Hf
atom 3.6206689399999998 4.8583318000000002 9.6009558599999991 Hf
atom 3.6599008099999999 10.0544011799999993 4.2014971799999996 La
atom 3.6272252200000001 10.1271422300000005 9.6487602799999994 Hf
atom 6.4810430099999996 0.2851923300000000 0.8238099500000000 Hf
atom 6.4547095800000003 0.1697724300000000 6.0669396500000001 Hf
atom 6.4891741500000002 5.3225062799999998 0.8405907200000000 Hf
atom 6.4416429700000002 5.3343133099999998 6.0927502100000002 Hf
atom 6.4806548399999997 2.3746501300000000 3.4369194099999998 Hf
atom 6.4429146099999999 2.3428159200000001 8.6408961299999998 Hf
atom 6.7690255400000003 7.3334230500000004 3.4726678600000001 Hf
atom 6.4294437499999999 7.4657601500000004 8.7116292800000004 Hf
atom 8.8167749299999993 2.7114287099999999 0.8554314400000000 Hf
atom 8.7169893999999992 2.7399424300000002 6.0716322700000003 Hf
atom 8.7465271399999995 7.9439710600000000 0.8478063600000000 Hf
atom 8.7225238100000002 7.8668215600000000 6.1246912099999999 Hf
atom 8.7651240799999997 4.8364377000000003 3.4673998099999999 Hf
atom 8.7118725900000005 4.8608545300000001 8.6805106599999995 Hf
atom 8.6965174199999993 10.0326071799999994 3.4839796800000000 Hf
atom 8.7124593499999996 10.0426600900000000 8.6692772900000001 Hf
atom 0.4912470800000000 1.5043010000000001 0.9238487399999999 O
atom 0.3247861800000000 1.6323470200000001 6.0192303999999996 O
atom 0.3439364500000000 6.8609418700000004 0.8952760700000000 O
atom 0.3166010400000000 6.7661789700000003 6.1168583700000001 O
atom 0.3341701000000000 0.7598835300000000 3.3987136699999998 O
atom 0.3040087100000000 0.8584265100000000 8.6539346800000008 O
atom 0.3241092800000000 5.9263237100000001 3.5168364900000002 O
atom 0.3004379400000000 5.9598098700000000 8.6863301400000008 O
atom 4.6928248000000004 4.3596249000000000 0.9162110999999999 O
atom 4.7182951900000001 4.2737297700000001 6.0991693500000004 O
atom 4.7329214999999998 9.6517571300000000 0.9804395400000000 O
atom 4.8072318899999997 9.2544067800000001 6.1087334499999999 O
atom 4.7081308799999997 3.3657101900000002 3.5615116000000002 O
atom 4.7325786100000000 3.4247796400000001 8.6626888799999993 O
atom 4.6729517700000001 8.5073955800000007 8.8252305599999996 O
atom 2.4850530100000001 1.2431858400000000 2.6597439000000000 O
atom 2.7620895999999999 1.2118844900000001 8.1676645200000006 O
atom 2.7413718800000000 6.3410703899999996 3.1424365900000000 O
atom 2.7599549099999998 6.3365540999999999 8.2610298899999997 O
atom 3.1552593700000000 1.6701782400000000 0.1484563500000000 O
atom 2.7449690699999998 1.3599854899999999 5.5735442700000002 O
atom 2.6216633100000002 6.3588048800000001 0.3169097400000000 O
atom 2.7892021499999999 6.4021720899999996 5.6992948999999999 O
atom 2.2898973800000002 3.8283692700000000 3.0929178899999998 O
atom 2.2644743900000002 3.7770814300000000 8.2855452900000000 O
atom 1.9209955700000001 8.9294504600000000 2.9811341400000000 O
atom 2.2544544700000002 8.9156461500000006 8.3589358399999991 O
atom 2.2247618500000002 3.9102066199999999 0.4828428300000000 O
atom 2.2573938099999999 3.8509371699999999 5.6565533600000002 O
atom 2.0549708400000002 9.5351937000000007 0.5346027200000000 O
atom 2.2100018700000001 8.8985944299999993 5.7556200999999998 O
atom 5.4599218599999997 1.8323846699999999 1.7066950599999999 O
atom 5.3778583099999997 1.6928037100000000 6.8825673399999996 O
atom 5.6255797300000001 6.8386732900000000 1.8966287100000001 O
atom 5.3766045299999998 6.7677343099999998 7.0554751299999996 O
atom 5.6626209300000001 0.7174885400000000 4.2281574400000004 O
atom 5.4619925599999997 0.8102132000000000 9.4834567500000002 O
atom 5.3920348000000002 6.1407844000000003 4.4073276300000002 O
atom 5.3435636300000002 6.0065587400000000 9.6576738300000002 O
atom 9.8396074200000001 4.1937013600000004 1.7886477199999999 O
atom 9.7908271899999999 4.2093491299999997 7.0026040099999998 O
atom 9.8008781700000007 9.4564989500000003 1.7354541000000001 O
atom 9.7696415400000003 9.3595356400000007 6.9771161299999997 O
atom 9.7741936799999998 3.3684534899999998 4.3612088800000004 O
atom 9.8131267199999996 3.4032443099999998 9.6439862499999993 O
atom 9.6937206400000004 8.4903663700000003 4.3671017399999998 O
atom 9.7134537499999993 8.5227213099999997 9.5579985900000004 O
atom 7.8726051500000001 1.2776480299999999 9.9776470600000007 O
atom 7.9413649399999997 1.2394190800000000 4.8006704100000004 O
atom 7.8275208699999999 6.3723181000000002 10.0114385699999993 O
atom 7.9254291500000003 6.2854553500000003 4.8163790500000001 O
atom 7.8793899400000003 1.2954861900000001 2.1624963199999998 O
atom 7.8242963500000000 1.2848396900000001 7.3753962000000000 O
atom 8.0313382799999999 6.3884635200000002 2.1879457699999998 O
atom 7.8311795300000000 6.3878796199999996 7.4111715599999997 O
atom 7.3442426300000001 3.7916272900000001 9.9928533799999997 O
atom 7.3268481200000002 3.8051942200000002 4.7838162000000004 O
atom 7.3112209899999998 8.9500398000000008 10.0222636000000005 O
atom 7.3052171299999999 8.8569370299999992 4.8130132400000001 O
atom 7.3857355699999996 3.8541840000000001 2.1517760300000002 O
atom 7.3286135100000003 3.8473809100000000 7.3798844099999998 O
atom 7.3527866199999998 8.9616511499999998 2.2121078399999998 O
atom 7.3334350500000003 8.9524106700000008 7.4196945899999998 O
