lattice_vector 10.0617889599999994 -0.0277462400000000 -0.0211419700000000 
lattice_vector 0.0041362700000000 10.2676756600000001 -0.0025955200000000 
lattice_vector -0.0027093800000000 -0.0241843700000000 10.4548423800000005 
atom 1.3791376900000001 0.0629628800000000 1.6380001799999999 La
atom 1.3869903400000001 0.2013484200000000 7.0177139500000001 Hf
atom 1.3920731399999999 5.3511088400000002 1.7833770000000000 Hf
atom 1.4081796799999999 5.3140324699999999 6.9855634100000001 Hf
atom 1.3955836100000001 2.2992285500000000 4.3782421200000003 Hf
atom 1.3873870500000001 2.3827766399999999 9.5940212700000007 Hf
atom 1.4014135900000000 7.4543781100000004 4.4175354000000002 Hf
atom 1.3727904000000000 7.4126655499999998 9.5896545100000008 Hf
atom 3.6133175500000001 2.7560149100000002 1.7698056799999999 Hf
atom 3.6383255100000000 2.7532136999999999 6.9883465999999999 Hf
atom 3.7383713400000000 7.8159760900000004 1.8407009000000001 Hf
atom 3.6397974999999998 7.8823123700000002 7.0151440400000000 Hf
atom 3.6366506500000000 4.8719130799999997 4.3828063000000004 Hf
atom 3.6522818400000001 4.8891995899999996 9.6156014600000006 Hf
atom 3.6448054600000002 10.0234771499999997 4.4006867500000002 Hf
atom 3.7115313200000002 10.0842731299999997 9.5203708999999996 Hf
atom 6.4059777499999999 0.1837385300000000 0.8430138300000000 Hf
atom 6.4224260900000001 0.1841340500000000 6.0563923099999997 Hf
atom 6.4412652899999996 5.2927484099999997 0.8027738300000000 Hf
atom 6.4255435199999997 5.3112664000000001 6.0176024799999999 Hf
atom 6.4126152000000003 2.3251125300000002 3.4247769300000002 Hf
atom 6.4423730700000004 2.3250522899999999 8.6399123099999997 Hf
atom 6.4622244000000002 7.4485074200000003 3.4576955100000002 Hf
atom 6.4304367999999998 7.4393742200000004 8.6335035700000002 Hf
atom 8.6664771799999993 2.7684602599999999 0.7923079600000000 Hf
atom 8.6790932200000004 2.7454303900000001 6.0225028399999996 Hf
atom 8.6123089799999999 7.8610185499999998 0.8109355300000000 Hf
atom 8.6866772000000001 7.8804106599999999 6.0447297700000000 Hf
atom 8.6793008900000004 4.8795655499999997 3.4207675900000001 Hf
atom 8.6478100100000006 4.8738121400000001 8.6193062900000008 Hf
atom 8.6272003900000005 10.0304986599999992 3.4638524300000002 Hf
atom 8.6702989600000002 10.0164911799999992 8.6719967600000007 Hf
atom 0.3629531700000000 1.9141905200000000 0.8639458300000000 O
atom 0.3509732300000000 1.7170307199999999 6.1521345099999998 O
atom 0.3836851900000000 6.9292615700000004 0.9122468600000000 O
atom 0.3547783300000000 6.8412501299999997 6.1429968300000004 O
atom 0.2666266400000000 0.8403931400000000 3.5952756600000000 O
atom 0.3578254000000000 0.8250574899999999 8.7680431999999993 O
atom 0.3539604800000000 5.9697851300000000 3.5136491799999998 O
atom 0.3381227600000000 5.9607831600000001 8.7218295599999998 O
atom 4.6939246099999998 4.2582841100000000 0.8626054700000000 O
atom 4.7024577200000000 4.2367246900000000 6.0871871300000002 O
atom 4.5312741799999996 9.4296905300000002 0.8683383400000000 O
atom 4.6923468699999997 9.3897327399999995 6.1217855900000000 O
atom 4.6986955799999999 3.4104154200000001 3.4645585200000002 O
atom 4.6971736899999996 3.3895323700000000 8.7047027900000007 O
atom 4.7448063300000003 8.5121265600000005 3.5286289399999999 O
atom 4.7171292600000001 8.5240595999999993 8.6938289599999994 O
atom 2.8438115000000002 1.2787974400000000 3.1203968899999999 O
atom 2.7751209299999999 1.2555013300000000 8.2437700300000003 O
atom 2.8019368500000001 6.3272510200000003 3.0675592900000002 O
atom 2.7793803200000000 6.3726688700000000 8.2854114100000000 O
atom 2.8828801999999998 1.3873810499999999 0.3057955500000000 O
atom 2.7733865000000000 1.2600292000000000 5.6830725099999997 O
atom 2.7884129999999998 6.4948379200000002 0.4416844200000000 O
atom 2.7870370599999998 6.3968064599999996 5.6803476499999999 O
atom 2.2289348000000002 3.8048356399999999 3.0531237700000000 O
atom 2.2652892900000001 3.8291922600000001 8.2799773400000003 O
atom 2.3461480899999998 8.8255670399999993 3.1290240900000001 O
atom 2.2553205799999998 8.9505240300000004 8.3772911099999998 O
atom 2.2440320200000001 3.9253144899999999 0.4402617900000000 O
atom 2.2549495300000002 3.8340031300000001 5.6750129400000002 O
atom 2.2509780899999998 8.9711672700000005 5.7295622300000000 O
atom 5.3553424300000003 1.6824237200000001 1.7084014500000000 O
atom 5.3726737299999998 1.6825528300000001 6.9459627700000004 O
atom 5.4109689599999999 6.7807785200000001 1.7414334400000000 O
atom 5.3632083499999998 6.8032176399999997 6.9381066000000002 O
atom 5.3762937700000002 0.8158540500000000 4.3367772499999999 O
atom 5.4349693700000001 0.7892819100000000 9.5209982499999999 O
atom 5.3730294299999999 5.9518604499999999 4.3325378399999996 O
atom 5.3713818800000004 5.9642830599999996 9.5699988000000005 O
atom 9.6895686899999998 4.3286955400000000 1.6712898599999999 O
atom 9.7166565600000006 4.2655306599999996 6.9063826500000003 O
atom 9.4476764400000004 9.3777038200000007 1.7382275400000000 O
atom 9.7270254000000005 9.3653658100000001 6.9721708800000002 O
atom 9.7232593999999999 3.3787392399999998 4.3114881900000004 O
atom 9.6846818799999994 3.3848251299999998 9.4862395599999996 O
atom 9.7301721600000004 8.5104512600000000 4.3354514000000002 O
atom 9.7705393600000008 8.5611490499999991 9.6171515000000003 O
atom 7.8097241799999999 1.2200730399999999 10.0001399899999992 O
atom 7.7773723900000000 1.2571369100000001 4.7736915199999999 O
atom 7.8109832499999996 6.3409125399999997 9.9510983700000004 O
atom 7.8302931500000001 6.3660587399999997 4.7494428700000002 O
atom 7.7830587900000001 1.2690680200000000 2.1449060400000000 O
atom 7.8231242999999999 1.2595077699999999 7.3776334900000000 O
atom 7.8246116399999996 6.4014668600000002 2.1340896400000000 O
atom 7.8057711999999997 6.3948301499999998 7.3443370699999999 O
atom 7.2687212600000004 3.7985036600000002 9.9533814399999994 O
atom 7.2848863200000000 3.8113356500000002 4.7348868499999996 O
atom 7.2741720100000000 8.9125691499999995 9.9795871999999992 O
atom 7.2939181599999996 8.9343583500000001 4.7800659500000000 O
atom 7.2809621000000000 3.8335197800000000 2.1294275400000000 O
atom 7.2845856600000003 3.8203509300000000 7.3419638699999998 O
atom 7.1173158100000000 8.9610203199999994 2.1470180399999998 O
atom 7.2949489900000000 8.9613349299999996 7.3748338999999996 O
