lattice_vector 10.0342842200000000 0.0289930600000000 -0.0587703900000000 
lattice_vector 0.0506218700000000 10.2036669300000007 0.0213845900000000 
lattice_vector -0.0295758500000000 -0.0151685100000000 10.4575229600000004 
atom 1.1871794800000000 0.0911393300000000 1.9701385800000000 Si
atom 1.3323610900000000 0.2399817800000000 6.9311440500000003 Hf
atom 1.4222907499999999 5.3747355199999998 1.7786958900000001 Hf
atom 1.3978002700000001 5.2621367899999996 7.0164154700000001 Hf
atom 1.3909074100000001 2.3355129699999999 4.2918375900000001 Hf
atom 1.4358205600000000 2.2557254000000002 9.6467466599999998 Hf
atom 1.3838160100000001 7.4302459900000004 4.4209112900000003 Hf
atom 1.4159082300000001 7.6608544399999996 9.5379092300000003 La
atom 3.6125453300000001 2.7907509300000002 1.7431938499999999 Hf
atom 3.6240922200000001 2.7667136100000000 6.9863434299999998 Hf
atom 3.6218993300000002 7.9535193399999997 1.8043837800000000 Hf
atom 3.7101904999999999 7.8218551300000003 6.9145315099999998 Hf
atom 3.6258607999999999 4.8916812600000004 4.3857657400000001 Hf
atom 3.5959868699999999 4.8949097200000002 9.6255346999999993 Hf
atom 3.6167878000000000 10.0291640300000005 4.3578214300000004 Hf
atom 3.7432121999999999 10.1252391300000006 9.7109260899999992 Hf
atom 6.4519514300000003 0.2442733100000000 0.8060179200000001 Hf
atom 6.3620901300000003 0.2274434400000000 5.9959735099999998 Hf
atom 6.4227226799999997 5.3287933100000000 0.8055552700000000 Hf
atom 6.4319394599999997 5.3085230799999996 6.0357960500000001 Hf
atom 6.4043678100000001 2.3546706700000000 3.3809537000000001 Hf
atom 6.4199243600000004 2.3890607699999999 8.6371451700000001 Hf
atom 6.4035325199999997 7.4343618400000002 3.4349019500000000 Hf
atom 6.3916636799999997 7.4520460499999999 8.6896345600000000 Hf
atom 8.7628485000000005 2.7281364799999999 0.8343138900000000 Hf
atom 8.6215043199999997 2.7716565000000002 5.9921723800000004 Hf
atom 8.6487153899999996 7.8846676400000000 0.8472674400000000 Hf
atom 8.6417571199999994 7.8548935799999997 6.0645594000000003 Hf
atom 8.6611577099999995 4.9001927600000004 3.3982574500000000 Hf
atom 8.6826966100000007 4.8686380099999997 8.6626971400000006 Hf
atom 8.6679931499999991 9.9928408599999994 3.4460779800000001 Hf
atom 8.6168811099999996 10.0345237199999993 8.6385640000000006 Hf
atom 0.5865847900000000 1.4690693800000001 0.9771190600000000 O
atom 0.2909613600000000 1.6163416200000000 5.9941405600000000 O
atom 0.2966712000000000 6.7911356899999999 0.9709048400000000 O
atom 0.3438793300000000 6.7540101400000001 6.1382916200000004 O
atom 0.3811001200000000 0.7678089700000000 3.4149076500000000 O
atom 0.3444210900000000 0.7992595300000001 8.6898396800000004 O
atom 0.3463160400000000 5.9412302900000000 3.5387722500000001 O
atom 0.3647840800000000 5.8145530200000000 8.7236394500000003 O
atom 4.7033006400000001 4.2724786100000003 0.8565490700000000 O
atom 4.6774402799999999 4.2682219200000002 6.0945916699999998 O
atom 4.7589859199999998 9.3794554500000000 0.8937349100000000 O
atom 4.6957521800000004 9.3769103900000008 6.0672502300000000 O
atom 4.6892695900000003 3.4077733700000001 3.4828597100000001 O
atom 4.6915108300000004 3.4270405700000000 8.6828926299999996 O
atom 4.6504885299999996 8.5060491999999996 3.5113239100000002 O
atom 4.5197066200000000 8.4744688999999997 8.7167735499999992 O
atom 2.6537104700000000 1.1790577300000000 2.8402351299999999 O
atom 2.7513472600000002 1.1412982700000001 8.1767226999999991 O
atom 2.7780803700000001 6.4149186199999999 3.0853743800000002 O
atom 2.8750852400000002 6.2828434199999998 8.1735192500000000 O
atom 3.1333591400000000 1.6349574200000001 0.1704502900000000 O
atom 2.7516727500000000 1.3156407200000000 5.5735417099999998 O
atom 2.8781304300000001 6.4700652400000003 0.5168678400000000 O
atom 2.7724366699999998 6.3804229599999998 5.6503170400000000 O
atom 2.2592017499999999 3.8257555700000001 3.0736851199999999 O
atom 2.2477025600000000 3.7292464999999999 8.3051181900000000 O
atom 2.1347421199999999 8.9866860899999992 3.0746197300000002 O
atom 2.2088945600000001 3.9411544900000002 0.4573994300000000 O
atom 2.2373901200000001 3.8137999900000001 5.6633900500000003 O
atom 2.2111207400000001 9.4389932499999993 0.6888428400000000 O
atom 2.2635934899999999 8.9366215300000000 5.7360380700000002 O
atom 5.3850676399999999 1.7287521900000000 1.6911959800000000 O
atom 5.3476447800000004 1.7168551000000001 6.9240031599999998 O
atom 5.3662162499999999 6.8469704800000004 1.7243928200000000 O
atom 5.4338892300000001 6.8479577899999997 6.9032055699999999 O
atom 5.3153003200000004 0.8599862200000000 4.2772293799999996 O
atom 5.4365802399999996 0.8344520000000000 9.5016133000000007 O
atom 5.3622665100000004 5.9588115500000001 4.3337961199999997 O
atom 5.3527842100000003 5.9550897799999998 9.5504914099999993 O
atom 9.7573984399999993 4.2295769900000000 1.7224006400000000 O
atom 9.7028990200000003 4.1814870600000003 6.9283479899999998 O
atom 9.8215571100000005 9.3730421600000007 1.7602015700000000 O
atom 9.7876534900000003 9.2505720500000006 7.0357342599999999 O
atom 9.6838695599999998 3.3807245600000000 4.2734491600000002 O
atom 9.7268393000000000 3.3322014300000000 9.6043942700000002 O
atom 9.7037719399999993 8.5426777299999994 4.3882726300000003 O
atom 9.4600399300000007 8.5686461699999992 9.6245811700000008 O
atom 7.8220168399999999 1.2596158799999999 9.9745341799999991 O
atom 7.7629922899999997 1.2585473800000000 4.7042256099999999 O
atom 7.7835859200000002 6.3679474699999998 9.9932802899999995 O
atom 7.8068582199999996 6.3643355200000000 4.7584720100000002 O
atom 7.8360526500000001 1.2905370800000000 2.1123765300000001 O
atom 7.7763486999999998 1.3184733799999999 7.3092966300000004 O
atom 7.7735681999999997 6.3862965699999998 2.1548688999999999 O
atom 7.8059466600000000 6.3897811200000003 7.3970751999999997 O
atom 7.3043755800000003 3.7946245699999999 9.9955697299999997 O
atom 7.2661335100000004 3.8248710099999998 4.7304845599999998 O
atom 7.1213735399999996 8.9075776500000003 9.9995798899999997 O
atom 7.2646090200000000 8.9083434900000000 4.7606226800000000 O
atom 7.3117962299999997 3.8261990600000000 2.1091801700000001 O
atom 7.2651060799999998 3.8510449100000002 7.3495270000000001 O
atom 7.3336499899999996 8.9664001599999992 2.1686870300000001 O
atom 7.2672585800000000 8.9693590099999998 7.3679674100000003 O
