lattice_vector 10.1575389999999999 -0.0362090000000000 0.8096750000000000 
lattice_vector -0.0151860000000000 10.3560580000000009 -0.0180490000000000 
lattice_vector 0.8642800000000000 -0.0066410000000000 10.4512459999999994 
atom 1.4775320000000001 0.1055220000000000 1.5744959999999999 La
atom 1.9861860000000000 0.2197490000000000 6.8782600000000000 Hf
atom 1.5175430000000001 5.3567260000000001 1.6193780000000000 Hf
atom 1.9650360000000000 5.3832000000000004 6.8487689999999999 Hf
atom 6.5556049999999999 0.0872200000000000 1.9788740000000000 La
atom 7.0651260000000002 0.2017260000000000 7.2828390000000001 Hf
atom 6.5964140000000002 5.3386880000000003 2.0239609999999999 Hf
atom 7.0439449999999999 5.3652639999999998 7.2533820000000002 Hf
atom 1.7334760000000000 2.3668179999999999 4.2653939999999997 Hf
atom 2.1844440000000001 2.4017780000000002 9.4524419999999996 Hf
atom 1.7155149999999999 7.4818730000000002 4.2575440000000002 Hf
atom 2.2246260000000002 7.5330719999999998 9.4311039999999995 Hf
atom 6.8123889999999996 2.3487969999999998 4.6697680000000004 Hf
atom 7.2634420000000004 2.3836499999999998 9.8570049999999991 Hf
atom 6.7944290000000001 7.4639530000000001 4.6619999999999999 Hf
atom 7.3034309999999998 7.5150230000000002 9.8356709999999996 Hf
atom 3.7274200000000000 2.7974790000000000 1.3615679999999999 Hf
atom 4.1867710000000002 2.7944540000000000 6.6012659999999999 Hf
atom 3.7618149999999999 7.8705290000000003 1.3579540000000001 Hf
atom 4.1804079999999999 7.9769319999999997 6.5845690000000001 Hf
atom 8.8061340000000001 2.7790689999999998 1.7661720000000001 Hf
atom 9.2655779999999996 2.7762639999999998 7.0057910000000003 Hf
atom 8.8405950000000004 7.8527250000000004 1.7625710000000001 Hf
atom 9.2590669999999999 7.9588289999999997 6.9888539999999999 Hf
atom 3.9439709999999999 4.9247150000000000 3.9749520000000000 Hf
atom 4.4086900000000000 4.9412390000000004 9.1927889999999994 Hf
atom 3.8949940000000001 10.1287559999999992 4.0461660000000004 Hf
atom 4.4412180000000001 10.1133509999999998 9.1900990000000000 Hf
atom 9.0226989999999994 4.9065170000000000 4.3794389999999996 Hf
atom 9.4875139999999991 4.9232180000000003 9.5973690000000005 Hf
atom 8.9739090000000008 10.1108659999999997 4.4502940000000004 Hf
atom 9.5199820000000006 10.0953090000000003 9.5946429999999996 Hf
atom 0.4309020000000000 1.9662489999999999 0.8204070000000000 O
atom 0.8652170000000000 1.7782760000000000 6.1476470000000001 O
atom 0.4905130000000000 6.9800009999999997 0.8800860000000000 O
atom 0.8437630000000000 6.9165150000000004 6.1012209999999998 O
atom 5.5094900000000004 1.9479010000000001 1.2249820000000000 O
atom 5.9433769999999999 1.7592080000000001 6.5516110000000003 O
atom 5.5687400000000000 6.9612100000000003 1.2842389999999999 O
atom 5.9220509999999997 6.8975000000000000 6.5052560000000001 O
atom 0.5842330000000000 0.8165310000000000 3.6686719999999999 O
atom 1.1312780000000000 0.8175130000000000 8.7267840000000003 O
atom 0.6146340000000000 5.9948230000000002 3.4617420000000001 O
atom 1.0830370000000000 6.0061840000000002 8.6884270000000008 O
atom 5.6629290000000001 0.7987390000000000 4.0729639999999998 O
atom 6.2094860000000001 0.8003820000000000 9.1308369999999996 O
atom 5.6931399999999996 5.9773899999999998 3.8659840000000001 O
atom 6.1611870000000000 5.9890879999999997 9.0926050000000007 O
atom 4.8047449999999996 4.3701549999999996 2.1206130000000001 O
atom 5.2904350000000004 4.3361130000000001 7.3449260000000001 O
atom 4.4990670000000001 9.5828989999999994 2.1184020000000001 O
atom 5.3053080000000001 9.4886630000000007 7.3675280000000001 O
atom 9.8832199999999997 4.3524719999999997 2.5247869999999999 O
atom 10.3685030000000005 4.3189330000000004 7.7489759999999999 O
atom 9.5779789999999991 9.5653419999999993 2.5223179999999998 O
atom 10.3834970000000002 9.4712540000000001 7.7717000000000001 O
atom 5.0567679999999999 3.4095900000000001 4.7588689999999998 O
atom 5.5004530000000003 3.4331800000000001 9.9181480000000004 O
atom 5.0611360000000003 8.5730789999999999 4.7493080000000001 O
atom 5.6418249999999999 8.6379239999999999 10.0110600000000005 O
atom 10.1351270000000007 3.3908540000000000 5.1631840000000002 O
atom 10.5785929999999997 3.4141620000000001 10.3219560000000001 O
atom 10.1396069999999998 8.5543540000000000 5.1535589999999996 O
atom 10.7197119999999995 8.6183840000000007 10.4146230000000006 O
atom 3.0575100000000002 1.4185790000000000 2.8466339999999999 O
atom 3.4647880000000000 1.3297159999999999 7.9463720000000002 O
atom 2.9891800000000002 6.4359099999999998 2.7144439999999999 O
atom 3.4466619999999999 6.5077330000000000 7.9310400000000003 O
atom 8.1362810000000003 1.4000750000000000 3.2511939999999999 O
atom 8.5437729999999998 1.3112220000000001 8.3508519999999997 O
atom 8.0679639999999999 6.4174309999999997 3.1189610000000001 O
atom 8.5254290000000008 6.4893020000000003 8.3354839999999992 O
atom 3.1900590000000002 1.2466170000000001 5.3941090000000003 O
atom 3.7382719999999998 1.2987919999999999 10.4741210000000002 O
atom 3.2071710000000002 6.4058430000000000 5.3365910000000003 O
atom 3.6658930000000001 6.3675119999999996 10.5529139999999995 O
atom 8.2687399999999993 1.2288460000000001 5.7985400000000000 O
atom 8.8167240000000007 1.2809390000000000 10.8786269999999998 O
atom 8.2858540000000005 6.3880020000000002 5.7410139999999998 O
atom 8.7445570000000004 6.3499020000000002 10.9573260000000001 O
atom 2.2801749999999998 3.9343759999999999 0.2484470000000000 O
atom 2.7004329999999999 3.9148030000000000 5.4963629999999997 O
atom 2.4521560000000000 8.9400169999999992 0.1245010000000000 O
atom 2.6976640000000001 9.0920070000000006 5.5224979999999997 O
atom 7.3590830000000000 3.9165709999999998 0.6531080000000000 O
atom 7.7790220000000003 3.8970699999999998 5.9008710000000004 O
atom 7.5307370000000002 8.9224499999999995 0.5292410000000000 O
atom 7.7762760000000002 9.0743480000000005 5.9268239999999999 O
atom 2.4421919999999999 3.8462459999999998 2.8808479999999999 O
atom 2.9330270000000001 3.8459870000000000 8.0878739999999993 O
atom 2.5072939999999999 8.8514499999999998 2.9743490000000001 O
atom 2.9468880000000000 9.0122870000000006 8.0727229999999999 O
atom 7.5209869999999999 3.8277790000000000 3.2851750000000002 O
atom 8.0117969999999996 3.8274089999999998 8.4924710000000001 O
atom 7.5863300000000002 8.8328810000000004 3.3782950000000000 O
atom 8.0256159999999994 8.9937170000000002 8.4772400000000001 O
