lattice_vector 10.0732370899999992 0.0050322600000000 -0.0250101900000000 
lattice_vector 0.0080861000000000 10.2675985700000005 0.0217342800000000 
lattice_vector 0.0047626500000000 -0.0019287500000000 10.4660368699999999 
atom 1.3820304100000000 0.0992169100000000 1.7363530000000000 La
atom 1.3998837799999999 0.2150057300000000 7.0181192100000001 Hf
atom 1.3862086700000000 5.3502145399999996 1.7972461600000000 Hf
atom 1.4139607000000001 5.3233291100000004 7.0490151900000004 Hf
atom 1.3880268800000000 2.3368859099999999 4.4286470700000002 Hf
atom 1.4137518800000000 2.3722132199999999 9.6269711099999995 Hf
atom 1.3551022399999999 7.4200283300000001 4.4874320000000001 Hf
atom 1.4184175699999999 7.4619469399999998 9.6310510300000001 Hf
atom 3.6389357900000001 2.7751257300000001 1.7868197500000000 Hf
atom 3.6523284700000000 2.7770418399999999 7.0237749100000002 Hf
atom 3.7398157799999998 7.8342530500000001 1.7108060100000000 Hf
atom 3.6541562500000002 7.9108664400000004 7.0099777000000003 Hf
atom 3.6395325999999999 4.9148532100000004 4.4097437599999996 Hf
atom 3.6548631999999999 4.9005385099999996 9.6466074400000004 Hf
atom 3.7279634499999998 10.1157535200000002 4.4644134199999996 Hf
atom 3.6986533700000002 10.0605617800000005 9.6107420099999992 Hf
atom 6.4457918799999998 0.2210143200000000 0.8282296500000000 Hf
atom 6.4643037799999998 0.2353652500000000 6.0857451400000002 Hf
atom 6.4519211399999996 5.3140182200000003 0.7991031900000000 Hf
atom 6.4332956799999996 5.3519671700000000 6.0381016900000004 Hf
atom 6.4414517599999996 2.3800943499999998 3.4265959700000002 Hf
atom 6.4526313599999998 2.3516539900000000 8.6636629999999997 Hf
atom 6.4170246500000001 7.5043563899999999 3.4558618600000002 Hf
atom 6.4404542700000000 7.4794266599999997 8.6660338699999997 Hf
atom 8.6837783700000006 2.7970666300000002 0.7881464800000000 Hf
atom 8.6900721000000001 2.7992921800000001 6.0413770299999996 Hf
atom 8.6405098599999999 7.8848973100000004 0.8193157100000000 Hf
atom 8.6744081400000006 7.9264394899999999 6.0637894699999997 Hf
atom 8.6712113300000002 4.9249070599999998 3.4233820700000002 Hf
atom 8.6827686699999997 4.9196797500000002 8.6395471300000004 Hf
atom 8.6277451599999999 10.0699689699999997 3.4904034199999998 Hf
atom 8.7068142200000000 10.0531824000000007 8.6965010700000001 Hf
atom 0.3518233600000000 1.8651822100000000 0.8576436500000000 O
atom 0.3611033800000000 1.7653646900000000 6.1893337300000004 O
atom 0.3623223300000000 6.8888579800000000 0.9092098400000000 O
atom 0.3344978300000000 6.8348974800000004 6.1553558400000004 O
atom 0.2586842500000000 0.8548162700000000 3.6683023700000001 O
atom 0.3779664700000000 0.8187168400000000 8.7666125800000003 O
atom 0.3309682400000000 5.9646557299999996 3.5270417400000000 O
atom 0.3490925600000000 5.9681342400000004 8.7436470800000006 O
atom 4.7171693699999997 4.2513155700000000 0.8642994700000000 O
atom 4.7085164500000003 4.2647117500000000 6.0879700999999997 O
atom 4.7307114800000001 9.4221375100000007 0.8797213600000000 O
atom 4.7351184699999997 9.4167682199999998 6.1484363300000000 O
atom 4.7183517000000004 3.4593913700000001 3.4810686500000001 O
atom 4.7202928300000000 3.4265709599999998 8.7122695900000000 O
atom 4.5917077400000004 8.5553344599999992 3.4838145599999999 O
atom 4.7255253899999996 8.5568826599999994 8.7044551899999991 O
atom 2.8513704299999998 1.3047924200000001 3.1764403099999998 O
atom 2.7890356500000002 1.2663639499999999 8.2843176100000004 O
atom 2.7385614199999999 6.5017169399999997 3.0915318300000001 O
atom 2.8020696400000000 6.4012615200000003 8.3224592899999994 O
atom 2.8978336200000001 1.3752474600000000 0.3596293500000000 O
atom 2.7829692000000001 1.2910348000000000 5.7292968899999996 O
atom 2.7814231500000002 6.3552617400000004 0.4790167600000000 O
atom 2.7746455000000001 6.4030495600000004 5.7283399099999999 O
atom 2.2595492099999999 3.8621411399999999 3.0864673699999998 O
atom 2.2759378899999998 3.8405683599999998 8.3153802900000002 O
atom 2.2700050200000002 8.9581282800000004 8.2593203699999993 O
atom 2.2482744200000000 3.8730027499999999 0.4702979600000000 O
atom 2.2656552099999998 3.8564549700000001 5.7074655600000002 O
atom 2.4468597100000000 8.8352352199999995 0.3472493800000000 O
atom 2.2806771600000002 8.9965727399999995 5.6081955800000003 O
atom 5.3803786499999999 1.7069273599999999 1.7405565300000001 O
atom 5.3879515199999997 1.7120575700000000 6.9619943400000004 O
atom 5.4051160999999999 6.7952129899999996 1.7407612299999999 O
atom 5.3768020500000002 6.8274848700000002 6.9723160000000002 O
atom 5.4191180599999997 0.8768927700000000 4.3703940399999999 O
atom 5.4282460400000003 0.8414749500000001 9.5498958399999996 O
atom 5.3428794599999998 6.0240150999999997 4.3609875200000001 O
atom 5.3692156000000004 6.0081171299999996 9.6002387299999992 O
atom 9.6993865699999997 4.3429039500000002 1.6838188199999999 O
atom 9.7329192800000008 4.3139805999999998 6.9227121599999997 O
atom 9.4779842900000002 9.3965504699999993 1.7683220399999999 O
atom 9.7403741999999998 9.4204586100000007 6.9570927300000003 O
atom 9.7321988600000005 3.4348017799999999 4.3278000199999997 O
atom 9.7221340400000003 3.4252870000000000 9.5040680000000002 O
atom 9.7429061200000007 8.5506491100000002 4.3441738799999996 O
atom 9.7723323099999995 8.5679554699999994 9.6004831300000006 O
atom 7.8479227199999997 1.2681348800000001 9.9941383100000003 O
atom 7.8007930900000000 1.3021459900000001 4.7887959200000001 O
atom 7.8197704799999999 6.3813650500000003 9.9745024200000003 O
atom 7.8043345500000001 6.4268802300000001 4.7504242200000002 O
atom 7.8221259999999999 1.3183316199999999 2.1568477000000001 O
atom 7.8416594300000000 1.3036143899999999 7.3870920800000004 O
atom 7.8040049299999996 6.4434509799999997 2.1508599600000000 O
atom 7.8192823799999998 6.4400354200000001 7.3603049399999998 O
atom 7.2919549799999999 3.8372747199999999 9.9689309900000005 O
atom 7.2947523700000003 3.8653986200000001 4.7431233300000004 O
atom 7.3104957199999996 8.9591460000000005 10.0047175700000004 O
atom 7.2823051200000002 8.9776022599999994 4.7978026800000002 O
atom 7.2913374500000003 3.8691705100000000 2.1322027200000000 O
atom 7.2976912900000004 3.8660863100000000 7.3546489299999998 O
atom 7.1394107199999999 9.0038096000000003 2.1926744299999998 O
atom 7.3164076099999997 8.9999708399999996 7.4010842900000000 O
