lattice_vector 10.1864432600000008 0.0341850300000000 0.8566677300000000 
lattice_vector 0.0245091400000000 10.3441089500000007 0.0287597100000000 
lattice_vector 0.4354632100000000 -0.0473800700000000 5.2313436299999996 
atom 1.4581322999999999 0.1307597900000000 1.5997520100000000 La
atom 1.5399436300000000 5.4115031199999999 1.6530574400000000 Hf
atom 6.6140200099999999 0.2418819600000000 2.0961059899999999 Hf
atom 6.6526796399999997 5.3692188200000004 2.0723910700000001 Hf
atom 1.8630772000000000 2.4731273499999999 4.3094855799999996 Hf
atom 1.8027761099999999 7.4978620899999999 4.2875981799999998 Hf
atom 6.8552568999999997 2.3706229099999998 4.6932533500000000 Hf
atom 6.8375907199999997 7.4690135900000003 4.7097904200000000 Hf
atom 3.7881664100000001 2.7912883599999998 1.4229167400000000 Hf
atom 3.8340623200000001 7.9603310399999998 1.4344100799999999 Hf
atom 8.8533934100000007 2.8355457500000001 1.8007062300000001 Hf
atom 8.8460381399999992 7.9520963399999998 1.8565072300000001 Hf
atom 4.0264732600000004 4.9382431300000000 4.0092212299999996 Hf
atom 4.0492160200000002 10.0994304800000005 4.0621225900000004 Hf
atom 9.1103868499999994 4.9388456700000001 4.4139426799999999 Hf
atom 8.9029549699999997 10.0181822900000004 4.5361625400000003 Hf
atom 0.4120672700000000 1.9114767399999999 0.7733394000000000 O
atom 0.4464998400000000 6.9373326500000001 0.8706035700000000 O
atom 5.5427980899999998 1.7678459799999999 1.3022393200000000 O
atom 5.5437062499999996 6.8736620500000001 1.2971488900000001 O
atom 0.6385653600000000 6.0148044399999998 3.4741354000000002 O
atom 5.7759916000000002 0.8400866900000000 3.9153090900000000 O
atom 5.7424506800000001 6.0046947299999998 3.8884328600000000 O
atom 4.9215059800000001 4.3026721800000001 2.2035806199999999 O
atom 4.9025753300000003 9.5291498200000007 2.2099435100000000 O
atom 9.9509190200000006 4.4083062399999999 2.5411708000000002 O
atom 9.7755635200000004 9.4008174800000006 2.8293324399999999 O
atom 5.1329163600000003 3.4392523000000002 4.8248638200000000 O
atom 5.1949946499999999 8.6064734200000004 4.8657299800000002 O
atom 10.1794503200000008 3.3655730099999999 5.0938793699999998 O
atom 10.2748560199999996 8.7484988700000006 5.3585840400000002 O
atom 3.0235105799999999 1.4163610200000001 2.8589349799999999 O
atom 3.0335440400000002 6.4637688200000003 2.7552393600000000 O
atom 8.1394447999999997 1.3298106400000000 3.1927819600000000 O
atom 8.1086805399999999 6.4916710699999998 3.1809955900000002 O
atom 3.3628317999999999 1.2953219899999999 5.3318038999999997 O
atom 3.2495921399999999 6.3547361599999999 5.3804127900000003 O
atom 8.3172245599999997 1.2153154600000000 5.8113483199999996 O
atom 8.3500024899999996 6.3805677500000000 5.7887293499999997 O
atom 2.3180879100000000 3.9418020800000000 0.2964753600000000 O
atom 2.4478497699999999 8.9656830099999993 0.2451673600000000 O
atom 7.4078000599999996 3.9424020299999998 0.7024089800000000 O
atom 7.3677035699999998 9.0667864900000001 0.7891261000000001 O
atom 2.5207891800000000 3.8877327799999999 2.8994359799999998 O
atom 2.6544326300000001 8.8952360699999993 2.9946130300000000 O
atom 7.6111301700000000 3.8332703900000000 3.3321426000000001 O
atom 7.4810572999999998 8.9761761900000003 3.4029438399999998 O
