lattice_vector 10.0570508600000004 -0.0011329900000000 -0.2669493500000000 
lattice_vector 0.0710255700000000 10.2366645900000002 -0.0390299400000000 
lattice_vector -0.1579197700000000 0.0859557400000000 10.4734446400000003 
atom 1.0376014300000000 0.2748295500000000 2.2388813000000001 Si
atom 1.2753951200000000 0.2819004800000000 6.8106388800000000 Hf
atom 1.3220280099999999 5.1279132399999998 1.5100728699999999 La
atom 1.1185848800000000 5.2132930100000001 6.8496179599999998 Hf
atom 1.0711079600000000 2.6782651300000002 4.3219734900000004 Hf
atom 1.2577545500000000 2.5094471199999999 9.4972318300000005 La
atom 1.3568451200000000 7.4642862000000001 4.2288918600000001 Hf
atom 1.3466941200000000 7.6245533600000002 9.4395533500000006 Hf
atom 3.6114795399999999 2.5104412300000001 1.6940841700000000 Hf
atom 3.5728461000000000 2.8106232100000001 6.8091528400000003 Hf
atom 3.5756360900000002 7.9379414700000002 1.5306388799999999 Hf
atom 3.5366624400000002 7.9336298599999999 6.7975827500000001 Hf
atom 3.6247628900000000 4.9675708199999997 4.2019506399999997 Hf
atom 3.5953906199999999 5.1603607199999999 9.2596520499999997 Hf
atom 3.5478145300000001 10.0839701000000002 4.1807632899999998 Hf
atom 3.5713777200000001 10.1165939999999992 9.4234111100000000 Hf
atom 6.4453512699999997 0.1782266100000000 0.6222934100000000 Hf
atom 6.2792085699999998 0.2718287700000000 5.8776538000000000 Hf
atom 6.6940371599999997 5.4349192899999998 0.6835773800000000 Hf
atom 6.3504709799999999 5.4004681300000001 5.8946204800000004 Hf
atom 6.3867034100000000 2.4199424700000001 3.2595986300000002 Hf
atom 6.3271608500000003 2.4268619400000002 8.5469704800000006 Hf
atom 6.3600706999999996 7.5114280200000003 3.2126880999999998 Hf
atom 6.3674794700000001 7.5682093100000003 8.4836535499999997 Hf
atom 8.7725048500000007 2.6406219599999998 0.8451189700000000 Hf
atom 8.5400373700000003 2.8301796600000002 6.0076235999999996 Hf
atom 8.8577366600000005 8.0067673900000003 0.5873072900000000 Hf
atom 8.6237712500000008 7.9183910099999997 5.8221346100000000 Hf
atom 8.6637075499999998 4.9626388400000003 3.3925847600000001 Hf
atom 8.5919615599999997 4.9784115699999996 8.6128960299999999 Hf
atom 8.5985183200000002 10.0279180500000002 3.3017986200000000 Hf
atom 8.6253998099999993 10.1078190899999996 8.3756322900000004 Hf
atom 0.5216675800000000 1.4922787200000001 1.1352687100000001 O
atom 0.1881629200000000 1.8015322100000000 6.0091746099999996 O
atom 0.5095710600000000 7.0667303500000003 0.7963725300000000 O
atom 0.2815003600000000 6.8475796799999999 6.0498412300000002 O
atom 0.2922689500000000 0.8220545200000000 3.6555124700000001 O
atom 0.2263226300000000 0.8224214399999999 8.5470776500000003 O
atom 0.2659311100000000 6.0204960999999999 3.4111278299999999 O
atom 0.2590804400000000 6.0234606199999998 8.6602806399999999 O
atom 3.1172309299999998 3.9367803700000001 0.3495034900000000 O
atom 4.7261126000000004 4.2032787999999996 5.7943940700000001 O
atom 4.8571352499999998 9.3076319699999992 0.6383399700000000 O
atom 4.6463814399999999 9.4107594199999998 5.8443608100000004 O
atom 4.8444353400000004 3.6931991200000001 3.0153920099999998 O
atom 4.6890598600000004 3.5553601100000001 8.5246882799999995 O
atom 4.6492447900000000 8.6355730899999994 3.2150182500000000 O
atom 4.6409639699999996 8.5780907400000004 8.4842480600000005 O
atom 2.5391252000000000 1.0965509499999999 2.7036190900000001 O
atom 2.7479854900000000 1.2587098500000000 7.9624364300000003 O
atom 2.8029318499999998 6.4975943400000000 2.9199379200000002 O
atom 2.6092271299999998 6.4924598900000001 8.0327682800000009 O
atom 3.1201583300000002 1.3469900900000000 0.1452990000000000 O
atom 2.6157426500000001 1.4033617100000000 5.3846400200000000 O
atom 2.9429609299999999 6.4821670500000002 0.1193696400000000 O
atom 2.7143518200000001 6.4407084200000000 5.4828145199999998 O
atom 2.3940012199999998 3.6828658299999999 3.0557424399999999 O
atom 2.3561215199999999 4.0152106600000002 8.0419186899999993 O
atom 2.0555588000000000 9.0566001200000006 2.8192373000000002 O
atom 2.1862514700000002 9.0125061599999992 8.0538594099999994 O
atom 2.2501187800000002 3.9206072700000001 5.5508693899999999 O
atom 2.4224971399999999 8.9754327299999996 0.1650258200000000 O
atom 2.2016830700000001 9.0248907200000001 5.4604037900000000 O
atom 5.4517064099999999 1.7786378300000001 1.4903044900000000 O
atom 5.3009539900000000 1.7619228499999999 6.7981312799999998 O
atom 5.3755825200000000 6.6978774999999997 1.5681129599999999 O
atom 5.2621480800000002 6.7757477599999998 6.8736224400000001 O
atom 5.2072211900000003 1.0111990700000000 4.1464231500000004 O
atom 5.3534781499999999 0.8848894200000000 9.3716622300000001 O
atom 5.3143019200000001 6.1173424100000000 4.2342842500000000 O
atom 5.3922014999999996 5.9977536300000001 9.5049842200000008 O
atom 9.7976579099999999 3.4176576100000000 2.5261145100000002 O
atom 9.7645452899999992 3.8075404700000002 7.4212983799999996 O
atom 9.8157989200000006 9.5254372000000007 1.5534146300000000 O
atom 9.6179424000000004 9.4676807200000006 6.5620228500000000 O
atom 9.8269698400000003 4.1610747899999998 4.9472901100000000 O
atom 9.6790002400000006 4.0477137399999998 10.2018318699999995 O
atom 9.6282120199999994 8.4907456400000001 4.0470982299999996 O
atom 9.6164885800000004 8.6086758600000000 9.2378125600000001 O
atom 7.8399844600000002 1.3601840999999999 9.8809730800000004 O
atom 7.7249195999999998 1.3127783500000001 4.6413212599999998 O
atom 7.7859647799999996 6.5143761600000003 9.8872108099999991 O
atom 7.7138369700000000 6.4272937099999998 4.5969012400000002 O
atom 7.7455416799999997 1.2784896400000001 2.0579546799999999 O
atom 7.6681405600000003 1.3650416100000000 7.2306081300000002 O
atom 7.9302359500000001 6.4630947399999998 1.9778997599999999 O
atom 7.7766729300000002 6.4596106799999999 7.2411565299999996 O
atom 7.1820099800000001 3.8680387199999999 9.9034666500000004 O
atom 7.2929392599999998 3.8280310800000001 4.6131427699999996 O
atom 7.2429737000000003 9.0440097099999992 9.7804545600000008 O
atom 7.2044006500000002 8.9924736400000000 4.5485987699999999 O
atom 7.4141995999999999 3.9345044100000002 1.9682246999999999 O
atom 7.2413765100000003 3.9678014300000002 7.2567484300000000 O
atom 7.3706626899999996 8.9742720100000000 1.9407650800000000 O
atom 7.2041921999999996 9.0148020300000002 7.1531728599999997 O
