lattice_vector 10.3529735899999995 0.1417788100000000 0.3126541500000000 
lattice_vector 0.1425830400000000 5.0338655899999996 0.0917566000000000 
lattice_vector 0.1405263900000000 0.0449994000000000 10.1217013199999997 
atom 1.2723724000000001 -0.0336403800000000 1.0263833200000001 Si
atom 1.2862596700000000 0.0338832100000000 6.1818132500000003 Hf
atom 6.3791360299999997 0.0574941400000000 1.4735664100000001 Hf
atom 6.5422064700000000 -0.1458954200000000 6.6148610300000001 Hf
atom 1.3267220600000000 2.5231633699999998 3.6651442699999999 La
atom 1.6091936200000001 2.5898849199999998 8.8935218999999996 Hf
atom 6.6886370299999998 2.5122581300000002 4.2259495700000000 Hf
atom 6.6123939099999998 2.4634615399999999 9.0592563399999992 Hf
atom 4.0606690199999997 2.7348144900000002 1.4645097600000001 Hf
atom 3.8959723400000001 2.7914265899999999 6.3748030699999996 Hf
atom 9.1800686400000000 2.5353230700000000 1.5269813100000000 Hf
atom 9.4006387700000005 2.7142418799999999 6.8707664900000003 Hf
atom 4.0795606400000004 0.3333326600000000 4.0734843500000002 Hf
atom 4.0548528499999996 0.0588127700000000 8.9884724499999997 Hf
atom 8.9130131699999993 -0.0019680500000000 4.2336638000000004 Hf
atom 9.1594242399999999 0.1587900500000000 9.2860558900000001 Hf
atom -0.3204223400000000 1.6149410399999999 -0.4652303200000000 O
atom -0.2364223600000000 1.2353574100000000 5.0287504700000003 O
atom 4.9023170299999999 1.2427855699999999 0.2784095500000000 O
atom 5.1413440100000001 1.4772559700000001 5.3815081700000000 O
atom 0.4023073400000000 1.0276351200000000 1.9362114500000001 O
atom 0.7089581100000000 1.5595190600000000 7.3387200300000002 O
atom 5.6372770699999997 1.5334076299999999 2.7895191800000001 O
atom 5.7233507200000000 1.0015770900000001 8.0296117200000001 O
atom -0.4770511000000000 3.6373564400000000 2.6416806500000001 O
atom 0.0681137500000000 3.9473341700000000 7.7638836700000002 O
atom 4.8840968100000000 4.1362298099999997 2.6517933899999999 O
atom 5.2170002100000001 3.6259141700000002 7.7998070100000003 O
atom 0.4800625300000000 4.0076102799999997 0.1517251400000000 O
atom 0.1824496800000000 3.8561592800000000 5.2356473899999996 O
atom 5.6095110899999998 3.7960492900000000 0.2387077100000000 O
atom 5.4805596000000003 3.9579840499999999 5.2913937100000004 O
atom 3.1412226400000001 1.4695904900000001 2.7040715700000000 O
atom 3.2352812800000001 1.5963943400000000 7.9120278500000003 O
atom 8.2477364499999997 1.5703326200000001 3.0331391200000000 O
atom 8.2513691999999992 1.3804223700000000 7.9351009000000001 O
atom 2.1901918000000000 0.8620599600000000 -0.0164018000000000 O
atom 2.6274272000000001 1.3692737100000001 5.3472928800000004 O
atom 7.5414822499999996 1.4773138299999999 0.4258427700000000 O
atom 7.5387502299999998 1.0659926700000000 5.3731357600000003 O
atom 3.1217755800000000 3.3775667600000001 -0.2137574000000000 O
atom 2.8980469599999998 3.9735438500000000 4.9925587399999998 O
atom 8.1810446199999998 4.0724087700000000 0.6317011700000000 O
atom 8.0589403799999992 3.5997260199999999 5.5444923499999996 O
atom 2.3117695199999999 3.9982036399999998 2.0492196300000001 O
atom 2.6137793800000000 4.0509621500000002 7.5855658000000004 O
atom 7.3689325700000001 4.1538834700000002 3.1654075700000002 O
atom 7.8428906200000004 3.8610995500000000 8.1019214700000006 O
