lattice_vector 10.0694787500000000 -0.0141102100000000 -0.0570504600000000 
lattice_vector 0.0079470600000000 10.2752705500000001 -0.0019978300000000 
lattice_vector -0.0227479100000000 -0.0225442200000000 10.4517374899999993 
atom 1.3448984100000001 0.0730870500000000 1.6467017900000001 La
atom 1.3667199900000000 0.1988550100000000 6.9889053399999996 Hf
atom 1.3746854100000001 5.3153739000000000 1.7754072700000001 Hf
atom 1.3840496099999999 5.3420417699999998 7.0073798700000003 Hf
atom 1.3693495600000001 2.3137512500000001 4.3873731800000000 Hf
atom 1.3665996700000000 2.3809819700000001 9.5892117399999997 Hf
atom 1.3647271200000000 7.4596435899999998 4.4174155400000004 Hf
atom 1.4339166900000000 7.4602357200000000 9.6225308700000003 Hf
atom 3.6181055700000000 2.7414599499999999 1.7615536999999999 Hf
atom 3.6196377300000000 2.7615812800000001 6.9794631100000002 Hf
atom 3.6336390199999999 7.7564861900000004 1.8463320900000000 Hf
atom 3.6176111999999998 7.9008885900000001 6.9915874000000002 Hf
atom 3.6248092600000001 4.8715320699999998 4.3849218900000002 Hf
atom 3.6311074799999998 4.8743214300000002 9.6124993700000001 Hf
atom 3.6270155399999999 10.0443366199999993 4.3767054800000000 Hf
atom 3.6675293299999998 10.1138853399999995 9.4865624200000003 Hf
atom 6.5512683100000002 0.2444634900000000 0.8008892300000000 Hf
atom 6.4039667400000004 0.1935970900000000 6.0313143199999999 Hf
atom 6.4321887100000001 5.3167739799999998 0.7764912600000000 Hf
atom 6.4102743300000000 5.3368382299999997 5.9959524899999996 Hf
atom 6.4043874100000000 2.3363928999999999 3.4064160299999999 Hf
atom 6.4268546400000002 2.3277223000000000 8.6200575900000000 Hf
atom 6.4346078400000000 7.4879487600000001 3.4016326800000001 Hf
atom 6.4070146799999996 7.4609294200000003 8.6176966400000001 Hf
atom 8.6799924599999994 2.8163052500000001 0.7589257500000000 Hf
atom 8.6632440800000001 2.7714320200000002 6.0009571299999998 Hf
atom 8.6520558100000002 7.8734209699999997 0.7762363600000000 Hf
atom 8.6583746599999998 7.8960095099999998 6.0082236900000003 Hf
atom 8.6565158699999998 4.9090392300000003 3.3976088000000000 Hf
atom 8.6542948499999994 4.9117735500000004 8.5913436000000001 Hf
atom 8.6208374200000009 10.0580292599999996 3.4456053000000000 Hf
atom 8.6848010999999996 10.0236993000000005 8.6225429499999997 Hf
atom 0.3648506700000000 1.9482498500000001 0.8690915700000000 O
atom 0.3378614000000000 1.7609100400000000 6.1782013999999998 O
atom 0.4243329200000000 6.9864735199999997 0.9643954600000000 O
atom 0.3326382900000000 6.8699215000000002 6.1540206499999996 O
atom 0.2509362100000000 0.8229189500000000 3.6535452600000000 O
atom 0.3563545600000000 0.7987669100000000 8.7739033400000004 O
atom 0.3472277700000000 5.9458639299999998 3.5269110200000000 O
atom 0.3449765600000000 5.9745155499999996 8.7536588099999992 O
atom 4.7179729200000002 4.2256884399999999 0.8403498000000000 O
atom 4.7013874500000004 4.2298395500000003 6.0597065299999997 O
atom 4.6935838299999997 9.3655448099999994 6.0605440100000001 O
atom 4.7009776499999996 3.4356325200000000 3.4368854199999999 O
atom 4.6870513200000001 3.3858253999999999 8.6814134099999993 O
atom 4.7352768599999999 8.6095004399999997 3.3869395000000000 O
atom 4.7171193699999998 8.5739037899999992 8.6769827999999993 O
atom 2.8187892899999998 1.2946510800000000 3.1217583900000001 O
atom 2.7533786400000002 1.2607254500000000 8.2323650300000004 O
atom 2.7822770900000000 6.3345628300000003 3.0610069599999998 O
atom 2.7838872800000001 6.3951977199999996 8.2958615600000005 O
atom 2.9003732300000000 1.3664007000000000 0.3095584800000000 O
atom 2.7538412399999999 1.2682201300000000 5.6782485500000002 O
atom 2.7581724099999998 6.3313586600000002 0.4651279400000000 O
atom 2.7619227799999999 6.4080384700000002 5.6787642199999997 O
atom 2.2243512900000000 3.8108070299999999 3.0534484800000001 O
atom 2.2500243100000001 3.8351330899999998 8.2772428399999995 O
atom 2.3145136200000000 8.8239930399999995 3.1417001099999999 O
atom 2.2318266800000002 8.9600856699999998 8.2702244500000006 O
atom 2.2511355000000002 3.8631530999999999 0.4488535400000000 O
atom 2.2394391699999998 3.8503644299999999 5.6772500199999998 O
atom 2.7237787099999999 8.8480702600000001 0.3481416800000000 O
atom 2.2362535000000001 8.9923785499999997 5.6911617400000001 O
atom 5.3411906499999997 1.5978397000000000 1.7247152800000001 O
atom 5.3381897299999999 1.6547764100000000 6.9607320300000000 O
atom 5.3805858999999998 6.8244631000000000 1.6809946400000000 O
atom 5.3427703500000003 6.8068125500000001 6.9388590900000002 O
atom 5.3477046300000000 0.8601638500000000 4.3502575300000004 O
atom 5.4243214200000001 0.7899210200000000 9.5689417900000002 O
atom 5.3311022899999996 6.0120805199999996 4.3200396200000002 O
atom 5.3430838200000004 5.9740784199999997 9.5480484299999997 O
atom 9.6561288899999997 4.3889847700000004 1.6107197300000000 O
atom 9.6982794099999996 4.3145235199999998 6.8614153599999996 O
atom 9.3883018699999994 9.4701143299999995 1.6638555700000000 O
atom 9.6995422100000006 9.4133619900000003 6.8933497700000004 O
atom 9.6965591199999999 3.3893918400000000 4.2637456299999998 O
atom 9.6783415000000002 3.3979144400000001 9.4295572700000001 O
atom 9.6952418700000003 8.5062327900000003 4.2711692599999997 O
atom 9.7844078000000003 8.5602741200000008 9.5650587700000003 O
atom 7.8372824600000000 1.2522481599999999 9.9537630900000007 O
atom 7.7608704599999996 1.2716768100000000 4.7510975999999996 O
atom 7.7933448199999997 6.3694516999999999 9.9262390499999995 O
atom 7.8024426699999996 6.3883500299999998 4.7147586700000002 O
atom 7.8199839100000004 1.3364552800000000 2.1281549399999999 O
atom 7.8054572499999999 1.2713453100000001 7.3473932299999998 O
atom 7.8081784100000000 6.4384836200000004 2.1081155100000002 O
atom 7.7908043100000004 6.4164398499999997 7.3154074600000003 O
atom 7.2605556499999997 3.8248606299999999 9.9250311799999995 O
atom 7.2685937699999998 3.8363255600000001 4.7135044600000002 O
atom 7.2949995400000001 8.9463647000000002 9.9427298900000007 O
atom 7.2703764399999997 8.9579110899999996 4.7429213600000004 O
atom 7.2667943700000004 3.8605036899999998 2.1096229900000001 O
atom 7.2712374000000004 3.8351382500000000 7.3217163500000000 O
atom 7.1007160799999998 8.9963042000000009 2.1132746299999998 O
atom 7.2856290599999998 8.9693743000000001 7.3432056599999997 O
