lattice_vector 5.0076977999999999 0.0425280700000000 -0.0123935800000000 
lattice_vector -0.0168288100000000 10.4408557000000002 -0.0236362300000000 
lattice_vector 0.0075438100000000 -0.0674673800000000 10.0467846900000009 
atom 1.3037121500000000 0.0315896200000000 1.1854816100000001 La
atom 1.3335203300000000 0.1863243000000000 6.3031867699999999 Hf
atom 1.3212538300000001 5.3773698699999999 1.2694906399999999 Hf
atom 1.3346124300000000 5.3199426499999998 6.2550164099999996 Hf
atom 1.3445514300000001 2.4044382600000000 3.7403610800000000 Hf
atom 1.3952383399999999 2.4433615000000000 8.7343937199999999 Hf
atom 1.3098754200000000 7.6073889599999998 3.8385099899999999 Hf
atom 1.2647224100000001 7.5459820700000000 8.7291618000000000 Hf
atom 3.6553238200000000 2.8071374400000000 1.2682436900000000 Hf
atom 3.6815216700000000 2.7716569600000001 6.2162202400000002 Hf
atom 3.6870064700000000 7.9310852199999999 1.3256532900000000 Hf
atom 3.6164917600000002 7.9878576399999996 6.2734157799999997 Hf
atom 3.6551611600000000 5.0339327699999998 3.7532670600000002 Hf
atom 3.6760219300000001 5.0055482400000004 8.7701847100000005 Hf
atom 3.6126420900000000 10.2585451899999995 3.7763922900000000 Hf
atom 3.7394288400000000 10.3160363200000003 8.6791102900000006 Hf
atom 0.3429066200000000 1.9998883100000000 1.9571830500000000 O
atom 0.4229680900000000 1.9647344400000000 6.8487229500000000 O
atom 0.3535913700000000 7.1165323599999999 2.0132695100000002 O
atom 0.3209277300000000 7.0806390199999996 6.9645955900000001 O
atom 0.3552610600000000 0.6295497500000000 4.4360920100000003 O
atom 0.5046420200000000 0.6495635600000000 9.0840171400000003 O
atom 0.3431030700000000 5.8437973100000002 4.4757136500000003 O
atom 0.2837756000000000 5.9005753700000003 9.5301390000000001 O
atom 4.6236659099999997 4.5917648900000003 1.9280142899999999 O
atom 4.6571920100000002 4.5317431299999997 6.9737698500000000 O
atom 4.3474838299999998 9.7720573599999998 1.9369978699999999 O
atom 4.6275224899999996 9.7262422999999991 6.8805021799999997 O
atom 4.6312019700000002 3.3058895599999998 4.4236105800000001 O
atom 4.7055319899999999 3.3055409500000001 9.4589725900000001 O
atom 4.6042093700000004 8.4975020200000007 4.4667186900000004 O
atom 4.7462962299999996 8.6423297800000007 9.6153974200000007 O
atom 2.7864713800000001 1.3301124300000000 2.5693953399999998 O
atom 2.7713692900000000 1.2300598400000000 7.4608897599999997 O
atom 2.6785844000000001 6.3893362900000001 2.5025703099999999 O
atom 2.6726191400000001 6.3968258499999999 7.5166675200000004 O
atom 2.6748909200000002 1.3542657100000000 5.0240184699999997 O
atom 2.8465356000000002 1.3821068599999999 9.9408245900000001 O
atom 2.6953715400000000 6.5689149100000002 5.0278362999999997 O
atom 2.6368501499999999 6.6699379499999996 10.0251571199999994 O
atom 2.2964117700000002 3.9693493300000000 4.9897903299999999 O
atom 2.3248655700000000 4.0011521400000003 10.0109915699999998 O
atom 2.2535156700000001 9.1805597700000003 5.0837273600000001 O
atom 2.2682901800000002 3.8555794099999998 2.4865389100000002 O
atom 2.3309746100000002 3.8154040299999998 7.4870043700000002 O
atom 2.2823675200000002 8.8759379599999999 2.5817846200000001 O
atom 2.3183488300000001 9.0294969300000005 7.6577948400000002 O
