lattice_vector 10.1953567599999992 -0.0081202600000000 0.8389933300000000 
lattice_vector 0.0135244800000000 5.1644120600000001 -0.0204226300000000 
lattice_vector 0.8472985100000000 0.0037209300000000 10.4228964099999999 
atom 1.4205576099999999 0.0883778300000000 1.5506659700000001 La
atom 1.9658657600000000 0.2275742800000000 6.8657622099999998 Hf
atom 6.6375015299999998 0.1820846100000000 2.0465783800000001 Hf
atom 7.0761784499999996 0.2135238200000000 7.2961124200000000 Hf
atom 1.8471949999999999 2.4316748399999999 4.2843231599999996 Hf
atom 2.2169707500000002 2.4071473900000000 9.4293157900000004 Hf
atom 6.7764388599999998 2.3234870800000000 4.6763647300000004 Hf
atom 7.3222040399999999 2.3692097200000002 9.8585238499999992 Hf
atom 3.8302985100000000 2.7400225200000001 1.3640548500000000 Hf
atom 4.2172283000000004 2.7963789299999999 6.6125610600000000 Hf
atom 8.8383721499999996 2.7699379799999999 1.7955889899999999 Hf
atom 9.3232771499999991 2.7916852599999999 6.9934479800000000 Hf
atom 3.9991624200000002 4.9496136699999997 3.9646092999999998 Hf
atom 4.4897337899999998 4.9407095999999999 9.1775322999999993 Hf
atom 8.8750574300000000 4.8741631900000000 4.4194753100000002 Hf
atom 9.5415904800000000 4.9376150699999997 9.6043461099999998 Hf
atom 0.5026490900000000 2.0874184200000001 0.9260487400000000 O
atom 0.8385876100000000 1.7083649700000001 6.0014443100000001 O
atom 5.5758028199999998 1.7266449300000000 1.2767838499999999 O
atom 5.9436047600000004 1.7203054000000000 6.5187194699999997 O
atom 1.0949208600000000 0.8330392000000000 8.7119652900000002 O
atom 5.7300120000000003 0.8018904700000000 3.8897888599999999 O
atom 6.2302098199999998 0.8286875600000000 9.0976744000000007 O
atom 4.8855385800000004 4.3391482699999999 2.1218678000000000 O
atom 5.3487815400000001 4.3136557800000004 7.3584313500000000 O
atom 9.5547785300000001 4.4827682299999996 2.5496601399999999 O
atom 10.4320529299999993 4.3077885900000004 7.7604288800000001 O
atom 5.0502857099999998 3.3874205700000002 4.7779422199999999 O
atom 5.6475652900000002 3.4470304600000001 9.9729326300000007 O
atom 10.2195925100000000 3.4498718899999998 5.0887710700000000 O
atom 10.6300057399999996 3.4332025300000000 10.3604928300000001 O
atom 2.9886560000000002 1.3443124099999999 2.8463200099999999 O
atom 3.4438253699999999 1.3388358800000000 7.9323544600000000 O
atom 8.0652524600000000 1.3514526600000001 3.1969395500000002 O
atom 8.5835049899999998 1.3415292500000000 8.3483683499999994 O
atom 3.2300648100000000 1.2365365200000000 5.3807032499999998 O
atom 3.7527513199999998 1.2785837499999999 10.4637598799999996 O
atom 8.3033395900000002 1.2165364999999999 5.7697789400000001 O
atom 8.7782889500000003 1.2313167500000000 10.9732494900000006 O
atom 2.4924029100000000 3.8064555000000002 0.1321088700000000 O
atom 2.7094037800000002 3.9103377099999999 5.4955414800000000 O
atom 7.4098373700000000 3.9011155799999999 0.6784390300000001 O
atom 7.8049534700000001 3.8548922999999999 5.9306608900000004 O
atom 2.6334718800000001 3.7551844399999998 2.9183578899999998 O
atom 2.9567062300000000 3.8508613800000000 8.0587475099999999 O
atom 7.4197739599999997 3.7985542200000002 3.3631937900000000 O
atom 8.0825231399999993 3.8301499099999998 8.4968396899999998 O
