lattice_vector 9.9853386900000007 0.0077378400000000 -0.0277509200000000 
lattice_vector 0.0016013000000000 10.4325608499999998 -0.0661322900000000 
lattice_vector 0.0073624100000000 -0.0370042100000000 10.0216809199999997 
atom 1.2541859500000001 -0.0201235900000000 1.0878221500000000 Si
atom 1.3612114500000001 0.1514778000000000 6.3329551000000004 Hf
atom 1.2972322100000000 5.3486175500000002 1.1508651999999999 Hf
atom 1.3308464799999999 5.3363690400000001 6.1939223999999999 Hf
atom 6.2389163900000000 0.0881528700000000 1.1371317500000000 Hf
atom 6.2805874099999999 0.1457864700000000 6.1704719299999997 Hf
atom 6.3535581700000003 5.4197830299999996 1.1666153600000000 Hf
atom 6.3390573100000003 5.3624060399999998 6.1678074299999999 Hf
atom 1.2655101200000001 2.4183732999999998 3.7012386799999999 Hf
atom 1.4380064800000001 2.4414836800000002 8.8332080400000006 Hf
atom 1.3183015100000000 7.5765575299999997 3.7115142300000001 Hf
atom 1.3023397999999999 7.6230865400000001 8.6638677000000008 Hf
atom 6.2350630999999996 2.4933007200000001 3.7220570099999999 Hf
atom 6.3924379900000003 2.4156016100000000 8.6671962600000008 Hf
atom 6.3475807099999999 7.6761194799999997 3.6873585400000000 Hf
atom 6.3498752899999999 7.6930384299999997 8.6640490400000001 Hf
atom 3.8011286200000001 2.8520576200000001 1.0928738499999999 Hf
atom 3.6498478400000001 2.7483378799999998 6.1995793099999998 Hf
atom 3.6773956800000001 7.9221229900000001 1.1838496900000000 Hf
atom 3.6734903800000001 7.9971659800000001 6.1883793400000000 Hf
atom 8.6932663100000003 2.8690133400000000 1.1410713900000000 Hf
atom 8.7845852600000001 2.6642743000000002 6.1755879900000004 Hf
atom 8.7073447099999992 7.9878747099999998 1.0991786299999999 Hf
atom 8.6490722499999997 7.9951316099999996 6.1691753399999998 Hf
atom 3.6586171799999998 5.0353036099999997 3.7017202299999998 Hf
atom 3.7071990700000002 5.0948766499999998 8.6546356200000005 Hf
atom 3.5746738800000002 10.1957254800000001 3.6184778899999999 Hf
atom 3.6745086599999999 10.2696603300000007 8.7353296900000004 Hf
atom 8.6377839800000000 5.0477933699999999 3.7140439600000001 Hf
atom 8.6667915900000008 5.0406470199999998 8.6437363299999994 Hf
atom 8.7715628799999994 10.4173648100000005 3.5460923400000000 La
atom 8.7427841399999995 10.3199853099999999 8.6583373100000003 Hf
atom -0.2286118800000000 1.8227285600000001 2.4296379899999998 O
atom 0.1708803200000000 1.7283313199999999 7.4326745100000000 O
atom 0.3265896600000000 7.0546085700000001 1.9322595300000001 O
atom 0.3200761900000000 7.0391925700000000 6.9476389000000003 O
atom 5.3528922300000001 1.8614892100000000 1.9120834799999999 O
atom 5.3133429000000003 1.9089032200000000 6.9278663399999996 O
atom 5.3341506100000000 7.1144653699999996 1.9186699000000000 O
atom 5.3319139399999997 7.1170793500000000 6.9207186199999997 O
atom 0.2368026200000000 1.0997734800000001 5.0015125600000001 O
atom 0.4473324900000000 0.7477932200000000 9.8711511600000001 O
atom 0.3316286600000000 5.8950106699999996 4.4636277099999999 O
atom 0.3145050000000000 5.9360522900000001 9.4537474600000007 O
atom 5.2922637000000003 0.6892528700000000 4.3748037899999996 O
atom 5.3849233200000004 0.7115627900000000 9.3894493099999998 O
atom 5.3316603300000001 5.9384511699999996 4.4052333099999998 O
atom 5.3300160200000004 5.9742229000000000 9.4445074099999999 O
atom 4.7422215799999998 4.5055348899999998 1.9506886600000000 O
atom 4.6556095500000003 4.5072884899999996 6.8849036699999999 O
atom 4.5998564799999997 9.7470761400000008 1.8432966500000001 O
atom 4.6487000500000004 9.7317023799999998 6.9196653699999997 O
atom 9.7167640599999991 4.4936207399999999 1.9945898300000000 O
atom 9.7066009799999993 4.4240317600000001 6.9645925999999996 O
atom 9.9822101399999994 9.6049278000000005 1.6662991599999999 O
atom 9.7297629699999995 9.6568736800000003 6.9579508299999997 O
atom 4.6251637299999997 3.3239633400000002 4.4452541200000004 O
atom 4.7656269800000004 3.3844673099999998 9.3977831900000002 O
atom 4.6445824699999996 8.5464278199999999 4.4148717299999998 O
atom 4.6667184500000003 8.5704644800000001 9.4361449200000003 O
atom 9.6972961800000004 3.4407544300000001 4.5185532300000002 O
atom 9.8045276500000007 3.4141542800000000 9.5606285199999999 O
atom 9.7373367900000005 8.5066053499999992 4.4881193799999997 O
atom 9.6492235500000003 8.5342120200000000 9.3237864399999992 O
atom 2.0958591300000000 0.7795432700000000 2.3273684100000001 O
atom 2.6915951200000001 1.2105408099999999 7.4631053500000002 O
atom 2.6703387200000002 6.2296898799999996 2.3733662600000001 O
atom 2.6859345499999998 6.4012752900000001 7.4034794399999999 O
atom 7.6399389400000004 1.1259828999999999 7.4530856600000002 O
atom 7.6915128099999999 6.4078834200000001 2.4017785300000001 O
atom 7.6713496599999997 6.3989666100000004 7.4187618000000004 O
atom 2.7242372600000002 1.3817321199999999 4.8395316700000004 O
atom 2.8649575700000001 1.4440989200000001 9.9387266600000004 O
atom 2.7134779899999999 6.5916865900000001 4.9203850700000000 O
atom 2.6702902300000000 6.6541816300000001 9.8965119700000006 O
atom 7.5291211899999997 1.5260155000000000 4.9652888400000004 O
atom 7.7188885899999997 1.3990868700000001 10.0301384400000000 O
atom 7.6948297700000001 6.6021114699999996 4.9155572000000003 O
atom 7.6897872899999999 6.6338208200000004 9.9047355699999997 O
atom 2.3009396600000001 3.9884780300000000 4.9301042500000003 O
atom 2.4288105799999999 4.0597798899999997 9.9437553500000000 O
atom 2.2764295500000000 9.2373484799999996 5.0025743399999998 O
atom 2.2535503600000002 9.3401945600000005 10.1383949900000001 O
atom 7.2786650699999997 4.0345682700000003 4.9079005000000002 O
atom 7.3432921300000000 4.0367835000000003 9.8984966199999995 O
atom 7.2251751700000000 9.1370871499999993 4.9406381399999999 O
atom 7.3653324299999996 9.2555428800000001 9.8514070399999998 O
atom 2.3796313699999998 3.5973230900000002 2.3992995600000002 O
atom 2.3193113500000000 3.7692614299999998 7.4608347799999999 O
atom 2.5130404600000000 8.7158089800000003 2.5821809600000001 O
atom 2.3639368500000000 9.0051328799999997 7.5479303000000000 O
atom 7.3228778600000002 3.7484980800000001 2.4106762000000002 O
atom 7.3673730199999996 3.7492098899999999 7.4005620900000002 O
atom 7.3010006499999998 8.9966439099999995 2.2707701600000001 O
atom 7.3479392900000002 9.0368770200000004 7.4192378999999997 O
