lattice_vector 10.0299225799999991 -0.0067913500000000 0.0616201500000000 
lattice_vector 0.0136637200000000 10.4640994999999997 -0.0874066800000000 
lattice_vector -0.1229575600000000 -0.1913229900000000 10.0485256199999995 
atom 1.0891912500000001 0.3073533900000000 1.1722234000000000 Si
atom 1.0723514300000001 0.1024194600000000 6.1242611100000000 Hf
atom 1.3556556099999999 5.3438784500000001 1.1878028800000000 Hf
atom 1.1690760200000001 5.0576804600000003 6.1883862799999996 La
atom 6.2677940599999999 0.1568766800000000 1.2450433800000000 Hf
atom 6.2394500600000002 0.0466439500000000 6.2835319299999997 Hf
atom 6.3964074200000001 5.4187944200000002 1.2973567200000000 Hf
atom 6.3391706399999999 5.3125128000000004 6.2346054300000002 Hf
atom 1.3027993499999999 2.3823565000000002 3.6191405099999998 Hf
atom 1.2829062000000000 2.2247585600000002 8.7446539600000008 Hf
atom 1.3596090599999999 7.5895295899999997 3.7771633499999999 Hf
atom 1.0851148799999999 7.6301176399999999 8.9277111900000001 Hf
atom 6.3720284899999999 2.3522441000000001 3.7110657900000001 Hf
atom 6.2302795299999998 2.2716607700000000 8.8079609500000000 Hf
atom 6.4283200000000003 7.6420405499999999 3.7702048300000000 Hf
atom 6.2930516399999998 7.5634704700000004 8.8491346499999999 Hf
atom 3.7227724300000000 2.8246410200000001 1.1058537200000000 Hf
atom 3.7611994399999999 2.6074759699999999 6.0084933899999999 Hf
atom 3.7274095300000001 7.9564743000000000 1.2745296800000001 Hf
atom 3.7849831599999999 8.0224405900000004 6.1534419299999996 Hf
atom 8.7088691100000002 2.7793315700000001 1.1866397900000001 Hf
atom 8.5156749600000001 2.6660792999999998 6.3301469299999997 Hf
atom 8.7779439200000002 8.0293488400000008 1.2808141799999999 Hf
atom 8.6846902799999999 7.9289601699999999 6.3320999000000002 Hf
atom 3.7277487300000001 5.0007968900000002 3.7249075899999999 Hf
atom 3.6575461100000002 5.0568511799999998 8.5870324000000000 La
atom 3.5778862199999999 10.2311734199999993 3.6503772099999998 Hf
atom 3.4898563800000000 10.0659664800000002 8.8373067499999998 Hf
atom 8.6578988399999997 4.9603564200000001 3.7628240399999999 Hf
atom 8.5270398400000005 4.9189634599999996 8.8389002800000007 Hf
atom 8.6623983300000003 10.2576565300000002 3.6976241200000000 Hf
atom 8.5474162600000003 10.1887009600000003 8.7976249200000005 Hf
atom 0.3277512200000000 1.8486552900000000 1.8058345499999999 O
atom 0.1756816900000000 1.8280414899999999 6.9660124799999998 O
atom 0.3939629200000000 7.1566692700000001 1.8771479499999999 O
atom 0.2795515800000000 7.1034279299999996 7.0908781000000003 O
atom 5.2725318600000000 1.8579080900000000 1.9866621799999999 O
atom 5.2412211900000001 1.7661248400000000 7.0497696000000003 O
atom 5.3827159499999997 7.1406482699999998 2.0490413099999998 O
atom 5.1321016000000004 6.8868272099999999 7.1549502299999999 O
atom 0.2085626000000000 0.7674854100000000 4.4163456999999999 O
atom 0.2032993300000000 0.5308454700000000 9.6870751399999993 O
atom 0.2599049600000000 5.9433617200000004 4.2602434200000001 O
atom 0.2388700700000000 5.7634035600000004 9.4134493900000002 O
atom 5.2247857399999997 0.7290823000000000 4.5856440699999999 O
atom 5.1892869399999997 0.5544561500000000 9.5426171800000006 O
atom 5.3937539000000001 5.9445257199999997 4.4490460599999997 O
atom 5.4035493600000004 5.8839273900000002 9.6422873100000004 O
atom 4.7057516499999998 4.5469591200000004 1.9179682300000001 O
atom 4.5575844400000003 4.4271311600000001 6.5239694899999998 O
atom 4.7057511600000002 9.7408032799999997 1.9730584300000000 O
atom 4.6492271499999998 9.6603218200000001 7.0494494500000000 O
atom 9.7160672600000009 4.4572230800000003 1.9974308199999999 O
atom 9.2682342099999993 4.4137195900000004 7.0328490300000004 O
atom 9.9158701400000009 9.8173521499999996 1.9167715900000000 O
atom 9.6680679000000005 9.6485999000000007 7.1095823300000003 O
atom 4.7008377699999997 3.2407692400000001 4.2631974799999997 O
atom 4.6535748899999998 3.2142147599999999 9.5343907699999999 O
atom 4.8050553100000002 8.6312693500000002 4.5067652300000001 O
atom 4.5738406600000001 8.4260411800000004 9.6034132700000008 O
atom 9.7345287400000000 3.3168878300000002 4.6053485199999997 O
atom 9.5489236599999998 3.1355479399999999 9.4565388600000002 O
atom 9.7641255400000002 8.6033265799999992 4.5821352700000002 O
atom 9.4522537399999997 8.4639361700000002 9.5387108699999992 O
atom 2.3036583500000001 0.7892318600000000 2.3803795299999999 O
atom 2.3471648100000002 0.6516272100000000 7.5698388699999999 O
atom 2.6790220599999999 6.2565182100000003 2.4809973500000000 O
atom 7.6826070199999998 1.1373262300000000 2.4750733800000000 O
atom 7.6016742700000002 1.0759959800000001 7.5293435799999999 O
atom 7.7589849500000003 6.4111910400000003 2.5452629899999999 O
atom 7.5854070199999999 6.3707544900000004 7.5801433700000000 O
atom 2.5902335200000000 1.3050429900000000 4.8886205900000004 O
atom 2.6312740600000000 1.2654446500000001 9.9856603100000001 O
atom 2.7453276000000000 6.5779344000000002 5.0597214700000004 O
atom 2.4726707700000001 6.5931115299999998 10.0461936200000004 O
atom 7.6497326299999999 1.2925125500000001 4.9986061900000003 O
atom 7.5549856200000001 1.2293019300000001 10.0430483299999995 O
atom 7.7240672999999997 6.5524217000000000 5.0633648899999999 O
atom 7.6887963399999997 6.5041585900000003 10.0978634399999994 O
atom 2.3889501000000002 3.8203710300000000 4.7654480200000000 O
atom 2.1100523600000001 3.8055981200000000 9.9399209499999994 O
atom 2.3269605100000001 9.2011104100000001 5.0986730099999997 O
atom 1.9863014900000000 9.2977228600000004 10.2445380099999994 O
atom 7.2788570000000004 3.9018352400000000 4.9987229500000003 O
atom 7.2325450299999998 3.8539823599999998 10.0696590500000003 O
atom 7.3757433800000003 9.1863192900000001 4.9953495999999999 O
atom 7.2004574600000000 9.1084310599999991 10.0183202199999997 O
atom 2.3517116100000002 3.6844161400000002 2.3545704299999999 O
atom 2.4118404999999998 3.2918924399999998 7.3978460699999999 O
atom 2.5691978700000000 8.7303100199999992 2.6820237400000000 O
atom 2.5680944600000002 8.3336555299999997 7.7612116599999998 O
atom 7.3581666900000000 3.7568673700000002 2.4933937400000001 O
atom 7.0386848899999999 3.7130901800000000 7.5493036399999998 O
atom 7.4302912200000000 9.0139322699999997 2.4807947000000001 O
atom 7.2618971800000001 8.9364922900000003 7.5019859300000000 O
