lattice_vector 10.1075231399999996 -0.0475422300000000 -0.0727900700000000 
lattice_vector 0.0278248700000000 10.2550539199999999 0.0537165100000000 
lattice_vector 0.0149037600000000 0.0362789000000000 10.4781392400000009 
atom 0.8394761900000000 0.3780030000000000 1.9267789099999999 Si
atom 1.4158784900000001 0.2570350800000000 7.0637408300000004 Hf
atom 1.4305197599999999 5.2746783400000004 1.7787357100000001 Hf
atom 1.4457343899999999 5.4023284599999997 7.0350287700000003 Hf
atom 1.4365959399999999 2.3914293999999998 4.4282586899999998 Hf
atom 1.4965817800000001 2.3351832099999998 9.6675067400000003 Hf
atom 1.4813594900000000 7.6733483700000003 4.2410881199999997 La
atom 1.4685525200000000 7.5122906699999996 9.6653631799999999 Hf
atom 3.6265640100000001 2.6929710299999998 1.7865830199999999 Hf
atom 3.6932551800000000 2.8335574100000001 7.0373408399999997 Hf
atom 3.7564271400000000 7.7670752299999997 1.5993833600000000 Hf
atom 3.6990276400000002 7.9263582899999996 7.0470154599999999 Hf
atom 3.6738109200000002 4.9415563300000001 4.3892500700000001 Hf
atom 3.6848320299999999 4.8965953500000001 9.6526289399999996 Hf
atom 3.7262582800000001 10.2659587099999996 4.5555290599999996 Hf
atom 3.6883110399999999 10.0550627200000005 9.7193320900000000 Hf
atom 6.4615796000000003 0.2011546000000000 0.7556334099999999 Hf
atom 6.4887804300000003 0.1893916100000000 6.0607435100000000 Hf
atom 6.4674259899999997 5.2914146700000000 0.7972860200000000 Hf
atom 6.4857579899999998 5.3348517199999996 6.0631052700000003 Hf
atom 6.4578885100000001 2.3859062799999999 3.3954861300000001 Hf
atom 6.4877979799999999 2.3397934399999998 8.6326795700000005 Hf
atom 6.6858912200000002 7.3523364100000004 3.4565658300000002 Hf
atom 6.4852462400000004 7.4809006599999996 8.6839494399999992 Hf
atom 8.7004249300000005 2.7358064299999998 0.7537734900000000 Hf
atom 8.7397205299999996 2.7562780800000000 6.0298711300000001 Hf
atom 8.7671245199999994 7.8522236000000003 0.7831925100000000 Hf
atom 8.7644004599999992 7.8747010700000004 6.1021451200000003 Hf
atom 8.7908982600000005 4.8236892600000001 3.3939694100000000 Hf
atom 8.7859940999999999 4.8790209700000000 8.6474316299999998 Hf
atom 8.5699815600000004 10.0389413399999992 3.4860112600000002 Hf
atom 8.7720293599999994 10.0304952099999998 8.6913912599999996 Hf
atom 0.3843549300000000 1.6362450799999999 0.9444911300000000 O
atom 0.3450241500000000 1.6970823500000001 6.1075247399999997 O
atom 0.4048462900000000 6.8858066500000001 0.9804908600000000 O
atom 0.3376566300000000 6.8644878000000000 6.2410296399999998 O
atom 0.2930071400000000 0.8631917000000000 3.4532563600000001 O
atom 0.3690186900000000 0.8809499400000000 8.7832852999999993 O
atom 0.4046878000000000 5.8168090200000000 3.5025776300000002 O
atom 0.3973439900000000 5.9734619000000002 8.8072826200000005 O
atom 4.7425338000000004 4.2160330899999998 0.8566990100000000 O
atom 4.7772549700000004 4.2488851199999997 6.0641135000000004 O
atom 4.8636421500000004 9.2960729400000002 0.8487817600000001 O
atom 4.8273202399999997 9.3328843399999997 6.0659593200000002 O
atom 4.7562445599999998 3.4525534100000002 3.4750250500000002 O
atom 4.7983146400000001 3.4742915000000001 8.6863817099999991 O
atom 3.5382417199999998 8.7566511800000004 3.2996062799999999 O
atom 4.7909098400000003 8.6046820400000001 8.7045537100000008 O
atom 2.7673447800000002 1.3173672400000001 3.1655630600000002 O
atom 2.8148175700000002 1.2856445500000000 8.2970665799999992 O
atom 2.9455831300000002 6.2553590100000003 2.9064620900000002 O
atom 2.8335549200000001 6.4157036600000001 8.3289278200000005 O
atom 2.9339690799999998 1.3571450800000000 0.3547999800000000 O
atom 2.8012982300000000 1.4077467800000001 5.7426559900000003 O
atom 2.7735987799999999 6.3117913100000003 0.4084371900000000 O
atom 2.8981543500000000 6.4194829100000002 5.7485376700000002 O
atom 2.2729055800000002 3.8059009900000000 3.0942176300000002 O
atom 2.3152577900000000 3.8383999599999998 8.3369371599999997 O
atom 2.3124487700000000 8.9723783600000004 8.3558553799999995 O
atom 2.2748718200000000 3.8141921800000000 0.4757124300000000 O
atom 2.2863990599999999 3.9060736299999999 5.6981184400000000 O
atom 2.4386360699999998 8.8364922900000007 0.4263165200000000 O
atom 2.3655316499999999 9.1709862500000003 5.8095773399999997 O
atom 5.3936019899999996 1.6563322800000000 1.7374443900000001 O
atom 5.3977836200000002 1.6705252500000001 6.9535305799999998 O
atom 5.5250076000000004 6.8321837800000003 1.8149206200000001 O
atom 5.4280407600000000 6.7950777499999999 7.0226942599999997 O
atom 5.4752361399999998 0.8414648100000000 4.3133701300000000 O
atom 5.4353331200000001 0.8837353900000000 9.5713579099999997 O
atom 5.4130124700000000 6.1054113200000000 4.3847860399999998 O
atom 5.3914158099999998 6.0526238000000001 9.6626446399999999 O
atom 9.7812791400000005 4.1681472900000003 1.6553157599999999 O
atom 9.8177093699999993 4.2264305999999996 6.9375253900000002 O
atom 9.7474822099999994 9.4469889699999996 1.7301147699999999 O
atom 9.8141059399999993 9.3769664699999993 6.9876787100000000 O
atom 9.7616911399999999 3.3112457900000001 4.2944906200000004 O
atom 9.8192046099999999 3.3617363800000000 9.5703051800000001 O
atom 9.5519149799999994 8.5692546899999993 4.3523886500000000 O
atom 9.8260072100000002 8.5232601500000005 9.5866521700000007 O
atom 7.8880651799999999 1.2676152500000000 9.9520623199999996 O
atom 7.8507852700000003 1.2332128899999999 4.7527626100000004 O
atom 7.8884986399999999 6.3903894200000000 10.0123167800000008 O
atom 7.9291148299999996 6.3240264000000002 4.7617698600000002 O
atom 7.8401587399999997 1.2847692100000001 2.0950942600000002 O
atom 7.8707398099999999 1.2797765699999999 7.3529260399999998 O
atom 7.9445084499999998 6.3706559800000004 2.1464524400000000 O
atom 7.8643091299999996 6.3919078300000001 7.3966654700000003 O
atom 7.3599316100000003 3.8373829700000002 9.9722833499999997 O
atom 7.3437879199999996 3.8108761300000000 4.7414829000000003 O
atom 7.3985520800000000 8.9683377300000000 10.0126773700000005 O
atom 7.1798509800000003 8.9031425399999993 4.7709221199999998 O
atom 7.3401153499999996 3.8243395599999999 2.0944173300000002 O
atom 7.3650610299999997 3.8393236100000001 7.3521771500000002 O
atom 7.3381194900000004 8.9393398299999998 2.1725349800000000 O
atom 7.3816263800000002 8.9721451299999995 7.4037093000000000 O
