lattice_vector 10.1498927600000002 0.0123989300000000 0.7939929100000001 
lattice_vector 0.0270057800000000 10.2904932799999997 -0.0047187700000000 
lattice_vector 0.8482463700000000 -0.0176041500000000 10.4983512799999996 
atom 1.3441726500000000 0.2518167700000000 1.7327036800000000 Si
atom 1.8505756600000001 0.2982360100000000 6.8967316600000004 Hf
atom 1.5393927300000001 5.3547361000000002 1.6592734800000000 Hf
atom 2.0005301900000001 5.2527795800000003 6.9108619400000002 Hf
atom 6.6371063100000001 0.2287321900000000 2.0252810000000001 Hf
atom 7.0082797899999996 0.1590891500000000 7.2997867500000000 Hf
atom 6.6223968099999997 5.3024451900000003 1.9999686299999999 Hf
atom 7.1037674500000003 5.1363379100000000 7.4215024100000004 Hf
atom 1.7024156800000001 2.3776014100000000 4.1672206100000002 Hf
atom 2.2346721700000001 2.3339852400000001 9.4903573800000007 Hf
atom 1.8112465900000001 7.4507449699999997 4.2224516899999998 Hf
atom 2.1294523900000000 7.4540625800000004 9.5148419700000009 Hf
atom 6.8499420100000004 2.3098729100000002 4.6448068400000002 Hf
atom 7.2241676200000002 2.3038188700000002 9.9270154700000006 Hf
atom 6.6358039499999997 7.6868140499999997 4.4721684899999996 La
atom 7.2028084400000001 7.4992703699999996 9.9554491600000006 Hf
atom 3.7289335200000000 2.7633173300000000 1.3096505400000000 Hf
atom 4.2059707800000004 2.7513932799999998 6.5734108600000001 Hf
atom 3.7416396999999999 8.0127582700000008 1.4344401300000000 Hf
atom 3.8794422800000001 8.0797406800000005 6.7099337800000001 Hf
atom 8.9387556299999993 2.7461647000000000 1.8088500300000001 Hf
atom 9.2588413999999997 2.7393960800000001 7.0103282599999996 Hf
atom 8.9143474299999994 7.9617723500000004 1.7641785900000000 Hf
atom 9.3080607299999993 7.7865077899999999 7.0796212799999996 La
atom 4.0268233799999997 4.8757682100000004 3.9729683400000000 Hf
atom 4.4081965800000003 4.9863880299999996 9.2489208600000001 Hf
atom 3.9378241100000002 10.1328154399999999 3.9607463200000002 Hf
atom 4.4085143999999996 10.1254623499999994 9.3151963700000007 Hf
atom 8.9783462699999994 4.9399859299999997 4.3990670400000003 Hf
atom 9.5001934899999991 4.8899779800000003 9.7336986700000008 Hf
atom 9.1464009300000004 10.0663266100000008 4.4035071700000001 Hf
atom 9.4749544399999994 10.0870648000000003 9.6668466500000001 Hf
atom 0.6279407100000000 1.5666897399999999 0.8718205000000000 O
atom 0.8448398000000000 1.7420306299999999 5.9967773400000004 O
atom 0.4707753100000000 6.8556503700000002 0.8429924200000000 O
atom 1.1981904600000000 6.8179805499999997 6.0672706099999996 O
atom 5.4494854899999998 1.6296141399999999 1.1620071999999999 O
atom 5.8979993700000000 1.6216738100000001 6.4380656700000003 O
atom 5.4509076399999996 6.7792277199999997 1.1951044900000001 O
atom 0.6944043700000000 0.8285076500000000 3.3298665900000000 O
atom 1.0228406400000001 0.9386319700000000 8.7298586999999994 O
atom 0.6103173300000000 5.9724351300000000 3.4972631900000000 O
atom 1.0455672899999999 5.9870567100000001 8.7285476499999994 O
atom 5.6770132200000001 0.9051559700000000 3.7673375000000000 O
atom 6.0977114600000002 0.8943525900000000 9.0577380200000004 O
atom 5.7672016700000004 5.7732405800000004 3.7966014600000002 O
atom 5.9660070899999997 6.2540283199999998 8.8287054600000001 O
atom 4.9013570299999998 4.1868059700000000 2.1487262199999999 O
atom 5.2755107199999998 4.3196184000000004 7.3752972000000003 O
atom 5.0795678300000002 9.2110468500000007 2.4000830899999999 O
atom 5.3225542499999996 9.2373610399999997 7.5659385500000003 O
atom 10.0066971700000007 4.2312620599999997 2.6322955499999998 O
atom 10.3671556999999996 4.2803249799999996 7.8622693000000003 O
atom 10.1724290300000000 9.5027981599999993 2.5296183399999999 O
atom 10.3473794600000009 9.6030193100000005 7.8943392399999999 O
atom 5.1090515200000004 3.3790496999999999 4.8052240800000003 O
atom 5.6340899699999998 3.5925660200000000 10.0471495300000004 O
atom 4.8823642899999999 8.8587273799999995 5.1246174599999996 O
atom 5.4818413499999998 8.6716775500000001 10.2074653400000006 O
atom 10.1460343099999992 3.4567742600000000 5.1951364800000004 O
atom 10.6749525599999995 3.4339700000000000 10.5566048699999993 O
atom 10.2658278000000003 8.5550659299999996 5.0428729399999996 O
atom 10.5898907599999994 8.5683171900000001 10.4398049400000001 O
atom 2.8216998200000001 1.1595053900000001 2.4359657700000001 O
atom 3.4039852100000001 1.2972339300000000 7.8655823299999996 O
atom 3.0102928599999998 6.4102047000000004 2.7263495400000002 O
atom 3.3694834299999998 6.4779931800000004 7.9934923099999997 O
atom 8.1070531300000006 1.3211101300000001 3.1238870200000002 O
atom 8.4706478500000006 1.3062610299999999 8.3794334300000006 O
atom 8.1883419600000007 6.4103242700000003 3.0381631200000001 O
atom 8.3787744300000000 6.2770783699999999 8.5938878100000000 O
atom 3.1901276400000000 1.3256433700000001 5.2196573500000003 O
atom 3.8726564899999998 1.5246425500000000 10.3172184100000006 O
atom 3.5392976900000002 6.4527322700000003 5.3418611000000000 O
atom 3.6580258400000001 6.4989374000000000 10.6008473900000002 O
atom 8.3523003899999999 1.2698026099999999 5.7368109299999999 O
atom 8.7309455400000004 1.2464894900000001 11.0252923400000000 O
atom 7.9182375000000000 6.2081980699999999 5.8617607600000001 O
atom 8.7337149699999994 6.3937393900000004 11.0350180600000005 O
atom 2.3231316700000000 4.0008012400000004 0.2732886900000000 O
atom 2.7242123999999999 3.9106348000000000 5.5043298199999997 O
atom 2.3144866300000002 9.4920672499999998 0.5621768700000001 O
atom 2.5213753200000002 9.1032173200000006 5.6064483300000001 O
atom 7.4440852099999999 3.8515259700000000 0.7019018400000000 O
atom 7.7826752900000002 3.7766930799999998 5.9542984600000004 O
atom 7.3788867900000001 9.0362570899999994 0.6905215800000000 O
atom 7.8157837600000004 9.1821810100000008 5.8794859600000002 O
atom 2.5347916800000001 3.7533745600000001 2.8769133000000000 O
atom 2.9947657900000002 3.8036606399999999 8.1685910800000006 O
atom 2.6050225600000001 8.9017653400000007 2.9865867900000000 O
atom 2.8594607900000000 9.0088100200000003 8.2833466999999992 O
atom 7.6266226399999999 3.7713105300000000 3.2965563599999999 O
atom 8.0311266700000008 3.7427183700000000 8.5729825599999998 O
atom 7.8342559300000003 9.0869560699999994 3.1579939600000002 O
atom 7.9148168099999996 8.9989993800000008 8.6769011700000007 O
