lattice_vector 10.0268981299999993 -0.0128016000000000 0.7900909000000000 
lattice_vector -0.0008304700000000 10.1683051300000002 -0.0190243000000000 
lattice_vector 0.8995152300000000 0.0083606200000000 10.4660420300000006 
atom 1.2708329899999999 0.2518352800000000 1.7116346700000000 Si
atom 1.9465484799999999 0.2329220500000000 6.8585207199999996 Hf
atom 1.5571603899999999 5.3452257699999999 1.5939390200000001 Hf
atom 1.9668075800000000 5.3105368400000001 6.7646642500000000 Hf
atom 6.4885542999999997 0.2070103900000000 2.0624205899999999 Hf
atom 6.9751509799999996 0.2207156700000000 7.2677504199999996 Hf
atom 6.5269041999999997 5.2749574600000004 2.0268665900000000 Hf
atom 6.9868971599999998 5.3052548000000002 7.2540032300000004 Hf
atom 1.7266318199999999 2.2729391799999998 4.1777597200000001 Hf
atom 2.2422748600000002 2.3382243100000002 9.4303489000000003 Hf
atom 1.5577623199999999 7.3959051999999996 4.4056823500000002 Si
atom 2.1227589400000002 7.4221712599999998 9.4141420799999995 Hf
atom 6.7418986700000003 2.3109836000000001 4.6189741700000004 Hf
atom 7.2141994199999999 2.3465359399999999 9.8986355800000005 Hf
atom 6.7476506599999997 7.3825180000000001 4.6347616900000004 Hf
atom 7.1632275099999996 7.4347820899999997 9.9047268800000001 Hf
atom 3.6850464000000001 2.7017596799999999 1.3343797200000000 Hf
atom 4.1726360800000002 2.7757231400000002 6.5650381800000002 Hf
atom 3.6369966400000000 7.8178919599999999 1.4394389800000000 Hf
atom 4.1534337399999997 7.8818986400000002 6.5979005600000002 Hf
atom 8.8024737000000002 2.7259805699999999 1.8176266800000001 Hf
atom 9.1735151300000002 2.7562622000000001 6.9954240800000003 Hf
atom 8.7428897600000006 7.8548962400000004 1.7715844100000000 Hf
atom 9.1565759199999999 7.8435049499999998 7.0330766400000000 Hf
atom 3.9090558500000001 4.8732523499999996 3.9229594099999998 Hf
atom 4.3896864400000002 4.8971000499999997 9.2047269699999994 Hf
atom 3.8317932500000000 9.8320499399999992 3.9701420900000000 Hf
atom 4.3882880100000001 10.0187346099999992 9.2792900100000004 Hf
atom 9.0270502100000005 4.9037275999999999 4.4032894200000001 Hf
atom 9.4131706600000005 4.8564498299999999 9.6415832100000003 Hf
atom 8.9688411699999993 9.8959184400000009 4.4024491799999996 Hf
atom 9.3805462100000003 9.9812913999999999 9.6273628900000006 Hf
atom 0.5614578500000000 1.5299716999999999 0.8463570100000000 O
atom 0.8180461100000000 1.6268893600000001 5.9737972499999996 O
atom 0.3882446100000000 6.7540665200000003 0.7767683300000000 O
atom 0.8646602200000000 6.8160763800000002 5.9486532700000003 O
atom 5.3852383899999996 1.5975620800000001 1.1702596700000001 O
atom 5.8700563499999996 1.6625661400000000 6.4225700400000001 O
atom 5.4182804600000001 6.7503783000000004 1.2068154099999999 O
atom 5.8243795599999997 6.7098140700000002 6.3930626400000001 O
atom 0.6165643300000000 0.8267736500000000 3.3033823800000000 O
atom 1.0519828800000000 0.9278259300000000 8.6490209300000007 O
atom 0.8087604900000001 6.1120623500000004 3.4868337299999999 O
atom 1.0498632800000001 6.0141082299999997 8.5727941399999992 O
atom 5.5588038900000001 0.8839697800000000 3.8059513400000000 O
atom 6.1162130499999998 0.8945663700000001 9.0430443999999994 O
atom 5.6412169900000002 5.9529550100000002 3.8072443300000001 O
atom 6.0630386700000001 6.0228145900000003 9.0109564599999992 O
atom 4.9294323599999998 4.0680807999999997 2.2302212600000000 O
atom 5.3078670399999996 4.1818519199999997 7.4494654799999998 O
atom 4.8055708700000004 9.2144587399999995 2.2536511199999998 O
atom 5.2815078099999999 9.2870308399999999 7.4533981899999997 O
atom 9.9336227800000003 4.1799961000000003 2.6663852499999998 O
atom 10.3103488399999996 4.1947068099999996 7.8259958500000000 O
atom 9.9410660100000001 9.3303504900000007 2.5773542699999998 O
atom 10.2851631799999996 9.2744008800000000 7.8505221399999998 O
atom 5.0905019700000000 3.4544848199999998 4.8198777699999997 O
atom 5.5813488700000002 3.5288550200000000 10.0907405600000004 O
atom 5.0896086100000000 8.5455530599999996 4.8475431899999997 O
atom 5.4255103599999996 8.5285676000000006 10.1030406399999997 O
atom 10.1142581800000002 3.4273061199999999 5.2132958000000000 O
atom 10.5840083600000003 3.4454500000000001 10.5216326099999993 O
atom 10.1831110900000006 8.4482999400000001 5.2078264900000004 O
atom 10.5064214499999995 8.5424264700000005 10.4591022999999996 O
atom 2.7540944000000001 1.0186981600000000 2.4757339699999998 O
atom 3.4161842500000001 1.3077727500000000 7.8561610799999997 O
atom 3.2081125699999999 6.0870427100000004 2.4225452700000001 O
atom 3.4094854699999999 6.3818151600000004 7.8316293500000000 O
atom 7.9969552500000001 1.2655212100000000 3.1295000599999998 O
atom 8.4563696400000001 1.3221603700000000 8.3533614200000006 O
atom 8.0325583500000004 6.3772330699999999 3.1211789900000002 O
atom 8.4534247300000001 6.3941545800000004 8.3572971500000008 O
atom 3.1927361200000002 1.2423936499999999 5.2287008300000002 O
atom 3.8380244600000002 1.4913084100000000 10.3199328000000001 O
atom 3.0040400599999999 6.4383289499999998 5.0923770599999996 O
atom 3.6143481700000000 6.4569271600000002 10.4507474100000000 O
atom 8.2366425400000001 1.2178042200000001 5.7209459300000001 O
atom 8.6932019799999996 1.2563580900000000 11.0025700400000002 O
atom 8.2326232800000003 6.3288675899999998 5.7383410599999998 O
atom 8.6807235800000004 6.3321664400000000 10.9603016899999997 O
atom 2.2745828200000000 3.9264419099999999 0.2545720400000000 O
atom 2.7113831600000000 3.8706749899999999 5.4710147600000001 O
atom 2.1936212700000000 9.3217897399999998 0.6375851100000000 O
atom 2.6599431400000002 8.9353527300000000 5.5890553100000000 O
atom 7.3305806000000002 3.8209982999999998 0.7173307100000000 O
atom 7.7461444400000001 3.8592818200000001 5.9059345399999996 O
atom 7.2458005800000000 8.9388604899999997 0.6977712800000000 O
atom 7.7558974500000000 8.9129027300000008 5.9178690899999999 O
atom 2.5097283600000000 3.6387571599999999 2.8652164000000000 O
atom 2.9270808399999999 3.8015359100000001 8.0891480900000001 O
atom 2.4690416399999999 8.3414623999999993 3.2232925600000000 O
atom 2.9286284400000002 8.8949581099999993 8.2228401899999994 O
atom 7.5791617200000001 3.7652799400000001 3.3152613799999999 O
atom 7.9508185100000004 3.7954079300000001 8.5457868099999992 O
atom 7.5414056499999997 8.8430599700000005 3.3020104099999998 O
atom 7.9112203100000000 8.8769831799999999 8.5465341499999994 O
