lattice_vector 10.1234444900000007 0.0035143800000000 0.7737577000000000 
lattice_vector -0.0130356300000000 5.1697797599999999 -0.0270459100000000 
lattice_vector 0.7795369800000000 0.0103091400000000 10.3421372599999994 
atom 1.4175852300000000 0.0377368600000000 1.4615981499999999 La
atom 1.9132925599999999 0.2099031700000000 6.7730574700000004 Hf
atom 6.6187571800000002 0.1721747300000000 2.0329174600000002 Hf
atom 7.0076980400000002 0.2383961000000000 7.1523125399999996 Hf
atom 1.7074326399999999 2.3101914600000000 4.1648655799999998 Hf
atom 2.0738954700000001 2.3682031100000001 9.2992763099999998 Hf
atom 6.7274370699999997 2.3661224100000000 4.5903231599999996 Hf
atom 7.1814282199999999 2.4094778099999998 9.7425503500000001 Hf
atom 3.8183395899999999 2.6856685400000000 1.3838590600000000 Hf
atom 4.1230408000000001 2.8008681700000002 6.5067533099999997 Hf
atom 8.7767640599999996 2.7960436000000000 1.7418333900000000 Hf
atom 9.2151554600000001 2.8193628400000001 6.8914606899999997 Hf
atom 3.9171146100000001 4.9343081399999997 3.9014001399999998 Hf
atom 4.4261244900000003 5.0170363800000004 9.0207400399999997 Hf
atom 8.9229090600000003 4.9696001900000004 4.3310568800000002 Hf
atom 9.3634776700000000 4.9667995300000003 9.4875564600000004 Hf
atom 0.6147884400000000 2.2542319100000001 0.9466748200000000 O
atom 0.8563862800000001 1.8141359699999999 6.1023433999999996 O
atom 5.5564206799999996 1.7476671300000000 1.2567057399999999 O
atom 5.8797030299999999 1.7876653800000000 6.4637188400000003 O
atom 0.5694884800000000 0.7780063300000000 3.5528651999999998 O
atom 1.0782338499999999 0.7368423300000000 8.7470076300000006 O
atom 5.6990279599999996 0.7712207500000000 3.8677288200000000 O
atom 6.1645464900000002 0.8205992200000000 9.0070555999999993 O
atom 4.8218254800000002 4.3410440599999998 2.0489534300000001 O
atom 5.2153237299999997 4.3863212699999998 7.1993343200000002 O
atom 9.4099144500000005 4.6008627600000001 2.3333045299999999 O
atom 10.2393888099999995 4.4184871699999997 7.6186105800000004 O
atom 4.9613635800000004 3.3489839300000002 4.6637382100000000 O
atom 5.3707053399999998 3.4133546899999998 9.8402562099999997 O
atom 10.0532845500000008 3.3813447299999999 4.9952492099999999 O
atom 10.4229732399999993 3.3699752799999998 10.1492945100000007 O
atom 3.0453519099999999 1.2856867300000001 2.7346784000000000 O
atom 3.3631525199999999 1.3452785500000000 7.8263507800000003 O
atom 8.0028699900000007 1.3973428400000001 3.1289202000000000 O
atom 8.4710803899999991 1.3736161700000000 8.2647662700000009 O
atom 3.1615745400000002 1.2261283700000001 5.2901429300000000 O
atom 3.6395255999999998 1.2993173499999999 10.3429834500000002 O
atom 8.2191909499999998 1.2615798400000000 5.6963830800000004 O
atom 8.6467193899999994 1.2625521399999999 10.8499912399999996 O
atom 2.6359118100000001 3.9177076300000002 5.4432080899999997 O
atom 7.3160618299999998 3.9119333699999999 0.6134332000000000 O
atom 7.7190930699999996 3.9279641199999999 5.8182224099999997 O
atom 2.5514315200000000 3.6976058699999999 2.8400195199999998 O
atom 2.8754562899999998 3.8608713500000000 8.0891367299999999 O
atom 7.3892911899999998 3.8102214299999999 3.2692769400000001 O
atom 7.9123822800000001 3.8535274899999998 8.3820089400000004 O
