lattice_vector 10.1492980900000003 -0.0458763200000000 0.8403200800000000 
lattice_vector -0.0350198800000000 10.3797084500000008 0.0075525500000000 
lattice_vector 0.3790461400000000 -0.0561253300000000 5.2126964899999999 
atom 1.4684448999999999 0.1482885600000000 1.5575964200000001 La
atom 1.4628390899999999 5.3835176300000001 1.6137047899999999 Hf
atom 6.6021423500000003 0.1737410500000000 2.0774987100000000 Hf
atom 6.5758982000000001 5.3590543600000000 2.0613280000000000 Hf
atom 1.5950434099999999 2.4127187600000002 4.2873447499999999 Hf
atom 1.7039122000000000 7.4846607799999996 4.2533325199999998 Hf
atom 6.7930090999999999 2.3039076900000000 4.6676966300000000 Hf
atom 6.7812688000000003 7.4727685700000004 4.6720906900000001 Hf
atom 3.7788666599999998 2.8464049800000000 1.2558429600000001 Hf
atom 3.7554521599999999 7.9090788300000003 1.4081643699999999 Hf
atom 8.7663957700000008 2.7972850399999998 1.8286557699999999 Hf
atom 8.7673410100000009 7.9238062700000000 1.8325284600000000 Hf
atom 3.9130645099999999 4.9091501099999997 3.9501704800000002 Hf
atom 4.0028235099999998 10.0041413499999994 4.0436993499999998 Hf
atom 8.9745241399999998 4.9148627200000004 4.4137567600000001 Hf
atom 8.9618549400000003 10.0662299500000003 4.4990160599999998 Hf
atom 0.4345868700000000 2.0689810000000000 0.9453800400000000 O
atom 0.4457309300000000 7.0020134100000000 0.9301726400000000 O
atom 5.4600686800000000 1.7053570400000000 1.2699303300000000 O
atom 5.5117233299999997 6.9027076500000000 1.3046035700000000 O
atom 0.6213037700000000 0.7564857800000000 3.7138268900000000 O
atom 0.6322154400000000 5.9104188000000004 3.5130324499999999 O
atom 5.7036166799999997 0.7850331300000000 3.8796781299999998 O
atom 5.6576077500000004 5.9670433599999999 3.8893467799999999 O
atom 4.8267702899999998 4.3263889000000004 2.1310184500000000 O
atom 4.7975079899999997 9.5233308700000006 2.1624062199999998 O
atom 9.8043088600000008 4.4227474800000000 2.5236986500000000 O
atom 9.6307408700000003 9.5052637400000002 2.6461408999999998 O
atom 5.0531204699999996 3.4002001499999999 4.7288126000000004 O
atom 5.0950634600000004 8.5484641400000001 4.8240095600000004 O
atom 9.9766707900000000 3.3268361199999998 5.1200250799999996 O
atom 10.0910079300000000 8.5012466000000000 5.2156547299999998 O
atom 2.9568578099999998 6.4097000599999996 2.7206174100000000 O
atom 8.0608286200000006 1.3022476700000001 3.1993003400000002 O
atom 8.0318101300000002 6.4748235200000002 3.1761836799999998 O
atom 3.2361993600000001 1.2747253300000001 5.1156966400000004 O
atom 3.1601372799999998 6.3434419999999996 5.3364724099999998 O
atom 8.2113948600000004 1.1737549800000000 5.8090249399999996 O
atom 8.2327110000000001 6.3420098200000004 5.7751103800000001 O
atom 2.2707662700000002 3.9778580699999999 0.2313239600000000 O
atom 2.4038536900000000 8.9639865400000005 0.2180213000000000 O
atom 7.3044896300000000 3.9174638800000001 0.7104096700000000 O
atom 7.3453734700000002 9.0815595099999999 0.7401309200000000 O
atom 2.4875559400000000 3.6677933999999999 2.8252291100000000 O
atom 2.5681137299999999 8.8753022999999995 2.9458142199999999 O
atom 7.5062848500000001 3.7957160100000000 3.3198861700000002 O
atom 7.4071193500000003 8.9618939399999995 3.3576777899999999 O
