lattice_vector 10.1273441500000008 -0.0504171900000000 -0.0062729400000000 
lattice_vector -0.0299077500000000 10.4743711499999996 -0.0312765900000000 
lattice_vector 0.0027690700000000 0.0162019200000000 5.2322673799999997 
atom 1.3412408199999999 0.1306661200000000 1.6202803299999999 La
atom 1.3816156700000000 5.4204101900000001 1.7606104000000000 Hf
atom 1.3820485600000001 2.4620164099999999 4.3696497499999998 Hf
atom 1.4172040200000000 7.5822257000000004 4.3481272200000003 Hf
atom 3.6274740599999999 2.8488316700000000 1.7640767300000000 Hf
atom 3.6456517499999999 7.9478885799999999 1.7481035800000000 Hf
atom 3.6378221700000002 4.9990483499999998 4.3879023999999998 Hf
atom 3.6302089000000000 10.2741751200000007 4.2180461999999999 Hf
atom 6.4048059100000003 0.1042463800000000 0.9898326500000000 La
atom 6.4447830599999998 5.3927021200000000 0.8182298400000000 Hf
atom 6.4454699499999997 2.4345084500000000 3.4589659400000001 Hf
atom 6.4804169700000003 7.5548710899999998 3.4499425399999999 Hf
atom 8.6913463100000001 2.8206792300000001 0.8272711900000000 Hf
atom 8.7090397199999998 7.9197872299999998 0.8127068100000000 Hf
atom 8.7008232900000007 4.9708652400000002 3.4229484900000000 Hf
atom 8.6937152100000006 10.2466634600000006 3.5616020700000002 Hf
atom 0.3646210100000000 2.0598553900000001 0.9301291200000000 O
atom 0.3917147400000000 7.0600698399999997 0.9351236200000000 O
atom 0.3510293600000000 0.7991172100000000 3.7693864499999998 O
atom 0.3338511500000000 6.0683873699999999 3.5078255399999998 O
atom 4.6518225500000003 4.4632248399999996 0.9411575100000000 O
atom 4.3668525599999999 9.6778948600000003 0.8800925000000001 O
atom 4.6677718700000002 3.4621289700000002 3.5759078199999998 O
atom 4.7876860700000003 8.7081648499999993 3.4329963299999999 O
atom 2.8091222299999998 1.3542351699999999 3.0528938200000000 O
atom 2.7992457700000002 6.4754444400000004 3.0453842899999999 O
atom 2.8859126399999999 1.4095063600000000 0.3099264200000000 O
atom 2.7585337499999998 6.4767843899999997 0.4386462000000000 O
atom 2.2348650800000001 3.9379764499999999 3.0473316900000000 O
atom 2.3369453000000000 9.0094503400000008 3.0241407400000000 O
atom 2.2432800700000000 3.9508768900000000 0.4294305800000000 O
atom 2.3892243299999998 8.9832947500000007 0.2834479400000000 O
atom 5.4279719999999996 2.0371231700000001 1.6703281999999999 O
atom 5.4548230000000002 7.0366152000000000 1.6356242000000001 O
atom 5.4147336800000003 0.7757399500000000 4.0717137599999997 O
atom 5.3981087700000003 6.0465391600000000 4.3014304599999997 O
atom 9.7154715500000002 4.4409222399999999 1.6386483500000000 O
atom 9.4306913500000000 9.6548850300000009 1.6698853800000000 O
atom 9.7313777800000008 3.4384983600000001 4.2427514300000002 O
atom 9.8517460400000001 8.6853561399999997 4.3545539299999998 O
atom 7.8740223399999998 1.3345677199999999 4.7801435600000000 O
atom 7.8639551499999998 6.4556420200000000 4.7572457799999999 O
atom 7.9504945600000001 1.3907320800000000 2.2906707399999999 O
atom 7.8230742400000004 6.4574382899999998 2.1320907600000001 O
atom 7.2991943600000004 3.9182510300000000 4.7721425899999996 O
atom 7.4012593500000001 8.9898073699999994 4.7647439399999998 O
atom 7.3081280800000004 3.9309494900000002 2.1566810099999998 O
atom 7.4537342100000004 8.9646762100000004 2.2724578400000000 O
