lattice_vector 5.0526524500000001 0.0039436400000000 -0.0649194900000000 
lattice_vector -0.0010386700000000 10.4875559000000003 -0.0411820000000000 
lattice_vector 0.0065306800000000 -0.0339427600000000 10.1647768299999992 
atom 1.2452379099999999 0.0078518100000000 1.1159034600000000 La
atom 1.3117637099999999 0.1603373400000000 6.3721634600000003 Hf
atom 1.3951224099999999 5.4109058100000000 1.2333282200000000 Hf
atom 1.3150794400000001 5.4239840399999997 6.3738177100000000 Hf
atom 1.2532060199999999 2.5121848999999998 3.7080957600000000 La
atom 1.3536225000000000 2.4639106399999999 8.8390927000000001 Hf
atom 1.3100827300000000 7.6714831400000003 3.8242978100000000 Hf
atom 1.3844732399999999 7.6485872199999996 8.8749307900000005 Hf
atom 3.6769041800000002 2.8149769199999999 1.1255206200000001 Hf
atom 3.6428208600000000 2.8038083000000000 6.3159641999999998 Hf
atom 3.6977603200000000 7.9781260700000001 1.2659775400000000 Hf
atom 3.6566185400000002 8.0054422800000005 6.3002047000000001 Hf
atom 3.6553173900000000 5.1106031900000000 3.7892581600000002 Hf
atom 3.7130186699999999 5.0624786400000001 8.8218829400000001 Hf
atom 3.6085633600000002 10.2504631199999992 3.8231493099999998 Hf
atom 3.7143798000000001 10.2962468699999992 8.7112492300000000 Hf
atom 0.4633186300000000 2.0986483900000001 1.4792812200000001 O
atom 0.3746375800000000 1.9887857300000000 6.9099759100000000 O
atom 0.3404522500000000 7.0890819599999997 2.0142051500000000 O
atom 0.3134834000000000 7.1603797800000004 7.1113619799999999 O
atom 0.3029682100000000 0.5012521700000000 4.5738042900000000 O
atom 0.4181067000000000 0.6896309100000000 9.1446035999999999 O
atom 0.3233492400000000 5.9190684999999998 4.5640781500000003 O
atom 0.3478664400000000 5.9561135800000002 9.6128575600000001 O
atom 4.8428204299999997 4.4860194399999997 2.0135479400000000 O
atom 4.6801340299999996 4.5624913100000004 7.0117347099999998 O
atom 4.5524092600000001 9.6405114699999999 2.0953725500000000 O
atom 4.6439592300000001 9.7395135400000008 6.9270861699999999 O
atom 4.4261502999999998 3.3357793999999998 4.5100874700000002 O
atom 4.6950924799999996 3.3551963900000001 9.4375302500000000 O
atom 4.6493821899999999 8.4775147999999998 4.5097223000000000 O
atom 4.9319089600000003 8.6774455499999998 9.7084696000000008 O
atom 3.0326455800000001 1.2844258600000000 2.5009885900000000 O
atom 2.7269394299999998 1.2401564300000001 7.5674728000000000 O
atom 2.7213465299999999 6.4694628200000004 2.4885534499999999 O
atom 2.7140007599999998 6.4649942700000000 7.5708892099999998 O
atom 2.7583959700000000 1.2715045700000001 5.1441914200000003 O
atom 2.8529666100000002 1.3800404200000000 9.9964446500000008 O
atom 2.6801799499999999 6.6536316800000002 5.0330458900000004 O
atom 2.7512055599999998 6.5633529399999997 10.1103538400000001 O
atom 2.3157013100000001 4.1545027899999996 5.1070907800000001 O
atom 2.3423218299999999 3.9957984700000000 10.0762569499999994 O
atom 2.2475803700000001 9.2017490500000001 5.0696845499999998 O
atom 2.5713123400000000 9.0730331399999997 9.9973661400000005 O
atom 2.4713438700000001 3.9888073300000002 2.3914862900000000 O
atom 2.2996623199999999 3.8612226700000001 7.5828128799999996 O
atom 2.3281010900000001 8.9411163699999996 2.5601229999999999 O
atom 2.3022838299999999 9.0752688599999995 7.5548015499999996 O
