lattice_vector 10.0459783999999992 -0.0122333400000000 -0.0337466000000000 
lattice_vector 0.0106555300000000 10.2260130799999995 0.0098081400000000 
lattice_vector -0.0301734600000000 -0.0115989700000000 10.0462143600000005 
atom 1.2086003500000000 -0.0456587900000000 1.2078545100000000 La
atom 1.2695551599999999 0.0346679300000000 6.2758461299999997 Hf
atom 1.2540747999999999 5.1597349100000001 1.2530016799999999 Hf
atom 1.2291800200000000 5.1011899100000004 6.2771242500000000 Hf
atom 6.2766371100000002 0.0343271400000000 1.2669899499999999 Hf
atom 6.2119735299999999 -0.0156619200000000 6.2094750599999999 Hf
atom 6.2781987099999998 5.1008717600000004 1.2259731100000000 Hf
atom 6.2547575699999998 5.0919335800000001 6.2517907399999997 Hf
atom 1.2129489600000001 2.5763769999999999 3.7273829900000002 Hf
atom 1.2488746399999999 2.5730132499999998 8.7616431499999994 Hf
atom 1.2832060000000001 7.5911818599999998 3.7809076500000001 Hf
atom 1.3574718900000000 7.6088345799999999 8.7303413899999995 Hf
atom 6.2568640100000001 2.5365344699999999 3.7382352800000000 Hf
atom 6.2403954300000004 2.5071629799999999 8.7818378300000006 Hf
atom 6.2327429900000002 7.6661526200000001 3.7540043700000001 Hf
atom 6.2989752699999997 7.7037202300000001 8.7696091599999999 Hf
atom 3.7283040900000000 2.5762515300000000 1.2109211499999999 Hf
atom 3.7410110200000002 2.5366238700000001 6.2551949699999998 Hf
atom 3.7822673199999999 7.5908619000000002 1.2810578900000000 Hf
atom 3.7570701999999998 7.6661582299999997 6.2305997599999996 Hf
atom 8.7623659899999993 2.5728515000000001 1.2451546400000000 Hf
atom 8.7844972499999994 2.5069706100000002 6.2370128200000003 Hf
atom 8.7314153999999995 7.6082720300000002 1.3535980000000001 Hf
atom 8.7726102099999999 7.7034247000000002 6.2950725199999997 Hf
atom 3.7271828299999998 0.0105448000000000 3.7255202999999999 Hf
atom 3.7771339899999998 -0.0320611000000000 8.7842433000000000 Hf
atom 3.7495012100000000 5.0548977600000002 3.7474372100000002 Hf
atom 3.7779161000000001 5.0901433699999998 8.7385048300000001 Hf
atom 8.7857966199999993 -0.0321625700000000 3.7737039100000001 Hf
atom 8.6904661399999998 0.0257204400000000 8.6872491000000007 Hf
atom 8.7404862699999999 5.0895773100000001 3.7741059899999998 Hf
atom 8.7033016599999993 5.0706349199999998 8.6995013599999993 Hf
atom -0.0759622700000000 1.6024882600000001 -0.0762931600000000 O
atom 0.0364649900000000 1.5206945700000001 5.0552892199999997 O
atom 0.2535754100000000 7.0104624800000002 0.2527019800000000 O
atom 0.0381024500000000 6.6414095099999999 5.1600127799999997 O
atom 5.0554925900000001 1.5202335899999999 0.0341288600000000 O
atom 5.0261140299999996 1.4980158500000000 5.0239195700000003 O
atom 5.1606890099999996 6.6409848499999997 0.0352670100000000 O
atom 5.0296881999999998 6.5964842199999998 5.0270957599999999 O
atom -0.1533842400000000 1.1831133599999999 2.6072133399999999 O
atom -0.0462085100000000 1.0332205500000000 7.5051702499999999 O
atom -0.0326374000000000 6.1474870800000003 2.6067723400000000 O
atom 0.0905748200000000 6.1268387799999999 7.6892185000000000 O
atom 4.9942323200000001 1.0201846100000000 2.5149267000000002 O
atom 4.9883810300000002 1.0245397599999999 7.5160301799999996 O
atom 4.9762306100000000 6.1281890700000003 2.5046923600000000 O
atom 5.0824276800000003 6.1440456000000001 7.5627960800000000 O
atom 0.0374480500000000 3.6490108299999999 2.4387105899999999 O
atom -0.0308356700000000 3.6044193700000000 7.4892056699999996 O
atom -0.0530790500000000 8.6991006800000008 2.6795287299999999 O
atom -0.1031841300000000 8.6826006800000002 7.7845079400000001 O
atom 5.0310671899999999 3.5876152900000000 2.4835640899999998 O
atom 4.9892508900000001 3.5778051700000000 7.5195457299999999 O
atom 5.1197401800000000 8.6932242500000001 2.3888647800000000 O
atom 5.0191049200000002 8.6826171100000007 7.4595447100000003 O
atom -0.0266859000000000 4.2219727100000002 -0.0275311600000000 O
atom -0.0045721900000000 4.0649594699999998 4.9870686500000003 O
atom -0.1319483300000000 9.2174139099999994 5.2141155000000001 O
atom 4.9878765700000001 4.0646253999999997 -0.0076347100000000 O
atom 5.0106314599999999 4.0450473599999999 5.0075426600000004 O
atom 5.2150163599999999 9.2171053700000005 -0.1347020600000000 O
atom 4.9594457900000002 9.1495649799999992 4.9570523900000003 O
atom 2.5261826100000002 1.5127978200000001 2.5245998200000002 O
atom 2.4311419000000001 1.5142696700000000 7.4356682599999999 O
atom 2.4699212699999999 6.5460410099999997 2.4682538300000001 O
atom 2.5704049000000002 6.5646323999999998 7.4679490299999998 O
atom 7.4371207699999999 1.5140545000000001 2.4279634899999998 O
atom 7.5007895400000004 1.4802565299999999 7.4977205099999997 O
atom 7.4694426399999996 6.5642202300000001 2.5670614000000000 O
atom 7.5889463700000004 6.5966401799999996 7.5855576200000003 O
atom 2.6075857999999998 1.1827415900000000 -0.1548355000000000 O
atom 2.5171310999999998 1.0203047500000000 4.9929867699999999 O
atom 2.6073341800000001 6.1471662900000004 -0.0344132900000000 O
atom 2.5071161700000002 6.1283162700000000 4.9745403799999997 O
atom 7.5052599899999999 1.0329428700000001 -0.0493754700000000 O
atom 7.5180950700000002 1.0244213499999999 4.9854299099999997 O
atom 7.6896347199999999 6.1264291000000002 0.0866084800000000 O
atom 7.5651965299999997 6.1438438599999996 5.0787919099999996 O
atom 2.4391629099999999 3.6488280799999999 0.0360468100000000 O
atom 2.4864198700000002 3.5877858200000001 5.0295550300000000 O
atom 2.6805806099999998 8.6988238300000003 -0.0549633300000000 O
atom 2.3916425700000001 8.6933319000000004 5.1181232100000003 O
atom 7.4895820100000003 3.6041342699999999 -0.0343386600000000 O
atom 7.5222479299999998 3.5775432899999999 4.9857386699999999 O
atom 7.7852080199999998 8.6822213700000006 -0.1067088100000000 O
atom 7.4622276899999997 8.6823870400000001 5.0157707699999996 O
atom 2.5083536799999999 4.0422821400000002 2.5070184100000001 O
atom 2.4858403199999999 4.0433111200000003 7.5531474899999997 O
atom 2.6314401799999998 8.9773337200000007 2.6294564800000000 O
atom 2.4825360500000002 9.1589193800000004 7.5616267099999996 O
atom 7.5544228999999996 4.0431106899999998 2.4824407200000000 O
atom 7.4931554800000004 4.0141800200000004 7.4899848499999999 O
atom 7.5634430600000000 9.1586834300000000 2.4789516100000002 O
atom 7.4722953600000004 9.1707867899999993 7.4687784300000004 O
