lattice_vector 9.9880973799999992 -0.0443764200000000 -0.1335248600000000 
lattice_vector -0.0096106600000000 10.1460565500000008 0.0106637100000000 
lattice_vector -0.0467804800000000 0.0268671000000000 10.4376125900000005 
atom 1.0917969900000000 0.2111771800000000 2.2246826300000002 Si
atom 1.3696117600000000 0.2006455300000000 6.9210430100000000 Hf
atom 1.3036086200000001 5.2311931800000000 1.7271269400000000 Hf
atom 1.3274558999999999 5.2835957100000002 7.0150246400000000 Hf
atom 1.3309880400000000 2.4036207200000002 4.3770638999999996 Hf
atom 1.4667237600000000 2.2773386499999999 9.5782615100000008 Hf
atom 1.2750665200000000 7.3689278299999996 4.3303244000000003 Hf
atom 1.3734686800000000 7.4450811000000003 9.5827111899999995 Hf
atom 3.5695140799999998 2.7232542400000002 1.7020429100000001 Hf
atom 3.5934979000000000 2.7554284199999999 6.9355454700000001 Hf
atom 3.5583651600000001 7.8633668999999999 1.6683769500000001 Hf
atom 3.5697270300000001 7.8211529500000001 6.9203106300000004 Hf
atom 3.5562539700000002 4.8798838499999997 4.3365432400000001 Hf
atom 3.5630800699999998 4.8699525200000000 9.5763559500000000 Hf
atom 3.5364034599999998 9.9531137699999999 4.2829916299999997 Hf
atom 3.6122690600000000 9.9456907300000008 9.5577497400000002 Hf
atom 6.4568982500000001 0.2818544100000000 0.7279158700000000 Hf
atom 6.3093281699999997 0.2136247500000000 5.9682359800000002 Hf
atom 6.3928126699999996 5.2615359499999999 0.7331311400000000 Hf
atom 6.3536063000000000 5.2812938899999997 5.9784506200000003 Hf
atom 6.3386939399999997 2.3699977500000000 3.3404371700000000 Hf
atom 6.3813660499999996 2.3998237200000001 8.6110136100000005 Hf
atom 6.3107765200000001 7.3689279499999998 3.3176421500000002 Hf
atom 6.3602157600000000 7.4035096100000004 8.5773079800000005 Hf
atom 9.0637148100000005 2.3295749099999998 0.7367769400000000 Si
atom 8.5717838900000007 2.7251079800000002 5.9864223599999997 Hf
atom 8.6415552400000006 7.8399316299999997 0.7277550300000000 Hf
atom 8.5251482000000003 7.7789387999999997 5.9491874999999999 Hf
atom 8.4832624499999998 4.7715163599999997 3.2986868600000001 Hf
atom 8.5817269100000004 4.7816951300000001 8.6727825099999993 Hf
atom 8.4873356799999993 9.9226534599999994 3.3921282399999999 Hf
atom 8.5983528200000006 9.9452160700000007 8.5530030499999992 Hf
atom 0.5449640000000000 1.4564704600000000 1.0351709499999999 O
atom 0.2990203600000000 1.6790984200000001 6.0717427400000004 O
atom 0.2993652400000000 6.7249453499999996 0.8558408100000000 O
atom 0.2487289000000000 6.6984253000000002 6.0391820699999998 O
atom 0.2894053000000000 0.8196809800000000 3.5713211500000002 O
atom 0.3601875500000000 0.8622830400000000 8.6710811999999997 O
atom 0.2324307700000000 5.8846588700000000 3.3811754600000001 O
atom 0.3190375000000000 5.8969479099999997 8.7561953100000007 O
atom 4.6167639200000004 4.2192217899999997 0.8239513100000000 O
atom 4.6074950899999996 4.2663102200000003 6.0390432100000000 O
atom 4.7362572800000002 9.3087569600000002 0.8063653300000000 O
atom 4.5686174700000004 9.3264972999999998 6.0053732699999998 O
atom 4.5445695500000003 3.2937238999999998 3.4969905500000000 O
atom 4.6296935399999999 3.3941962700000001 8.6318088399999997 O
atom 4.5376086899999999 8.4390315600000001 3.4100961600000002 O
atom 4.6499773900000001 8.4853976400000004 8.5969713599999995 O
atom 2.5060573499999999 1.1795860800000000 2.8194453400000001 O
atom 2.7683337200000002 1.2205459800000000 8.1424193599999999 O
atom 2.6536186200000000 6.3647055300000002 2.9923349799999999 O
atom 2.7245560100000001 6.3281901300000003 8.2286213299999993 O
atom 3.0329700700000002 1.4329635900000000 0.2041750700000000 O
atom 2.7336910799999998 1.3140832600000001 5.5354233300000004 O
atom 2.7181617299999998 6.3086306499999996 0.4282524900000000 O
atom 2.6865103200000000 6.3616232600000000 5.6139528700000003 O
atom 2.1824561400000002 3.8013253200000001 3.0414732000000000 O
atom 2.2008573299999998 3.7614910699999999 8.2814537000000001 O
atom 2.0222771499999999 8.9873486000000007 2.9087371599999998 O
atom 2.1995397600000000 8.8499287700000000 8.1941837300000007 O
atom 2.1639426099999999 3.8090267999999998 0.4496523800000000 O
atom 2.1787646299999999 3.8376180199999999 5.6696567699999996 O
atom 2.3285052899999998 8.8730986900000008 0.3264013300000000 O
atom 2.1614172200000001 8.8890916900000008 5.5613341299999997 O
atom 5.3641442799999997 1.6913526100000000 1.6629838800000001 O
atom 5.3242932900000000 1.7338625100000000 6.8412588200000002 O
atom 5.2904422999999996 6.7800257500000001 1.6229143399999999 O
atom 5.3183002999999998 6.7872727800000003 6.8505406200000003 O
atom 5.2817775700000000 0.8236100700000000 4.2234381599999997 O
atom 5.4523675799999998 0.8341763900000000 9.4414717699999997 O
atom 5.2705212899999996 5.9201592900000000 4.2515634000000002 O
atom 5.2537763699999998 5.9586405400000002 9.4682462500000000 O
atom 9.4643314099999998 3.7667138699999998 1.6506483999999999 O
atom 9.6597538899999993 4.0722850700000004 7.0170549800000002 O
atom 9.7384620300000009 9.3254981099999998 1.6912858200000001 O
atom 9.6159892399999993 9.2358047200000009 6.8398437799999998 O
atom 9.6228937800000001 3.4259123200000001 4.3241221400000001 O
atom 9.5984468100000004 3.1838057700000002 9.7247356400000005 O
atom 9.5532271000000009 8.4266819599999998 4.2173415099999998 O
atom 9.6416399100000003 8.4631896399999995 9.4592603900000007 O
atom 7.9711875200000000 1.3373054700000000 10.0343999200000003 O
atom 7.7027375300000003 1.2271340100000001 4.6565469200000003 O
atom 7.7382469800000004 6.3619380600000000 9.8951024099999998 O
atom 7.6891075899999999 6.2930468499999996 4.6459776200000000 O
atom 7.9860829600000001 1.4983534500000000 1.9865512100000000 O
atom 7.7301391300000004 1.2795628500000000 7.3106194899999997 O
atom 7.7639855799999999 6.4060551500000003 2.0407470700000001 O
atom 7.7501180300000003 6.3146078499999998 7.3098287199999996 O
atom 7.1228899800000001 3.8489485399999999 9.8698211699999998 O
atom 7.1959524400000001 3.7516673500000000 4.7340933700000001 O
atom 7.2294447200000000 8.9154618699999997 9.8902436500000004 O
atom 7.1324845100000003 8.8337325000000000 4.6747837399999996 O
atom 6.9158045599999998 4.0089576700000000 2.2451539700000001 O
atom 7.2169835899999999 3.8268859599999998 7.2927931700000004 O
atom 7.2369484100000001 8.9653922099999992 2.0671462400000000 O
atom 7.1892281899999997 8.8886966899999997 7.2706919399999999 O
