lattice_vector 10.0426302700000001 0.0252800400000000 0.8201457300000000 
lattice_vector 0.0484223900000000 10.2245936400000001 -0.0004339300000000 
lattice_vector 0.8603807100000000 -0.0234360400000000 10.4172447199999993 
atom 1.3419767000000000 0.1290883900000000 1.8150332800000000 Si
atom 1.9229781600000000 0.1970927300000000 6.8084564900000002 Hf
atom 1.5596314400000000 5.3475092999999996 1.6370464700000000 Hf
atom 1.9897494200000001 5.3022366700000001 6.8336050100000003 Hf
atom 6.5377802999999997 0.2453021000000000 2.0438026200000001 Hf
atom 6.9653089799999997 0.2195392800000000 7.2589223900000004 Hf
atom 6.5491299999999999 5.3379602500000001 2.0334561700000000 Hf
atom 6.9935276599999998 5.3304846599999998 7.2653598900000000 Hf
atom 1.7222694100000000 2.3003379399999999 4.1512922699999999 Hf
atom 2.2212391600000001 2.2716484700000001 9.4307816800000008 Hf
atom 1.7598914000000001 7.4373728600000000 4.2488870199999997 Hf
atom 2.1722558799999998 7.4380911300000001 9.4333228200000008 Hf
atom 6.7726984600000000 2.3411359900000002 4.6410318600000000 Hf
atom 7.2151566300000001 2.3536012999999998 9.8747143099999999 Hf
atom 6.7829827500000004 7.4497790799999999 4.6470714400000004 Hf
atom 7.1858632699999996 7.4582151600000000 9.8834731999999992 Hf
atom 3.6964721699999998 2.7484235500000000 1.3396658900000000 Hf
atom 4.1510630300000004 2.7745621499999999 6.5652950900000002 Hf
atom 3.6850805300000000 7.9745778400000003 1.3928721100000001 Hf
atom 4.1851626199999998 7.8929035699999996 6.6116003699999997 Hf
atom 8.8516996700000004 2.7249231599999999 1.8252423900000001 Hf
atom 9.1852794699999993 2.7770724100000002 7.0037125299999996 Hf
atom 8.7893850499999999 7.9232928100000004 1.8041593600000001 Hf
atom 9.1843638500000004 7.8698546800000004 7.0257359099999999 Hf
atom 3.9596542000000001 4.8891589599999996 3.9736536700000000 Hf
atom 4.3846808299999998 4.9009087400000002 9.2016168700000005 Hf
atom 3.9491579300000001 9.9970349699999996 3.9456419899999999 Hf
atom 4.4032218500000004 10.0715624699999999 9.2162227500000000 Hf
atom 8.9705394999999992 4.9012237000000001 4.3926491499999996 Hf
atom 9.4262802600000004 4.8739990000000004 9.6431348799999999 Hf
atom 8.9815732300000004 9.9925397999999994 4.4200464899999998 Hf
atom 9.4244582999999995 10.0158451799999995 9.6046242799999995 Hf
atom 0.6086792500000000 1.4869039300000000 0.9049909300000000 O
atom 0.8389150200000000 1.6547620300000001 5.9740755600000002 O
atom 0.4548823600000000 6.8309383800000001 0.8556497199999999 O
atom 0.8777623600000000 6.7960919500000001 6.0735855499999998 O
atom 5.4585394200000001 1.7339451800000001 1.2614192099999999 O
atom 5.8819492699999998 1.7180593799999999 6.4589896900000001 O
atom 5.4442298100000004 6.8641931100000004 1.2753624400000001 O
atom 5.9066390699999998 6.8353631600000000 6.4669802699999996 O
atom 0.6561264200000000 0.7461324600000000 3.3594377899999999 O
atom 1.0558810700000001 0.8356350900000000 8.6231166399999992 O
atom 0.6713602300000000 5.9222073100000001 3.4702129700000000 O
atom 1.1056844500000000 5.9372824000000000 8.6785291200000003 O
atom 5.6277892899999999 0.8689767700000000 3.8443636200000002 O
atom 6.1388309699999999 0.8319554700000000 9.0802208600000007 O
atom 5.7019000100000001 5.9365271300000000 3.8757478800000000 O
atom 6.0955066300000000 5.9880394299999997 9.0587809099999994 O
atom 4.8311133499999999 4.2790786799999996 2.1593887800000000 O
atom 5.2621074500000002 4.2666000500000001 7.3769166000000004 O
atom 4.8698870699999999 9.3785586500000004 2.1831520499999999 O
atom 5.2804057799999997 9.3983031700000002 7.3753459499999998 O
atom 9.9094021100000003 4.2499611599999998 2.5950557299999999 O
atom 10.3128539099999994 4.2403212400000001 7.8190949900000000 O
atom 9.9827945299999996 9.4030806100000000 2.5987399999999998 O
atom 10.3002615800000008 9.3658825599999993 7.7938639900000002 O
atom 5.0573828799999996 3.4075816600000000 4.7685413099999998 O
atom 5.5564699099999997 3.4866556599999998 10.0113005499999996 O
atom 5.0513124600000001 8.5107680499999994 4.7569552899999996 O
atom 5.4156051500000002 8.5148385199999996 9.9967254099999998 O
atom 10.0506823199999999 3.3754350199999998 5.1584557000000002 O
atom 10.5532628400000004 3.3771043500000002 10.4648432699999994 O
atom 10.0670630299999999 8.4962756699999993 5.2018821700000002 O
atom 10.5101780599999994 8.5226793700000005 10.4080616199999998 O
atom 2.7940050099999998 1.1645587200000000 2.4883206800000002 O
atom 3.3875430600000001 1.2839647400000000 7.8300748799999997 O
atom 3.0106692000000002 6.4592055500000001 2.7361028900000002 O
atom 3.4344895200000001 6.4222326299999999 7.9315295600000004 O
atom 8.0222026000000000 1.3009648700000001 3.1501644899999999 O
atom 8.4587272400000000 1.3294723500000001 8.3454565299999999 O
atom 8.0435906599999996 6.4398966399999997 3.1385289500000000 O
atom 8.4672788099999998 6.4192057800000004 8.3764746500000005 O
atom 3.1966814800000001 1.2525891199999999 5.2234474500000001 O
atom 3.8621589500000000 1.4763444999999999 10.2876946199999999 O
atom 3.2364813300000002 6.3383211099999999 5.3397551600000002 O
atom 3.6477690500000000 6.4226747599999996 10.5403231399999999 O
atom 8.2340267600000008 1.2302972100000000 5.7445372299999997 O
atom 8.6875860700000000 1.2342576199999999 10.9726426799999999 O
atom 8.2476695000000007 6.3439783800000003 5.7553349899999997 O
atom 8.6745409299999992 6.3540699500000004 10.9631660699999998 O
atom 2.2744221800000002 3.9453559700000000 0.2730329500000000 O
atom 2.6795497300000002 3.8572295599999999 5.4642022800000003 O
atom 2.2409700600000000 9.3721890499999994 0.4913897000000000 O
atom 2.7199791900000001 8.9738117499999994 5.4970422399999999 O
atom 7.3580221999999997 3.8719473899999999 0.7302719900000000 O
atom 7.7223100999999996 3.8731594399999998 5.9117928500000003 O
atom 7.3043617599999999 9.0150909600000002 0.7061603400000001 O
atom 7.7239804899999998 8.9782527600000002 5.9144466299999996 O
atom 2.5102311899999998 3.7492179499999998 2.8769384699999998 O
atom 2.9329613700000001 3.7677920399999998 8.0955212900000006 O
atom 2.3917459800000000 8.9433816499999992 2.8883298200000000 O
atom 2.9372684200000001 8.8998752900000007 8.1500933599999996 O
atom 7.5424769300000003 3.7770881100000002 3.2925162499999998 O
atom 7.9536978100000004 3.8062339100000000 8.5286515000000005 O
atom 7.5697414700000003 8.9167453600000002 3.3026435799999998 O
atom 7.9456925900000002 8.9021863299999993 8.5254085400000008 O
