lattice_vector 9.9583009400000009 -0.0401971300000000 0.0877605900000000 
lattice_vector 0.0022628100000000 10.4064837099999998 -0.0208560100000000 
lattice_vector 0.0549901000000000 -0.0396750000000000 10.0296530100000005 
atom 1.1874699300000000 0.3436423700000000 1.0994350900000001 Si
atom 1.3861848999999999 0.1611436400000000 6.3255367800000002 Hf
atom 1.4091180500000000 5.2630994199999996 1.1779818399999999 Hf
atom 1.4330452800000000 5.3396358599999996 6.3153743000000002 Hf
atom 6.3066707800000001 0.1943854100000000 1.3319264700000000 Hf
atom 6.3189355899999997 0.1044136800000000 6.2807698800000002 Hf
atom 6.3183386900000000 5.3757561899999997 1.3032781300000000 Hf
atom 6.3448880499999998 5.3301565000000002 6.2897767199999999 Hf
atom 1.3690066999999999 2.2923808399999999 3.7032742100000000 Hf
atom 1.3596816599999999 2.4138178300000002 8.7615957000000009 Hf
atom 1.5056252699999999 7.6167468100000004 3.9704055199999999 Hf
atom 1.3432979700000001 7.6148520700000004 8.8282416000000001 Hf
atom 6.3636103899999998 2.3824333300000000 3.8441593200000002 Hf
atom 6.3559657400000003 2.3897204699999999 8.7806659899999993 Hf
atom 6.3193617800000004 7.6650459499999997 3.7974608999999999 Hf
atom 6.3297272600000003 7.5969538800000000 8.8060994499999996 Hf
atom 3.6996691199999998 2.7158837999999998 1.2118375600000000 Hf
atom 3.6902151600000002 2.7371406199999999 6.2535121900000004 Hf
atom 3.6381221600000000 7.9451400200000002 1.2978204099999999 Hf
atom 3.7135200400000001 7.9906176300000000 6.4090161200000004 Hf
atom 8.6073367399999992 2.7350174699999998 1.2573986900000000 Hf
atom 8.6574577999999995 2.6885285200000002 6.3274254900000004 Hf
atom 8.5876704900000007 8.0453997400000006 1.2339991100000001 Hf
atom 8.6786781899999994 7.9354712500000000 6.3309558199999998 Hf
atom 3.6867716200000000 4.9842946399999999 3.7642260799999998 Hf
atom 3.7263607599999999 5.0184085500000002 8.7676972099999997 Hf
atom 3.6504593500000002 10.1767388800000003 3.7397079099999999 Hf
atom 3.6219693899999998 10.2354265699999996 8.9065053600000006 Hf
atom 8.7166059899999997 5.0671498399999999 3.8365100800000000 La
atom 8.6561278399999999 4.9897097300000004 8.8088741699999993 Hf
atom 8.7289088499999998 10.2072892700000004 3.7834936799999999 Hf
atom 8.6691075899999994 10.2048402300000003 8.7920392500000002 Hf
atom 0.3553049200000000 1.7826166200000000 1.8165760900000001 O
atom 0.3652277600000000 1.8433717999999999 7.0299462300000002 O
atom 0.4135391900000000 7.1116180699999996 6.9888395299999999 O
atom 5.2503964400000003 1.8392115099999999 2.0848505099999999 O
atom 5.3817274499999996 1.8870294599999999 6.9815037100000001 O
atom 5.2536173799999997 7.0605354000000000 2.0586875600000001 O
atom 5.3452000699999997 7.0384762600000004 7.0687893900000001 O
atom 0.4293113700000000 0.5780442200000000 4.5129073200000001 O
atom 0.3844616100000000 0.6215409900000000 9.5902262900000004 O
atom 0.6335473800000000 5.8990790899999999 4.5626003199999996 O
atom 0.3908427400000000 5.8677336599999999 9.4877884399999992 O
atom 5.3595087799999996 0.6578136999999999 4.5091074600000001 O
atom 5.2944554600000000 0.7160023500000000 9.6170905599999994 O
atom 5.4176941100000002 5.8255764200000000 4.4220606499999997 O
atom 5.3678140299999999 5.8694381299999998 9.5420799699999996 O
atom 4.5917055700000002 4.4990738900000000 1.9029173900000000 O
atom 4.6512978900000004 4.4807987100000002 6.9825442700000000 O
atom 4.7153470899999999 9.6412944300000003 2.0195719900000002 O
atom 4.6798589499999999 9.7026082599999999 7.1124828300000003 O
atom 9.6775621100000002 4.3969605300000003 1.8075950999999999 O
atom 9.6432753499999997 4.4585610700000000 6.9828591199999996 O
atom 9.9097619800000007 9.6532145099999997 1.9093504900000000 O
atom 9.6566539200000001 9.6625909100000005 7.0317777799999996 O
atom 4.6481336400000002 3.2616897699999998 4.4598738100000004 O
atom 4.6689159299999998 3.2534202300000001 9.4724731599999998 O
atom 4.7289633200000001 8.5317674199999995 4.6385877600000001 O
atom 4.6037670500000001 8.4833611700000002 9.5122212099999999 O
atom 9.7083320499999992 3.0490830400000002 4.5748978200000003 O
atom 9.6079920699999999 3.1995262100000001 9.4413786500000008 O
atom 9.6442551999999999 8.3807989799999998 4.4667454500000003 O
atom 9.5919498799999996 8.4372862600000005 9.4685225099999997 O
atom 2.4221325199999999 0.8394658699999999 2.4053067700000001 O
atom 2.7504286599999999 1.2009737100000000 7.5522899800000003 O
atom 2.5099495500000000 6.2882299200000000 2.5538754400000001 O
atom 2.7247734900000000 6.4195014300000004 7.5919258899999997 O
atom 7.7078651899999997 1.1969832100000000 2.5344449099999999 O
atom 7.6762699400000001 1.1443724799999999 7.5485067199999998 O
atom 7.6598848300000002 6.5696621100000003 2.4252057100000002 O
atom 7.7057311000000004 6.3675382699999998 7.5584195699999999 O
atom 2.7481289400000000 1.3389806900000001 4.9744115200000003 O
atom 2.5891784800000002 1.3669312899999999 10.0933710100000003 O
atom 2.9238668099999998 6.5539973600000003 5.1034155700000001 O
atom 2.7187516800000000 6.5740319999999999 10.0605370799999996 O
atom 7.7438952700000003 1.2978958199999999 5.0420014999999996 O
atom 7.6821324400000002 1.3340720600000000 10.0383133900000008 O
atom 7.5477268999999998 6.6928588700000002 5.1397315099999998 O
atom 7.7061572700000003 6.5670716200000001 10.0305548699999996 O
atom 2.3434530699999998 3.9373680100000001 5.0060522499999998 O
atom 2.3670048900000000 3.9435916000000000 9.9708034100000003 O
atom 2.3577182799999998 9.1484138799999997 5.1489378800000001 O
atom 2.2221023299999998 9.3495695399999992 10.3018911600000003 O
atom 7.2013469299999997 3.8112729500000002 5.1438829100000003 O
atom 7.3083876999999999 3.9503165000000000 10.0446613500000002 O
atom 7.3787380999999996 9.2009960500000005 5.0208130899999999 O
atom 7.3044821200000003 9.1592993400000005 10.0590188299999994 O
atom 2.3412921799999999 3.6489714599999998 2.4622914699999998 O
atom 2.3404599600000000 3.7762076100000002 7.5173662700000001 O
atom 2.5381272199999998 8.7465757899999996 2.7247739499999999 O
atom 2.3138474699999998 9.0324679200000002 7.6626529300000001 O
atom 7.1935775399999997 3.7436160200000002 2.4637004999999998 O
atom 7.3158366199999998 3.7841369899999999 7.5770758799999998 O
atom 7.3536997700000004 9.0773580799999998 2.5136140999999999 O
atom 7.3067393599999999 8.9644092200000003 7.5468843899999998 O
