lattice_vector 9.8855064699999993 -0.0128888800000000 0.0120328900000000 
lattice_vector 0.0124616800000000 10.3911235400000006 -0.0795811400000000 
lattice_vector -0.0192722100000000 -0.1506028600000000 9.9609119899999996 
atom 1.1629917400000001 0.3958680500000000 1.1317591800000000 Si
atom 1.3230565700000001 0.0786732000000000 6.2982518599999997 Hf
atom 1.3257992500000000 5.3179222700000004 1.1780376699999999 Hf
atom 1.3148601099999999 5.2283126600000003 6.1311436400000003 Hf
atom 6.2466693500000003 0.1660107800000000 1.2445103000000000 Hf
atom 6.0973772999999998 0.0410558900000000 6.1483183500000003 Hf
atom 6.3069006200000004 5.3586638000000004 1.2139590000000000 Hf
atom 6.2694871900000004 5.2860258800000004 6.1489653600000000 Hf
atom 1.4001271600000000 2.3326244400000000 3.7481529199999999 Hf
atom 1.3319153500000001 2.3133257100000000 8.6696374499999997 Hf
atom 1.3551183800000000 7.5530647399999999 3.7125982999999998 Hf
atom 1.2581608399999999 7.4757815100000000 8.6825737499999995 Hf
atom 6.2939971300000002 2.3727120500000001 3.7212519600000000 Hf
atom 6.1697424800000000 2.3073528900000002 8.6123958399999996 Hf
atom 6.3312703199999998 7.6201274400000001 3.6754664099999999 Hf
atom 6.2428188300000000 7.5073986300000000 8.6827832800000007 Hf
atom 3.6813093900000000 2.7665138100000002 1.1609159800000000 Hf
atom 3.7521685499999999 2.8782951099999998 6.0128217700000004 Si
atom 3.6332752699999999 7.9012098300000000 1.2178588900000000 Hf
atom 3.6179960599999998 7.8845378000000004 6.2336380800000004 Hf
atom 8.5877516600000003 2.7093647999999999 1.1694831900000000 Hf
atom 8.5558594299999999 2.6529525600000001 6.1842860399999999 Hf
atom 8.6810331000000005 7.9838614200000002 1.1583795200000000 Hf
atom 8.5655822199999996 7.8903943500000002 6.1802589100000000 Hf
atom 3.6630501799999999 4.9857460600000003 3.6891609299999999 Hf
atom 3.6241034100000000 4.8849219799999997 8.5882286899999993 Hf
atom 3.6069176500000002 10.1408269099999995 3.6730255999999999 Hf
atom 3.4949634000000001 10.0796542500000008 8.8232760599999995 Hf
atom 8.5775833800000001 4.9546802999999997 3.6779739899999999 Hf
atom 8.5144342799999997 4.8850643399999996 8.6847948400000003 Hf
atom 8.6736172099999997 10.2062357400000003 3.6387091599999999 Hf
atom 8.5063881699999992 10.1339685599999996 8.6188070400000001 Hf
atom 0.3767295700000000 1.8388178200000000 1.8796122300000000 O
atom 0.2146542600000000 1.7468112400000000 7.0184520700000004 O
atom 0.3929373200000000 7.0743399100000000 1.8928853999999999 O
atom 0.3369035500000000 6.9835369900000002 6.8517496700000002 O
atom 5.2253287799999999 1.8623458300000000 2.0011418999999999 O
atom 4.9837608099999997 1.9028837599999999 6.7931968700000001 O
atom 5.3234363000000000 7.0803621500000000 1.9195468400000000 O
atom 5.2405860500000001 6.9345897100000000 6.9292943200000003 O
atom 0.4067291500000000 0.6743731100000000 4.5151035300000002 O
atom 0.2370150800000000 0.5705636600000000 9.6060459199999997 O
atom 0.3856582200000000 5.7857972699999998 4.3749765800000002 O
atom 0.2789626700000000 5.7690959099999999 9.3999894299999998 O
atom 5.3238337299999996 0.6332831600000000 4.3534803000000002 O
atom 5.1476618900000002 0.6444719000000000 9.4961818800000000 O
atom 5.3492866599999997 5.8477712400000001 4.3438727999999998 O
atom 5.2744613999999999 5.7319692800000004 9.3623224700000005 O
atom 4.6524793000000004 4.4626020300000002 1.9230871300000001 O
atom 4.5444026600000003 4.3651603200000002 6.7199594400000002 O
atom 4.6786483399999996 9.6370783099999997 1.9319242200000000 O
atom 4.5573173799999998 9.6067154899999991 6.9856511299999999 O
atom 9.5645193400000004 4.4282415500000001 1.9139706700000001 O
atom 9.5897948300000007 4.3520256499999999 6.9436219000000001 O
atom 9.8481930299999991 9.7517284199999992 1.8380487000000001 O
atom 9.5407529300000000 9.5924283100000007 6.8991317499999996 O
atom 4.6208166100000003 3.2112631600000001 4.5089110999999997 O
atom 4.5508653099999998 3.1770988700000000 9.3801201800000005 O
atom 4.7214518099999996 8.4870767100000002 4.5472741799999996 O
atom 4.5291942000000001 8.3457927400000003 9.3846896700000002 O
atom 9.6031157399999998 3.2180351900000002 4.4340254400000001 O
atom 9.5034424600000005 3.1559441499999998 9.3744873999999996 O
atom 9.5727054200000001 8.4425514699999997 4.3777331899999998 O
atom 9.4668646600000006 8.3648474200000003 9.2957151099999997 O
atom 2.3881912600000001 0.8477434100000000 2.5107895000000000 O
atom 2.4634008100000000 0.8982722300000000 7.6921264000000003 O
atom 2.6780520499999998 6.2380715400000000 2.4094265300000002 O
atom 2.6004303300000000 6.2096344999999999 7.4038709599999999 O
atom 7.6395095000000000 1.1672439900000000 2.4248925699999999 O
atom 7.4136712600000001 1.0675743200000001 7.3860203999999996 O
atom 7.6735368900000003 6.3693374699999996 2.4351653500000001 O
atom 7.6053367300000003 6.2875563600000000 7.4179714099999998 O
atom 2.7995973699999999 1.4977077700000001 5.1704834799999997 O
atom 2.4504561699999998 1.2668653500000000 10.1369199600000002 O
atom 2.7205185699999999 6.5202621599999997 4.9228762100000001 O
atom 2.6327300700000000 6.4623338300000004 9.8814221300000007 O
atom 7.6422818399999999 1.3192892500000000 4.9110271200000000 O
atom 7.5067415500000001 1.2718767700000000 9.8731048099999992 O
atom 7.6320314800000002 6.5200884900000000 4.9241396100000001 O
atom 7.5936575700000004 6.4634153899999998 9.9245049200000004 O
atom 2.3918972599999999 3.9072955100000000 4.9426843600000003 O
atom 2.2479919100000001 3.8888842900000000 9.8118335699999992 O
atom 2.3087001500000000 9.1344749400000005 5.0117791599999997 O
atom 2.1178765799999999 9.2265390299999996 10.1908126899999996 O
atom 7.2535471899999999 3.9162050800000001 4.9166055699999998 O
atom 7.1631286300000001 3.8267251799999999 9.8863042500000002 O
atom 7.2886111299999996 9.1571775500000001 4.8912004600000003 O
atom 7.1868801800000002 9.0707852500000001 9.8686965000000004 O
atom 2.3276175399999999 3.6678754599999999 2.4191012100000000 O
atom 2.5007367100000000 3.4112403200000001 7.2890550799999998 O
atom 2.5472953100000000 8.6999559000000009 2.6484430699999999 O
atom 2.2659350900000002 8.8038646400000005 7.5257995900000001 O
atom 7.2367108099999999 3.7492785700000000 2.4246832000000000 O
atom 7.1786681799999998 3.6888406300000001 7.3882733199999997 O
atom 7.3712383299999997 8.9812364799999997 2.3943531500000002 O
atom 7.1713619199999998 8.8641056400000000 7.3806494000000002 O
