lattice_vector 10.1051787799999993 0.0609196000000000 0.7150480299999999 
lattice_vector 0.0700632500000000 10.2502292199999996 -0.0063680000000000 
lattice_vector 0.8204293800000000 -0.0306696500000000 10.4766921499999999 
atom 1.3142556299999999 0.1390990900000000 1.7664345400000001 Si
atom 2.0230775200000002 0.1865707500000000 6.7765794100000001 Hf
atom 1.5196005900000000 5.4052720900000004 1.5996188099999999 Hf
atom 1.9660681700000000 5.2882339199999997 6.8435069700000000 Hf
atom 6.5159464199999997 0.2953269600000000 2.0166081999999999 Hf
atom 7.0129737499999996 0.2312101400000000 7.2209905599999997 Hf
atom 6.5131889400000000 5.3471776899999997 1.9915026899999999 Hf
atom 7.0425404499999997 5.3481392000000003 7.2587588800000002 Hf
atom 1.7164272100000000 2.2846972800000001 4.1433118699999998 Hf
atom 2.2443315099999999 2.3433549700000000 9.4318859499999999 Hf
atom 1.7668241400000000 7.4444888400000000 4.2364917799999997 Hf
atom 2.0355062300000002 7.6927417000000000 9.3830467199999994 La
atom 6.7959752399999998 2.3657626199999999 4.5990773300000001 Hf
atom 7.1507780900000002 2.4539884500000002 9.8911086099999999 Hf
atom 6.7943076299999996 7.4658863599999998 4.6645074800000002 Hf
atom 7.2043538099999997 7.5085376899999998 9.8564626200000003 Hf
atom 3.6592288700000002 2.7840060800000002 1.3172637899999999 Hf
atom 4.2137507899999997 2.8292002699999999 6.5499047499999996 Hf
atom 3.7067305600000000 8.0026993399999995 1.3407215900000000 Hf
atom 4.2422794000000001 7.9225194400000003 6.5742567300000001 Hf
atom 8.8913052300000004 2.7656474100000001 1.7634266999999999 Hf
atom 9.2260056299999995 2.7943234499999998 6.9404633300000000 Hf
atom 8.6946985699999999 7.8481326700000000 1.9329349199999999 Hf
atom 9.2664612099999992 7.9014306999999997 6.9799968000000003 Hf
atom 3.9420057499999999 4.9115480800000002 3.9569008200000000 Hf
atom 4.3566084600000003 4.9970384699999997 9.2125895900000003 Hf
atom 3.9645800000000002 10.0192467199999999 3.8930676700000002 Hf
atom 4.4885747000000000 10.1706985599999999 9.1781052400000007 Hf
atom 9.0344350799999997 4.9116162200000000 4.3491021099999996 Hf
atom 9.4549971199999998 4.8937156300000000 9.6016952500000006 Hf
atom 9.0418687200000001 10.0566241699999992 4.3536682500000001 Hf
atom 9.5514741799999996 10.1924404600000003 9.6662762000000004 La
atom 0.5811785900000001 1.4844672000000001 0.8664609100000000 O
atom 0.7920738200000000 1.5623909499999999 5.9803926399999998 O
atom 0.3015450200000000 6.8319994199999998 0.8884861500000000 O
atom 0.8490658700000000 6.7125491500000001 6.0173524399999998 O
atom 5.3755042499999997 1.7294108600000000 1.1995049000000000 O
atom 5.9264706599999997 1.7345833200000000 6.4014120200000004 O
atom 5.4790058300000002 6.8823243200000004 1.1984001700000000 O
atom 5.9490632999999997 6.8427683699999999 6.4430488300000004 O
atom 0.6296248200000000 0.7251322800000000 3.3116854899999999 O
atom 1.3942693500000001 0.7118186900000000 8.6832305800000000 O
atom 0.6378548100000000 5.9532208000000004 3.4497400400000000 O
atom 1.0492715600000000 5.8367034100000001 8.6622675200000003 O
atom 5.6218437999999997 0.9116969800000000 3.7875386199999999 O
atom 6.1816095999999998 0.8849865200000000 9.0565595499999993 O
atom 5.6768173700000002 5.9906603599999997 3.8305290500000000 O
atom 6.1051099999999998 6.0559870399999998 9.0379370600000009 O
atom 4.8291593900000001 4.2845270099999997 2.1476048400000001 O
atom 5.3066718499999999 4.2877783599999999 7.4050273899999999 O
atom 4.9128830800000003 9.3848069100000000 2.1600993599999998 O
atom 5.4237848199999998 9.4031294600000006 7.3590605599999996 O
atom 9.9427645800000004 4.3005762699999996 2.5064312900000001 O
atom 10.3555159799999998 4.2079728500000000 7.7547588699999999 O
atom 9.9982791199999994 9.4434451700000004 2.3607297400000000 O
atom 10.6186926699999997 9.1465032100000005 7.8536112700000000 O
atom 5.0917575399999997 3.4595648500000000 4.7445419600000003 O
atom 5.5151825700000003 3.5811975800000000 10.0654857000000000 O
atom 5.1100865200000003 8.5780932399999994 4.7489539000000001 O
atom 5.4356745799999997 8.5890045500000003 10.0232814200000000 O
atom 10.1065750800000007 3.3881842099999999 5.0822627499999999 O
atom 10.5154571299999997 3.2994020499999999 10.3921097499999995 O
atom 10.1529687899999992 8.5793777400000000 5.1362481500000001 O
atom 2.7687121800000001 1.1857926599999999 2.4672056800000002 O
atom 3.5087785999999999 1.3493976500000000 7.7629134100000003 O
atom 2.9952803299999999 6.4783110300000004 2.7040386800000000 O
atom 3.4526408900000001 6.4376627600000003 7.8651168000000000 O
atom 8.0455039599999996 1.3192545600000001 3.1069270900000001 O
atom 8.4386039400000001 1.4356635499999999 8.2871583100000006 O
atom 8.0017671400000001 6.4312931000000004 3.1520126899999998 O
atom 8.5156217900000009 6.4395456500000003 8.3504615199999996 O
atom 3.1983653300000001 1.2498953200000000 5.1839757200000003 O
atom 3.8507593600000001 1.5239737000000000 10.2839803500000002 O
atom 3.2413838899999998 6.3554534100000000 5.3112851599999997 O
atom 3.6177756599999999 6.4455985399999998 10.5981020000000008 O
atom 8.2729816100000004 1.2389988400000000 5.6762798800000001 O
atom 8.5128007500000002 1.3981807900000001 11.0946162800000003 O
atom 8.3028530099999998 6.3607588499999999 5.7241023999999996 O
atom 8.7266172399999995 6.4394755000000004 10.9532625600000006 O
atom 2.2511195300000000 3.9909781500000001 0.2421704500000000 O
atom 2.6815395000000000 3.8466536499999999 5.4612908100000004 O
atom 2.2889693800000002 9.4741138500000002 0.4727656300000000 O
atom 2.7645816900000000 8.9808790399999996 5.4288362000000001 O
atom 7.3953070500000004 3.9720645200000000 0.6738137100000000 O
atom 7.7695746000000003 3.8925327900000002 5.8766971699999999 O
atom 7.4242867199999996 8.9809498699999999 0.7593039700000001 O
atom 7.8274247800000003 9.0184357399999993 5.8833723100000004 O
atom 2.4830574500000000 3.7659931200000001 2.8697607800000000 O
atom 2.9588108800000001 3.8063636999999999 8.1095714000000001 O
atom 2.4071711699999998 8.9559677299999993 2.8459048999999998 O
atom 3.1669122500000002 9.0453662399999999 7.9894948599999998 O
atom 7.5817661000000003 3.8064581199999998 3.2539701800000000 O
atom 7.9622405100000000 3.8564500900000001 8.5194333800000006 O
atom 7.5951127100000004 8.9505626100000004 3.3393348000000000 O
atom 7.9843795699999998 8.8884717299999991 8.4526330999999999 O
