lattice_vector 10.1016992000000005 -0.0102667800000000 0.8207388900000000 
lattice_vector 0.0073222600000000 10.3152340400000000 -0.0114867200000000 
lattice_vector 0.8363678600000000 -0.0179008900000000 10.3907809400000009 
atom 1.4777075900000001 0.0393736100000000 1.5086145900000001 La
atom 1.9357501500000001 0.2157334100000000 6.8348106499999997 Hf
atom 1.5227977399999999 5.3760444600000001 1.6179606700000000 Hf
atom 1.9534695000000000 5.3424624500000002 6.7985018400000001 Hf
atom 6.5867589000000004 0.2058050900000000 2.0500964000000002 Hf
atom 7.0334905799999996 0.2210519600000000 7.2141613500000004 Hf
atom 6.5860081199999998 5.3226700300000003 2.0513776699999999 Hf
atom 6.9950411299999997 5.3551102999999998 7.2211229200000000 Hf
atom 1.7284942900000000 2.3135078999999998 4.1993303700000002 Hf
atom 2.1461008900000000 2.3827632200000002 9.4007866599999996 Hf
atom 1.7452673500000000 7.4808681000000004 4.2418928300000003 Hf
atom 2.1306617000000001 7.4468116699999998 9.3809039999999992 Hf
atom 6.7801963299999999 2.3554653399999999 4.6355338000000001 Hf
atom 7.2274121600000001 2.3556210800000001 9.8416656699999994 Hf
atom 6.7569635899999998 7.4845709200000003 4.6348541699999997 Hf
atom 7.2005954299999999 7.5109451500000004 9.8012873099999993 Hf
atom 3.7294609500000000 2.7626406399999999 1.3678952499999999 Hf
atom 4.1550529899999997 2.7776049299999999 6.5544635900000001 Hf
atom 3.8399452400000000 7.8708418099999999 1.4233619300000000 Hf
atom 4.1609904100000001 7.9391242699999998 6.5823679300000002 Hf
atom 8.8035502200000000 2.7964132199999998 1.7810359200000001 Hf
atom 9.2239547999999996 2.7859795300000001 6.9762574700000002 Hf
atom 8.7272283599999998 7.9142339300000000 1.7882423599999999 Hf
atom 9.2185388499999998 7.9345914500000001 6.9680276599999997 Hf
atom 3.9302835800000002 4.9000595799999997 3.9582190200000000 Hf
atom 4.3842496000000004 4.9185264999999996 9.1616423699999991 Hf
atom 3.9652117100000002 10.0889231000000006 3.9769798299999999 Hf
atom 4.4670812000000000 10.1373192900000006 9.0895104300000007 Hf
atom 9.0068309899999992 4.9272128799999999 4.3878670099999999 Hf
atom 9.3947052000000006 4.9157138500000004 9.5626927199999994 Hf
atom 8.9529295700000002 10.0790119199999992 4.3995049399999999 Hf
atom 9.4301617800000006 10.0766861500000005 9.5860598400000008 Hf
atom 0.4827769600000000 1.9699793299999999 0.8641228399999999 O
atom 0.8763246500000000 1.7743110499999999 6.1053704099999999 O
atom 0.5062829900000000 7.0537473100000003 0.9246415000000000 O
atom 0.8681792800000000 6.9147308499999998 6.0920519500000001 O
atom 5.5013211699999998 1.7485008099999999 1.2737875500000000 O
atom 5.9060926000000000 1.7461635600000001 6.4826055900000004 O
atom 5.5463050899999997 6.8981715799999996 1.2832740700000000 O
atom 5.9000124800000000 6.8961267700000004 6.4898823500000002 O
atom 0.5841472200000000 0.7898443900000000 3.5767209700000002 O
atom 1.0954980599999999 0.7796708999999999 8.7168730300000004 O
atom 0.6652308100000000 5.9521952200000001 3.4795986499999998 O
atom 1.0701882700000001 5.9347587400000004 8.6784607800000000 O
atom 5.7114873599999996 0.7894343200000000 3.8992978400000000 O
atom 6.1887422299999999 0.8030030000000000 9.0533883999999993 O
atom 5.6826886600000002 5.9465922600000001 3.8706341399999999 O
atom 6.1183300200000001 5.9695356600000000 9.0714828099999991 O
atom 4.8299883100000001 4.3040533300000003 2.1276515699999998 O
atom 5.2447199199999996 4.3208733199999996 7.3236979800000004 O
atom 4.8233224000000003 9.5079582200000008 2.1027940599999999 O
atom 5.2751140799999998 9.4922591799999996 7.2829454299999998 O
atom 9.8296825900000009 4.4241736999999999 2.4934414500000002 O
atom 10.2776384800000002 4.3534198000000002 7.7095067300000002 O
atom 9.5357790100000006 9.5697223900000008 2.5052112100000001 O
atom 10.2970611800000000 9.4751175300000003 7.7450602999999996 O
atom 5.0278485200000000 3.3720996500000000 4.7213535699999998 O
atom 5.4806312799999999 3.3899767600000001 9.9171164100000002 O
atom 5.0120798899999999 8.5173587099999999 4.7406578200000000 O
atom 5.3965208999999996 8.5361279200000002 9.9403759199999993 O
atom 10.0785163099999995 3.3719867799999999 5.1214806900000003 O
atom 10.4667968600000005 3.3664635999999999 10.2664223000000003 O
atom 10.0875270300000004 8.5181665800000008 5.1092948600000003 O
atom 10.5443728500000002 8.5561506999999999 10.3670173499999994 O
atom 3.0624080299999998 1.3589917000000000 2.7801165499999998 O
atom 3.4127246599999999 1.3255641000000000 7.8857192600000001 O
atom 3.0138971899999998 6.4116574999999996 2.7163365300000000 O
atom 3.4065693800000001 6.4629357399999998 7.9053430400000000 O
atom 8.0226256899999999 1.3554282099999999 3.1559413400000000 O
atom 8.5042357299999995 1.3239049199999999 8.3364697299999992 O
atom 8.0361165200000002 6.4666589900000000 3.1395472199999999 O
atom 8.4586761599999996 6.4855372200000003 8.3212934099999991 O
atom 3.1927601100000000 1.2194843700000000 5.3323036699999999 O
atom 3.7076340200000000 1.2568037400000001 10.4002603600000008 O
atom 3.2088844999999999 6.3732810300000002 5.3248555800000004 O
atom 3.6235268899999999 6.4266618900000001 10.5100762900000007 O
atom 8.2393634500000008 1.2431362900000000 5.7492631100000002 O
atom 8.6894415400000007 1.2198751100000000 10.9423402999999997 O
atom 8.2527301600000005 6.3832092899999999 5.7323845200000001 O
atom 8.6686898800000005 6.3778374500000004 10.9046163400000005 O
atom 2.2924641800000001 3.9486586799999999 0.2511263800000000 O
atom 2.6792135300000002 3.8905589799999998 5.4527419699999999 O
atom 2.6847307699999998 9.0517044500000008 5.5196650500000004 O
atom 7.3220816700000002 3.9104473500000001 0.6790592400000000 O
atom 7.7371934600000003 3.8994092899999999 5.8804663300000000 O
atom 7.3073452100000003 9.0538587600000007 0.6582187400000000 O
atom 7.7443576900000002 9.0486465400000000 5.8831514599999997 O
atom 2.4475885800000001 3.8093553899999999 2.8441721499999999 O
atom 2.8996692099999999 3.8213549900000001 8.0495804399999997 O
atom 2.6032018899999998 8.8335410900000007 2.9254313700000001 O
atom 2.9300851300000001 8.9708872000000000 8.1714060899999996 O
atom 7.5312140999999997 3.8215446900000001 3.2908517399999999 O
atom 7.9435455800000003 3.8099476999999999 8.4701229300000005 O
atom 7.3889060400000002 8.9272241099999992 3.3012334299999999 O
atom 7.9525697299999996 8.9667536000000005 8.4702328999999992 O
