lattice_vector 10.0328411299999996 -0.0046062600000000 -0.1117931600000000 
lattice_vector 0.0413083900000000 10.2631178700000003 0.0876870600000000 
lattice_vector -0.0522297800000000 -0.0038046600000000 10.4405622699999991 
atom 1.0280484999999999 0.2993140400000000 2.2027166899999999 Si
atom 1.3047967300000001 0.2740511000000000 7.0216343500000002 Hf
atom 1.4250046400000000 5.3245269000000004 1.7875703400000000 Hf
atom 1.3708906700000001 5.3539425899999999 7.0532635199999998 Hf
atom 1.3528531500000001 2.4278699399999999 4.4114602800000000 Hf
atom 1.4633189600000001 2.2722939100000001 9.6724290100000001 Hf
atom 1.3732137700000000 7.6440822900000001 4.3216879099999996 La
atom 1.4133511500000000 7.4856220899999997 9.6114290699999998 Hf
atom 3.6040511700000000 2.7607999799999998 1.7426763300000001 Hf
atom 3.6007706300000000 2.7882948700000001 6.9914160100000000 Hf
atom 3.6340402699999999 7.9424144300000004 1.6731495800000000 Hf
atom 3.7057254400000001 7.8457071000000003 7.0334600900000002 Hf
atom 3.6058255600000000 4.9460866499999998 4.3820407100000001 Hf
atom 3.6086563200000001 4.8881468500000000 9.6218119000000009 Hf
atom 3.6615839999999999 10.1827986599999996 4.2657951299999999 Hf
atom 3.6603168400000001 10.0516114800000000 9.6105475499999997 Hf
atom 6.4275273300000002 0.2320935400000000 0.7421495299999999 Hf
atom 6.2946074599999999 0.1873852900000000 6.0069596000000001 Hf
atom 6.4430875099999998 5.3490545000000003 0.8030411300000000 Hf
atom 6.4089135600000002 5.3173083400000003 6.0362519499999996 Hf
atom 6.3957577700000003 2.4085613299999999 3.3711031600000001 Hf
atom 6.4054767300000002 2.3478284800000000 8.6104388299999997 Hf
atom 6.3570338000000000 7.4817012399999996 3.4246621600000000 Hf
atom 6.4504671900000004 7.4542023400000001 8.6952452099999995 Hf
atom 8.7194624399999991 2.7294998900000000 0.7965158800000000 Hf
atom 8.5933761299999993 2.7718296100000002 5.9957315900000001 Hf
atom 8.7427091699999995 7.9385535999999997 0.8384437100000000 Hf
atom 8.5832157299999992 7.8735945799999998 6.0832179300000000 Hf
atom 8.6365596599999996 4.9324757600000000 3.3785838300000002 Hf
atom 8.6784531400000002 4.8585438800000000 8.6582939000000003 Hf
atom 8.4943379300000004 10.0524355199999995 3.5078738999999999 Hf
atom 8.6465825100000000 10.0409903099999998 8.6584932499999994 Hf
atom 0.5644780700000001 1.5157870600000001 1.0957485899999999 O
atom 0.3037532500000000 1.7768370499999999 6.1425332399999997 O
atom 0.4406752900000000 6.9296340299999999 0.9993359200000000 O
atom 0.2768575100000000 6.8620233700000002 6.3215553499999997 O
atom 0.2826813800000000 0.7634059800000000 3.6354084699999998 O
atom 0.3285807500000000 0.8240690300000000 8.7484362200000003 O
atom 0.3591625700000000 5.8299026400000002 3.5319200799999999 O
atom 0.3758413300000000 5.8726151299999998 8.8563006899999994 O
atom 4.7153739899999998 4.2671532299999999 0.8664436500000000 O
atom 4.6681001799999997 4.2717193900000003 6.0852105400000003 O
atom 4.7854358899999996 9.4171913099999998 0.8779319300000000 O
atom 4.5162263300000003 9.4341779900000002 6.0604801500000001 O
atom 4.6583866599999997 3.4168198599999999 3.4816521900000001 O
atom 4.6806765400000003 3.4113974400000000 8.6688098900000004 O
atom 4.5504364900000001 8.5359563999999999 3.4778547400000002 O
atom 4.7261393199999997 8.5373130400000008 8.7114451499999994 O
atom 2.5313567699999999 1.3634876199999999 2.9655671600000000 O
atom 2.7347442700000002 1.2582535900000000 8.2210977300000003 O
atom 2.8712022400000001 6.3733491500000001 2.9620392199999999 O
atom 2.7809738799999999 6.3789536299999998 8.3141321000000001 O
atom 3.0441774300000000 1.4082088600000000 0.2848751400000000 O
atom 2.6943755399999998 1.2310297900000000 5.6060426200000002 O
atom 2.7977361400000000 6.3732278100000004 0.4336915900000000 O
atom 2.8237467600000001 6.4110781200000000 5.7602921499999997 O
atom 2.2369875700000001 3.8651532799999999 3.1013137700000000 O
atom 2.2364185100000000 3.7940643500000002 8.3237301400000003 O
atom 2.2199601800000002 9.3358251400000007 2.7496468400000000 O
atom 2.2457630700000002 8.9271070300000002 8.1293457599999996 O
atom 2.2476364300000000 3.8534878300000002 0.4826968800000000 O
atom 2.2140645100000000 3.8599316899999998 5.6970034399999996 O
atom 2.4449260300000000 8.8954327299999996 0.2567297100000000 O
atom 5.3627371600000000 1.7039971500000000 1.6946691199999999 O
atom 5.3000193500000004 1.6998130800000000 6.8959656899999997 O
atom 5.3890570799999997 6.8796058400000000 1.6676152000000000 O
atom 5.4232396400000003 6.8433753800000003 6.9465730399999996 O
atom 5.3155452700000003 0.8896391400000000 4.2550442300000002 O
atom 5.4023135099999999 0.8174326200000001 9.4547917199999993 O
atom 5.3473510099999997 5.9837883600000001 4.3189846999999997 O
atom 5.3635798100000001 5.9518748900000000 9.5289662499999999 O
atom 9.6979303399999992 4.2631225800000001 1.6206041899999999 O
atom 9.6706905699999997 4.2532567600000002 6.9037080499999997 O
atom 9.8023261900000005 9.4824873800000002 1.8125314500000000 O
atom 9.6719808300000008 9.4342988200000004 6.8917880000000000 O
atom 9.6008230999999995 3.3383252899999998 4.2214724600000002 O
atom 9.7163827999999999 3.2960979600000000 9.5572942300000001 O
atom 9.3865800200000002 8.5079729299999993 4.3311260200000001 O
atom 9.6917300599999994 8.5212333699999991 9.5191287800000008 O
atom 7.8195265899999997 1.2466560200000001 9.9213708900000004 O
atom 7.6990286299999999 1.2524927900000000 4.7273449599999999 O
atom 7.8259161400000004 6.3853846699999997 10.0054124000000009 O
atom 7.7604997899999999 6.3912660700000004 4.7575429800000002 O
atom 7.7997917399999999 1.3110594799999999 2.0928698799999998 O
atom 7.7376347100000000 1.2742437700000000 7.2985386900000000 O
atom 7.8023952300000001 6.4498508699999997 2.1412178000000002 O
atom 7.7921382499999998 6.3742298399999999 7.4077850600000001 O
atom 7.2836296300000001 3.7989139600000001 9.9657457899999997 O
atom 7.2339575600000003 3.8445051700000001 4.7235141499999997 O
atom 7.2969210899999997 8.9584388399999995 9.9993590500000007 O
atom 7.0499371300000000 8.9666594899999996 4.7799087699999996 O
atom 7.2849185099999998 3.8499764700000001 2.0959058800000001 O
atom 7.2538070599999998 3.8355968100000002 7.3390416399999996 O
atom 7.3067260899999997 9.0024284100000003 2.1559234799999998 O
atom 7.2437528499999999 8.9797525399999998 7.3899171900000002 O
