lattice_vector 10.0621210800000007 0.0286474400000000 -0.0357215700000000 
lattice_vector 0.0570580500000000 10.1767108099999994 0.0331497900000000 
lattice_vector -0.0487993400000000 -0.0201994600000000 10.5088720299999991 
atom 1.0696767100000000 -0.0534980100000000 1.7760229700000001 Si
atom 1.3687745200000001 0.1597301100000000 7.0087286100000004 Hf
atom 1.4149974599999999 5.3387326100000001 1.8236227400000000 Hf
atom 1.4090450400000001 5.3114079800000003 7.0977214799999997 Hf
atom 1.4652131399999999 2.2583200099999998 4.2906960500000002 Hf
atom 1.4074979400000001 2.2723003099999999 9.6742222499999997 Hf
atom 1.4138288400000001 7.4283244799999997 4.4589364299999996 Hf
atom 1.3535548200000000 7.4427200100000004 9.7234125200000001 Hf
atom 3.6079814099999998 2.7693392299999999 1.7560890400000000 Hf
atom 3.5951800500000002 2.7775369099999998 7.0437841800000003 Hf
atom 3.6254797399999998 7.9443045200000002 1.8391719000000000 Hf
atom 3.6375688600000000 7.8206350799999997 7.1025588700000002 Hf
atom 3.6288179700000001 4.8963698100000004 4.4418966800000002 Hf
atom 3.6032080400000002 4.8768739600000002 9.7055275600000002 Hf
atom 3.6700529799999999 10.0316293299999995 4.4113496500000000 Hf
atom 3.6417374200000001 10.0164070600000006 9.7269628400000006 Hf
atom 6.4225070200000003 0.2344080300000000 0.8195235000000000 Hf
atom 6.2792426700000004 0.1489452100000000 6.1602161100000004 Hf
atom 6.4262755900000004 5.3162792799999998 0.8425225700000000 Hf
atom 6.4412842299999999 5.2864854000000001 6.0876101399999998 Hf
atom 6.3655653699999997 2.4174502300000000 3.4087986600000000 Hf
atom 6.3626771199999999 2.3517696099999998 8.7434550400000006 Hf
atom 6.4284655700000002 7.4260476700000000 3.4661731699999998 Hf
atom 6.4118835699999996 7.4038107399999999 8.7119339399999998 Hf
atom 8.7316063499999998 2.7325895000000000 0.8504371900000000 Hf
atom 8.7667278399999997 2.6148893100000001 6.1591848599999999 La
atom 8.6542128599999995 7.8210113300000002 0.8123184900000000 Hf
atom 8.6821125200000004 7.8445007999999996 6.0992511299999999 Hf
atom 8.7078897899999994 4.8578512900000002 3.4445015099999998 Hf
atom 8.6689369599999999 4.8763237100000003 8.7533109899999992 Hf
atom 8.7576417899999992 9.9415571099999998 3.4372931499999999 Hf
atom 8.6777184399999996 9.9636735200000004 8.7201400600000003 Hf
atom 0.5264841500000000 1.2835411699999999 0.7689609100000000 O
atom 0.3455032400000000 1.1700661299999999 5.6341423900000001 O
atom 0.3278351800000000 6.7436024699999999 0.8686258200000000 O
atom 0.3464051700000000 6.7343000799999997 6.1152978300000003 O
atom 0.4597589600000000 0.7929344699999999 3.1559930700000001 O
atom 0.1756313000000000 1.0638299300000000 8.4802634300000008 O
atom 0.3249188900000000 5.9985746700000000 3.4928951300000000 O
atom 0.3169385700000000 6.0284699599999998 8.7928322899999998 O
atom 4.7036585500000001 4.2674145100000000 0.8851905400000000 O
atom 4.6885182399999996 4.2244771400000003 6.1131017300000003 O
atom 4.7323881400000003 9.3230802399999995 0.8695102300000001 O
atom 4.6815440900000000 9.2892741999999995 6.1465372800000004 O
atom 4.7174462300000002 3.4908338900000002 3.4622064199999998 O
atom 4.6491059100000003 3.4224950399999998 8.7702655000000007 O
atom 4.7092216999999996 8.5563712200000008 3.5104855599999998 O
atom 4.7175683599999996 8.5242094599999998 8.7487138899999994 O
atom 2.9280330900000000 1.3242372300000000 3.0967503700000001 O
atom 2.6968890000000001 1.2199301700000000 8.2814028799999999 O
atom 2.7864701400000000 6.4217063500000000 3.1255155700000001 O
atom 2.7720493199999998 6.3457409000000000 8.3871598600000006 O
atom 3.0459017600000000 1.5283757300000000 0.2499214000000000 O
atom 2.8189141900000001 1.3079822800000001 5.7065966000000001 O
atom 2.8080137700000001 6.5217113099999997 0.4916001600000000 O
atom 2.7893236799999999 6.3696033200000004 5.7538353700000000 O
atom 2.2876772299999999 3.8527648000000001 3.0749373300000000 O
atom 2.2353283400000001 3.7967272300000001 8.3667174800000002 O
atom 2.1799148900000000 9.0288134800000002 3.0349856100000001 O
atom 2.2599527699999999 8.8766190199999997 8.4268478899999995 O
atom 2.2196321900000000 3.9197164400000002 0.4609417700000000 O
atom 2.2137334200000001 3.8082648500000000 5.7070879400000001 O
atom 2.1304956700000002 9.2283988800000003 0.6220406800000000 O
atom 2.3067072700000000 8.9045417499999999 5.7200133500000003 O
atom 5.3951330799999999 1.7234312599999999 1.7135525400000000 O
atom 5.2865091900000003 1.6978230000000001 7.0235716799999999 O
atom 5.3652355900000002 6.8077985999999999 1.7967058800000000 O
atom 5.3560590599999998 6.7426730700000004 7.0327105500000000 O
atom 5.4569470000000004 0.8885408900000000 4.4017473999999996 O
atom 5.3578434399999999 0.8253477600000000 9.6163985600000004 O
atom 5.3489140199999996 6.0078022700000000 4.4148007900000001 O
atom 5.3386645799999997 5.9581490500000003 9.6668900499999992 O
atom 9.7940533900000002 4.2038038599999998 1.7432228599999999 O
atom 9.7831007700000008 4.3017066599999998 7.1359052500000004 O
atom 9.8079179300000003 9.2139395499999992 1.7943816100000001 O
atom 9.7800935199999994 9.2130067100000002 7.1182942200000001 O
atom 9.8402606099999996 3.4118952700000000 4.2331523100000004 O
atom 9.7384685300000005 3.3969332400000001 9.7270338899999995 O
atom 9.7847310000000007 8.5582490500000006 4.4386921800000003 O
atom 9.7364493200000002 8.5891044300000008 9.7359805999999995 O
atom 7.7986715200000001 1.2358118199999999 10.1006579599999995 O
atom 7.7856453700000001 6.3365609899999997 10.0486288500000001 O
atom 7.8119763999999998 6.3778139899999999 4.7823183000000000 O
atom 7.8416221699999999 1.3010938299999999 2.2401147300000002 O
atom 7.5733744200000004 1.1420296500000000 7.5089295199999997 O
atom 7.8060966000000001 6.3766719199999997 2.1619331200000000 O
atom 7.8279104400000001 6.3689424700000004 7.4156559499999997 O
atom 7.2972252199999996 3.7699478000000002 10.1056302099999993 O
atom 7.2568605100000001 3.8208860699999998 4.7161755100000002 O
atom 7.2623125200000000 8.8730014100000005 10.0544917500000004 O
atom 7.3522373800000000 9.0092870499999993 4.8032685900000001 O
atom 7.3443981899999997 3.8295632400000001 2.1240587400000002 O
atom 7.1931171799999998 3.9070320700000001 7.5384123699999996 O
atom 7.3689131000000003 8.9345432200000001 2.1791442499999998 O
atom 7.3093500999999996 8.8588787100000008 7.4275428300000002 O
