lattice_vector 10.0255313899999994 -0.0181508700000000 -0.0203472100000000 
lattice_vector -0.0165957200000000 10.4715721599999991 0.0189044900000000 
lattice_vector -0.0306233500000000 -0.0248298700000000 10.0231889899999995 
atom 1.1126747100000001 0.3572680200000000 1.1753228400000000 Si
atom 1.3433449000000000 0.1791703500000000 6.3149964199999999 Hf
atom 1.1952187599999999 5.2351015399999996 1.2433157100000001 La
atom 1.3417800200000001 5.3656805299999997 6.2147188699999996 Hf
atom 6.3471774200000004 0.1869049500000000 1.2702014800000001 Hf
atom 6.2946139900000002 0.0944883900000000 6.2196408500000002 Hf
atom 6.3890534800000003 5.4108100500000003 1.2689024700000000 Hf
atom 6.3841588399999996 5.4024705900000001 6.2155457900000002 Hf
atom 1.3095456000000001 2.3565816200000000 3.6702116600000001 Hf
atom 1.3373925799999999 2.4996098099999999 8.7661544199999994 Hf
atom 1.2942124900000000 7.6515843400000003 3.8203501900000001 Hf
atom 1.1785624699999999 7.9027322900000003 8.7908648199999995 La
atom 6.3179141599999999 2.3976456300000000 3.7810243500000000 Hf
atom 6.3723477300000004 2.3685199600000000 8.6760609800000008 Hf
atom 6.3566418400000000 7.6892958699999996 3.7917713399999999 Hf
atom 6.2421997600000001 7.6990501099999999 8.7818132299999991 Hf
atom 3.8174569100000002 2.8387983299999999 1.0879690300000000 Hf
atom 3.6578845499999999 2.7276159600000001 6.1594315699999997 Hf
atom 3.7791566200000002 8.1031392899999997 1.4120767800000000 Hf
atom 3.6623645100000002 8.0417022899999999 6.3136227500000004 Hf
atom 8.5918013999999996 2.7594638800000002 1.2402956800000000 Hf
atom 8.6919777099999997 2.7097358200000001 6.2237783499999999 Hf
atom 8.6462843800000009 8.0192015300000001 1.3098362800000001 Hf
atom 8.6684292000000003 8.0250164500000007 6.2394153100000000 Hf
atom 3.6851606900000000 5.0362417400000004 3.6911071899999999 Hf
atom 3.8149680600000000 4.9739825199999999 8.5205181700000008 Hf
atom 3.5434135699999998 10.2533787400000005 3.7716565300000000 Hf
atom 3.5493888700000000 10.3696293799999992 8.9146540099999996 Hf
atom 8.6390269199999992 4.9843795699999998 3.8060611799999999 Hf
atom 8.6180842099999992 5.0233683100000004 8.7061892699999994 Hf
atom 8.7190112200000005 10.3191036500000006 3.7385898800000001 Hf
atom 8.5847042099999999 10.2803194700000002 8.8087822899999999 Hf
atom 0.3356548500000000 1.8874271300000001 1.8287440600000000 O
atom 0.2874015500000000 1.8538795400000001 7.0822744599999998 O
atom 0.3128125800000000 7.2990586200000003 1.9988880200000001 O
atom 0.3489904900000000 7.1074741000000001 6.6472932399999998 O
atom 5.2790010699999996 1.8514868600000001 2.0181372600000000 O
atom 5.3406981599999996 1.8626853100000000 6.9327655600000000 O
atom 5.4630534500000003 7.1982307199999997 1.9880943000000000 O
atom 5.3025168499999999 7.0504263199999997 7.0083407600000003 O
atom 0.3044852500000000 0.7077539200000000 4.5787980700000004 O
atom 0.3388649700000000 0.6594662900000000 9.6151410199999994 O
atom 0.3876747400000000 5.8165984399999999 4.3241712000000003 O
atom 0.2141612500000000 5.9292897499999997 9.3024484800000007 O
atom 5.3019495399999998 0.6742752200000000 4.4769295900000001 O
atom 5.2551838899999996 0.7399080300000000 9.5589045200000005 O
atom 5.3825033800000002 5.9213815099999998 4.4293844299999998 O
atom 5.2004701500000001 5.9886805599999997 9.5522504300000008 O
atom 4.6959560199999997 4.5495287500000003 1.8897562699999999 O
atom 4.7109315699999996 4.4346812099999999 6.8270692200000003 O
atom 4.7253004699999996 9.7394020999999995 2.0785060299999998 O
atom 4.7443386199999997 9.6910385899999998 7.1554521900000001 O
atom 9.4706674300000007 4.3409417499999998 2.1061496599999998 O
atom 9.6510249600000009 4.4756761300000001 6.9050849699999999 O
atom 9.8554087399999997 9.8888589400000004 1.9176236000000000 O
atom 9.7708537399999997 9.6432464600000003 7.1487162399999997 O
atom 4.6668417399999997 3.3105259800000000 4.4257627099999999 O
atom 4.7833388200000000 3.3250472900000001 9.3743982300000006 O
atom 4.7134871499999997 8.5694256499999995 4.6008458900000004 O
atom 4.3277303800000002 8.4553055599999993 9.4900925100000002 O
atom 9.6678936199999992 3.2144898600000000 4.4593069700000001 O
atom 9.7165551099999998 3.3375357100000000 9.5541046600000001 O
atom 9.6450897999999992 8.5684835100000001 4.4363941499999999 O
atom 9.2984928300000007 8.5795545299999993 9.5667504500000007 O
atom 2.2839637499999998 0.7929598000000000 2.4446990300000002 O
atom 2.7096903600000002 1.2527783800000001 7.5079330200000003 O
atom 2.8725711700000001 6.4087540799999996 2.3419554200000001 O
atom 2.7150507199999998 6.4205107999999997 7.5646492399999996 O
atom 7.7079481300000001 1.2248668000000000 2.4644529500000001 O
atom 7.6802523699999998 1.1400802200000000 7.4457639599999998 O
atom 7.7364442499999999 6.4188197799999998 2.5381522200000002 O
atom 7.6661642199999998 6.4492193300000000 7.5196724399999999 O
atom 2.6829747500000001 1.3716538199999999 4.9265643700000004 O
atom 2.6259195100000001 1.5118109900000001 10.0248949599999992 O
atom 2.7317138000000001 6.5975802000000003 4.9976919899999999 O
atom 7.7021125300000000 1.3504724900000000 4.9595476400000003 O
atom 7.6628846299999998 1.3368665300000000 9.9680424999999993 O
atom 7.7077479699999998 6.6141763100000004 5.0209162000000003 O
atom 7.5970142699999998 6.6285706500000003 10.0276896900000008 O
atom 2.2955401700000002 3.9877960600000000 4.9078829300000004 O
atom 2.4950776700000001 4.0748839200000004 9.7976076699999997 O
atom 2.2628806199999998 9.2387215200000004 5.1000114700000001 O
atom 2.1836983700000001 9.5665265300000009 10.4050520300000002 O
atom 7.3016617100000003 3.9534322899999998 5.0164724400000003 O
atom 7.3048470400000003 3.9797644000000001 10.0003617499999997 O
atom 7.3531637500000002 9.2446258799999992 4.9997614800000001 O
atom 7.0234316100000003 9.2505040500000000 9.9987977499999996 O
atom 2.4987010000000001 3.5550616700000002 2.4749625399999999 O
atom 2.3081632600000002 3.7855461199999998 7.3769192400000003 O
atom 2.5281271500000000 8.7916837300000008 2.7624658400000000 O
atom 2.4141688700000001 9.2426227999999995 7.5087980300000003 O
atom 7.1811029299999998 3.8003878100000001 2.5017622600000000 O
atom 7.3196026300000003 3.7758829199999999 7.4737493099999996 O
atom 7.3821755400000004 9.1059429000000005 2.5118914200000000 O
atom 7.3252642300000002 9.0280613100000000 7.5152164900000002 O
