lattice_vector 10.0208342100000003 -0.0792983000000000 0.0463320000000000 
lattice_vector -0.0146574000000000 10.4464717300000007 -0.0735163900000000 
lattice_vector 0.0327571500000000 -0.0735402900000000 10.0700075600000005 
atom 1.1696946500000001 0.3670334200000000 1.0549883200000001 Si
atom 1.3790579300000001 0.1308420100000000 6.3031365800000003 Hf
atom 1.3205022700000000 5.3443610399999999 1.2018388799999999 Hf
atom 1.3066896299999999 5.2828719700000004 6.2225935200000002 Hf
atom 6.3323001899999998 0.1163110000000000 1.2605406600000000 Hf
atom 6.3125854900000000 0.0081239200000000 6.3498608599999997 La
atom 6.3475124400000000 5.3064045200000001 1.2291872900000000 Hf
atom 6.4121724599999999 5.3170267300000003 6.3248590199999999 Hf
atom 1.3041070400000001 2.3674046299999998 3.6943868200000001 Hf
atom 1.3406392100000000 2.4307209400000001 8.7501058100000009 Hf
atom 1.3237656400000000 7.5612140900000000 3.7202313299999998 Hf
atom 1.3184393299999999 7.5982896400000000 8.7805018599999993 Hf
atom 6.3410724099999998 2.3083423700000001 3.7792877599999999 Hf
atom 6.3629458999999997 2.3679072699999999 8.8288083000000004 Hf
atom 6.6348663600000002 7.4487735900000001 3.6277146000000000 Hf
atom 6.3990838800000001 7.5890088000000002 8.8771018799999997 Hf
atom 3.7132413299999998 2.7651157999999998 1.1637221099999999 Hf
atom 3.6769533800000000 2.7542007800000001 6.2714524500000000 Hf
atom 3.7263761700000000 7.9085866400000002 1.2461099000000000 Hf
atom 3.7044027900000001 7.8119871600000002 6.3298808500000003 La
atom 8.6731417600000000 2.6728757100000000 1.2357605199999999 Hf
atom 8.6699135799999993 2.6509180600000000 6.3214360899999997 Hf
atom 8.8476845100000006 7.9814742499999998 1.1358980900000000 Hf
atom 8.7363783900000005 7.8626690799999999 6.2670897400000003 Hf
atom 3.6671847199999998 4.9770039600000002 3.7584634900000000 Hf
atom 3.6810867200000001 5.0158015999999996 8.7877864300000006 Hf
atom 3.4823436000000001 10.3400948199999991 3.5432679700000000 Hf
atom 3.5442131300000002 10.2442339699999998 8.8858454699999996 Hf
atom 8.6954471499999997 4.8405149700000001 3.7939244200000002 Hf
atom 8.6884403799999994 4.9355240800000004 8.8181884700000008 Hf
atom 8.7514013599999991 10.1786859500000002 3.6817507400000000 Hf
atom 8.7020082199999997 10.1973728700000006 8.7334459199999994 Hf
atom 0.3480878300000000 1.8346397900000000 1.8034343300000000 O
atom 0.3583163100000000 1.8635447400000000 6.9863868900000003 O
atom 0.3728848900000000 7.1071638100000003 1.9243076600000000 O
atom 0.3873665200000000 7.0978578399999996 6.9275987700000003 O
atom 5.2683155599999996 1.8367617599999999 2.0098940399999998 O
atom 5.3117393200000000 2.0215275300000002 7.1062625300000004 O
atom 5.4159705999999996 7.0608117999999997 1.9817195599999999 O
atom 5.6295972799999996 7.0534395999999999 7.1012388399999997 O
atom 0.3806827200000000 0.6572929300000000 4.4632436499999999 O
atom 0.3666625100000000 0.6268017400000000 9.6129360100000003 O
atom 0.2820344700000000 5.8512174899999998 4.4544969300000004 O
atom 0.3010317500000000 5.8940054100000001 9.5529825800000001 O
atom 5.2564603099999996 0.6028699700000000 4.3340815499999996 O
atom 5.2840534999999997 0.7020738399999999 9.6394881500000000 O
atom 5.2464678500000002 6.1750605800000002 4.5459736700000004 O
atom 5.3550870399999999 5.8630949000000001 9.5708301700000007 O
atom 4.7037142999999997 4.4690398800000004 1.9810904499999999 O
atom 4.6139115600000000 4.5887023300000003 6.9529466700000002 O
atom 4.7715929399999997 9.6113715099999997 2.0426477200000002 O
atom 4.4766579799999997 9.7332808300000000 7.2062236300000002 O
atom 9.7182503400000009 4.3514451599999999 2.0162734000000002 O
atom 9.6808521499999998 4.3599041800000000 7.0352716099999997 O
atom 9.9684032800000004 9.7455351900000000 1.8321993800000000 O
atom 9.6375379100000007 9.6792574100000000 6.8857232799999997 O
atom 4.7312731499999998 3.3323289200000001 4.5104188799999996 O
atom 4.6898941399999998 3.3073396499999999 9.5295997200000002 O
atom 4.6424576799999997 8.4952843999999992 9.5398213399999996 O
atom 9.6935975699999997 3.1597309099999999 4.5029140900000000 O
atom 9.6780176499999993 3.1806181499999999 9.5246050300000000 O
atom 9.7210241199999992 8.4372813499999992 4.4392668600000000 O
atom 9.6725177400000000 8.4375097599999993 9.4289857599999998 O
atom 2.3873450500000000 0.8998229300000000 2.3375745499999998 O
atom 2.7021401699999998 1.1984236600000000 7.5509087600000004 O
atom 2.7049740899999999 6.2324915799999996 2.4097561600000001 O
atom 2.5423700199999999 6.2628940399999999 7.5966635900000004 O
atom 7.7020924500000003 1.0832453000000000 2.4849453200000000 O
atom 7.8283737000000002 1.2548895300000000 7.6464930400000002 O
atom 7.7764372200000000 6.2584749500000001 2.4937257499999999 O
atom 7.8441297399999996 6.2957005099999996 7.5464124000000004 O
atom 2.7089419299999999 1.4191945100000001 4.9336298500000000 O
atom 2.5679794299999998 1.4058534100000000 10.0901224999999997 O
atom 2.5906900500000001 6.4362590700000002 4.8927815600000004 O
atom 2.6936612200000001 6.6075726399999999 10.0167416300000003 O
atom 7.7994605300000002 1.3040883000000001 4.9435222899999998 O
atom 7.6927082200000001 1.2834003899999999 10.0756003900000000 O
atom 7.7687590499999999 6.4047452099999997 5.0138810600000001 O
atom 7.7399701299999997 6.5242259000000002 10.0894403599999993 O
atom 2.2876848999999999 3.9275051200000002 4.9612980499999999 O
atom 2.3312162299999999 3.9837106499999999 9.9981948000000003 O
atom 2.3918955099999999 9.2684156899999994 4.9740443100000000 O
atom 2.2072531700000000 9.3905367900000005 10.3432835799999996 O
atom 7.3125756300000004 3.8703011699999998 5.0336460299999999 O
atom 7.3504672199999996 3.8909882599999999 10.0592954900000002 O
atom 7.3509280600000002 8.9473089699999999 4.8469015799999999 O
atom 7.3552321699999998 9.1780862499999998 10.0115585800000009 O
atom 2.3802257999999998 3.6587109899999999 2.4571348999999998 O
atom 2.3243019000000000 3.7581740099999998 7.4992311699999998 O
atom 2.6224115900000000 8.6910044099999997 2.6871472100000000 O
atom 2.0900875600000002 9.1142469399999992 7.6960802499999996 O
atom 7.3153049299999999 3.6807571200000000 2.4939476699999998 O
atom 7.2938165200000000 3.7774642699999998 7.5498360800000004 O
atom 7.5267818499999999 8.9195048400000001 2.3816838400000000 O
atom 7.4935581300000003 8.8310869699999994 7.6050633999999997 O
