lattice_vector 10.0731192800000002 -0.0102856600000000 -0.0335010900000000 
lattice_vector -0.0264240200000000 5.1889018299999998 0.0142738300000000 
lattice_vector -0.0136894100000000 -0.0243192300000000 10.0102642500000005 
atom 1.2514488500000001 0.0349611300000000 1.2794324699999999 La
atom 1.3519511700000000 0.1339336500000000 6.2395581399999998 Hf
atom 6.3805627800000000 0.1408650800000000 1.2548259700000000 Hf
atom 6.3976144300000000 0.1365899300000000 6.2937546700000002 Hf
atom 1.2963001900000000 2.3716329500000000 3.8196949500000001 Hf
atom 1.3627841300000001 2.3890907299999999 8.7288849600000002 Hf
atom 6.3620813299999996 2.4055520100000001 3.8004528099999999 Hf
atom 6.4044936100000003 2.3705140400000002 8.7668567100000008 Hf
atom 3.7560966400000000 2.6428123900000000 1.1857666700000000 Hf
atom 3.6995910099999998 2.7202734799999999 6.2425998299999996 Hf
atom 8.6491661600000000 2.7763819199999999 1.2894829100000000 Hf
atom 8.7237543500000001 2.7441419900000001 6.2493906499999996 Hf
atom 3.7204136800000001 5.0490688600000002 3.7765279800000000 Hf
atom 3.6814154800000001 4.9611586399999998 8.7567558499999993 Hf
atom 8.6071586900000003 5.0002177899999998 3.7874102600000001 Hf
atom 8.6851201800000002 4.9630830100000001 8.7637524500000001 Hf
atom 0.4115181000000000 2.2574917900000000 1.9715805300000000 O
atom 0.4025537000000000 1.9135391799999999 6.8193641800000000 O
atom 5.4219675000000001 1.8535322400000001 1.9484269100000000 O
atom 5.3931457500000004 1.8756164799999999 6.9407164300000002 O
atom 0.3571324700000000 0.6395699100000000 4.3541820900000001 O
atom 0.3099178400000000 0.7491197400000000 9.2469982099999992 O
atom 5.4105675800000004 0.6517732800000000 4.4697655400000000 O
atom 5.4070610300000004 0.6321409099999999 9.4425863400000001 O
atom 4.5136607499999997 4.4903229800000002 1.9114423000000000 O
atom 4.6552256900000000 4.4699140699999997 6.9288379300000003 O
atom 9.2900863099999995 4.6156284599999999 1.9247782700000000 O
atom 9.6756704899999999 4.4815876899999996 6.9152553299999999 O
atom 4.6396000600000002 3.2592991499999999 4.4414349700000004 O
atom 4.7377130799999998 3.2410343400000001 9.4213288300000002 O
atom 9.6407623499999993 3.2694796799999999 4.4136942000000001 O
atom 9.7521716699999992 3.3141636200000000 9.4996524499999992 O
atom 2.7936409000000002 1.3527993899999999 2.5807380200000001 O
atom 2.7188303899999999 1.1758004300000000 7.4764629300000003 O
atom 7.7172631599999999 1.2756600300000001 2.5367055399999998 O
atom 7.7696194099999998 1.1981577000000001 7.5028348200000003 O
atom 2.7135784100000002 1.3277117700000001 5.0249355900000001 O
atom 2.7748406000000001 1.3014680700000001 9.9208541700000001 O
atom 7.7377653200000003 1.3393102800000001 5.0221246900000001 O
atom 7.7450433399999996 1.3051668199999999 10.0229622200000001 O
atom 2.2671498400000001 3.9628396100000001 4.8518218099999997 O
atom 2.4079310399999998 3.7955778900000001 9.9512967400000001 O
atom 7.2939082700000002 3.9227378599999998 5.0404100500000002 O
atom 7.3194751699999996 3.8961426100000001 10.0180231800000001 O
atom 2.3005978300000001 3.7892145799999999 7.4234875400000000 O
atom 7.1420320600000000 3.8305157699999999 2.5449225499999999 O
atom 7.3418301499999998 3.7831577500000000 7.5153733000000003 O
