lattice_vector 10.0033704100000005 -0.0148567100000000 0.0263822100000000 
lattice_vector 0.0023771600000000 10.4386520899999997 -0.0842610000000000 
lattice_vector -0.0321951900000000 -0.1337402500000000 10.0208677599999998 
atom 1.1347231200000001 0.3044794200000000 1.1094300600000000 Si
atom 1.4362208400000001 -0.0686716100000000 6.2003380200000002 Hf
atom 1.2992117900000000 5.4289047400000001 1.1543842099999999 Hf
atom 1.3839267500000001 5.3403409899999996 6.2161393800000004 Hf
atom 6.3231879900000001 0.1828078100000000 1.2807022900000000 Hf
atom 6.2089298199999998 0.0245453000000000 6.2142113500000002 Hf
atom 6.3767465100000003 5.4270367100000003 1.2832973800000000 Hf
atom 6.3707183299999999 5.2951584100000000 6.2077232499999999 Hf
atom 1.3705094499999999 2.2866300200000000 3.5667534500000002 Hf
atom 1.2506782299999999 2.5205792599999999 8.8848150900000000 La
atom 1.3733759000000001 7.5192025100000004 3.7293657200000001 Hf
atom 1.2589253000000000 7.6062291000000002 8.7491419599999993 Hf
atom 6.3377590399999999 2.3771576099999998 3.7763623700000002 Hf
atom 6.3452494499999998 2.3325920700000000 8.6976680500000008 Hf
atom 6.3765034299999996 7.6214439199999999 3.7572383100000000 Hf
atom 6.3176735199999996 7.5701280100000004 8.7435891100000003 Hf
atom 3.8700657500000002 2.8279884399999999 1.0428563200000001 Hf
atom 3.6536576799999998 2.7124535900000000 6.1941431400000004 Hf
atom 3.7293404600000000 7.9363921399999997 1.1717995200000000 Hf
atom 3.7012005499999998 7.9229493599999996 6.2849420699999996 Hf
atom 8.5870039699999996 2.7579118100000000 1.2422956400000000 Hf
atom 8.8374548999999991 2.5410101200000001 6.2100842700000003 La
atom 8.7248089400000008 8.0209461199999996 1.2157879700000001 Hf
atom 8.6811403699999996 7.9435680900000003 6.2207281099999996 Hf
atom 3.6829484500000000 4.9325896499999997 3.7130044899999999 Hf
atom 3.6972442000000001 5.0540270400000002 8.6547358600000006 Hf
atom 3.6257050799999999 10.1370853099999998 3.6094621299999998 Hf
atom 3.5237752800000002 10.2025955899999996 8.8453759999999999 Hf
atom 8.6794727399999996 4.9808132599999997 3.6897035699999998 Hf
atom 8.5412839300000005 4.9470919100000001 8.7654090000000000 Hf
atom 8.7031949599999994 10.2374314300000009 3.7008970600000000 Hf
atom 8.5720376999999992 10.1397489499999995 8.7570049099999991 Hf
atom 0.3825860700000000 1.8825517400000000 1.6741924600000000 O
atom 0.3603914700000000 7.1434684600000002 1.9194341500000001 O
atom 0.3727778400000000 7.1300489999999996 6.8812669599999996 O
atom 5.3153395899999998 1.8787850600000000 2.0337651999999999 O
atom 5.3003745000000002 1.8190015799999999 6.9208922099999999 O
atom 5.3808129700000000 7.1573765199999997 1.9821809600000000 O
atom 5.3406921399999998 7.0187388999999998 6.9815305299999997 O
atom 0.2152630100000000 0.8289865199999999 4.7707399199999996 O
atom 0.2546215800000000 0.4292133400000000 9.6236874599999993 O
atom 0.3431461500000000 5.8344465000000003 4.4379770399999998 O
atom 0.3070620200000000 5.7792176800000004 9.3944294900000003 O
atom 5.2887212500000000 0.6347654700000001 4.4304178099999998 O
atom 5.1976539199999996 0.7085785100000001 9.5822317899999998 O
atom 5.3968557600000002 5.8605113500000003 4.3794080600000003 O
atom 5.2841287200000000 5.9045125199999999 9.5307241000000005 O
atom 4.7247267600000002 4.5132089000000004 1.9262742399999999 O
atom 4.6529098600000003 4.4863228700000004 6.8535763400000000 O
atom 4.6677621599999997 9.7327235200000004 1.8668041099999999 O
atom 4.5829103000000000 9.6859244300000000 7.0086853800000002 O
atom 9.6272260200000002 4.5054845400000003 1.7831767500000000 O
atom 9.8018186600000003 4.4438057000000004 7.0994767599999999 O
atom 9.8593602400000009 9.7933853699999993 1.8486906900000000 O
atom 9.6788620800000000 9.8538147400000007 6.9822362099999999 O
atom 4.6750520000000000 3.2518411600000001 4.4723190600000002 O
atom 4.6058616600000004 3.2379078600000000 9.2641578300000003 O
atom 4.7706000599999996 8.5301871600000005 4.5732828400000001 O
atom 4.5596134399999997 8.4883788500000001 9.3953967800000004 O
atom 9.6729169000000006 3.2269631500000000 4.0690176200000003 O
atom 9.1953955599999997 3.0664091899999999 9.3214019799999992 O
atom 9.7569613700000009 8.5606470399999992 4.4590239100000000 O
atom 9.5117099700000001 8.3406390699999999 9.3805163799999995 O
atom 2.1455480900000001 0.5944043500000000 2.5273300399999998 O
atom 2.5268377100000001 1.1153654600000000 7.4431161499999998 O
atom 2.6477910200000001 6.1655159299999998 2.4501109200000002 O
atom 2.6780943300000000 6.4175448700000004 7.4738631499999997 O
atom 7.7289775000000001 1.1993914900000000 2.4847715099999999 O
atom 7.5332430700000002 0.9919509600000000 7.5568107500000004 O
atom 7.7628825600000004 6.4413850100000003 2.4808804000000002 O
atom 7.6993441899999997 6.3604693100000000 7.4818291400000003 O
atom 2.7053769499999998 1.2701708000000000 4.9113412900000002 O
atom 2.6207591600000000 1.2128807200000000 10.2421458800000007 O
atom 2.7695740700000000 6.5129990800000002 4.9634835700000002 O
atom 2.6014180100000002 6.6024188400000003 9.9524836800000003 O
atom 7.5761015299999999 1.2008799800000001 4.9281355800000002 O
atom 7.5827116400000003 1.2279681200000001 10.0342487600000005 O
atom 7.7358529300000001 6.5674849499999999 4.9907405499999999 O
atom 7.6602074000000000 6.5019365699999998 10.0088988000000008 O
atom 2.2427121500000000 3.8873990200000001 4.9062215299999998 O
atom 2.4761640900000002 4.0888005600000001 10.0427491000000000 O
atom 2.3495489699999998 9.0655682300000002 4.9889274600000002 O
atom 2.0991938100000000 9.2475768299999999 10.1953463699999993 O
atom 7.3585988100000002 3.9412551599999999 4.9554951100000002 O
atom 7.1150131400000003 3.8872407600000001 10.0373706499999997 O
atom 7.3873234400000003 9.1476253300000003 4.9457577700000002 O
atom 7.2098350499999997 9.0888558499999998 9.9750667300000000 O
atom 2.4962266500000001 3.5067589799999999 2.4207644400000001 O
atom 2.3843167099999998 3.8416925599999998 7.3790713600000002 O
atom 2.6348556799999998 8.5967785200000009 2.6498417100000000 O
atom 2.2825808799999998 8.9549297699999997 7.5499231399999998 O
atom 7.2779548299999997 3.8117925000000001 2.4904005400000000 O
atom 7.2007451700000003 3.8177225099999998 7.5083857099999998 O
atom 7.4016817499999998 9.0456539100000004 2.4563332800000000 O
atom 7.3025525199999999 8.9033322300000002 7.4428467400000002 O
