lattice_vector 10.0626970000000000 -0.0025660000000000 -0.0120470000000000 
lattice_vector 0.0040120000000000 10.3977609999999991 -0.0278530000000000 
lattice_vector -0.0831320000000000 -0.0264840000000000 10.1052640000000000 
atom 1.2361860000000000 0.0664880000000000 1.2002440000000001 La
atom 1.2909040000000001 0.1515750000000000 6.3036740000000000 Hf
atom 1.3343600000000000 5.3636730000000004 1.2371610000000000 Hf
atom 1.1967970000000001 5.2522849999999996 6.2389900000000003 La
atom 6.3694499999999996 0.1457670000000000 1.2605560000000000 Hf
atom 6.3105240000000000 0.1495050000000000 6.3134379999999997 Hf
atom 6.3540970000000003 5.3616570000000001 1.2468900000000001 Hf
atom 6.3297210000000002 5.3312759999999999 6.2993069999999998 Hf
atom 1.3562110000000001 2.4195859999999998 3.7936410000000000 Hf
atom 1.2999470000000000 2.4322100000000000 8.7938240000000008 Hf
atom 1.3437600000000001 7.6443019999999997 3.7271790000000000 Hf
atom 1.3167279999999999 7.6050969999999998 8.8324820000000006 Hf
atom 6.3633749999999996 2.4029029999999998 3.7581150000000001 Hf
atom 6.3012899999999998 2.3943850000000002 8.8609910000000003 Hf
atom 6.3448500000000001 7.6064579999999999 3.7942950000000000 Hf
atom 6.3237480000000001 7.5884749999999999 8.7968879999999992 Hf
atom 3.6596970000000000 2.7583790000000001 1.2519309999999999 Hf
atom 3.6798430000000000 2.7070740000000000 6.2785159999999998 Hf
atom 3.7234219999999998 7.9191839999999996 1.2118050000000000 Hf
atom 3.6201729999999999 7.9441329999999999 6.2907859999999998 Hf
atom 8.6775050000000000 2.7732630000000000 1.2613340000000000 Hf
atom 8.6198390000000007 2.7449680000000001 6.3234290000000000 Hf
atom 8.6633980000000008 7.9569200000000002 1.2565869999999999 Hf
atom 8.6380230000000005 7.9590920000000001 6.3000569999999998 Hf
atom 3.6827369999999999 5.0214800000000004 3.7337690000000001 Hf
atom 3.6188359999999999 5.0025789999999999 8.8160640000000008 Hf
atom 3.6623169999999998 10.2147570000000005 3.7495259999999999 Hf
atom 3.6430229999999999 10.2072719999999997 8.7725779999999993 Hf
atom 8.6560310000000005 5.0145609999999996 3.7438410000000002 Hf
atom 8.6032150000000005 4.9895880000000004 8.8943180000000002 Hf
atom 8.6467120000000008 10.2018140000000006 3.8278539999999999 Hf
atom 8.6164170000000002 10.1999929999999992 8.7824709999999993 Hf
atom 0.2510670000000000 2.0325859999999998 2.0868110000000000 O
atom 0.3479610000000000 1.9685310000000000 6.9158869999999997 O
atom 0.3914050000000000 7.1809149999999997 1.8493649999999999 O
atom 0.2112860000000000 7.2181629999999997 7.1258480000000004 O
atom 5.3961870000000003 1.9038130000000000 1.9285170000000000 O
atom 5.3272279999999999 1.8528789999999999 7.0498649999999996 O
atom 5.3706040000000002 7.0648540000000004 1.9832120000000000 O
atom 5.3565860000000001 7.0894870000000001 6.9673559999999997 O
atom 0.3010170000000000 0.7045990000000000 4.4714929999999997 O
atom 0.2349600000000000 0.7607370000000000 9.2586650000000006 O
atom 0.2785170000000000 5.9730770000000000 4.1922470000000001 O
atom 0.2613510000000000 5.8902489999999998 9.5106179999999991 O
atom 5.3406289999999998 0.6916430000000000 4.5129820000000000 O
atom 5.3348849999999999 0.6512260000000000 9.5319789999999998 O
atom 5.3783120000000002 5.8635169999999999 4.4656120000000001 O
atom 5.3010869999999999 5.8771560000000003 9.5517850000000006 O
atom 4.6784530000000002 4.4809999999999999 1.9577480000000000 O
atom 4.6326489999999998 4.4968789999999998 6.9915130000000003 O
atom 4.6763009999999996 9.7088710000000003 1.9248570000000000 O
atom 4.6387020000000003 9.6667980000000000 6.9964350000000000 O
atom 9.6397309999999994 4.5568379999999999 1.9085870000000000 O
atom 9.4408460000000005 4.4069370000000001 7.1644920000000001 O
atom 9.4838310000000003 9.6193700000000000 2.0975750000000000 O
atom 9.6001329999999996 9.7424239999999998 6.9470830000000001 O
atom 4.7378580000000001 3.2923499999999999 4.4978020000000001 O
atom 4.6430309999999997 3.2916720000000002 9.5632950000000001 O
atom 4.6866019999999997 8.5037950000000002 4.4967920000000001 O
atom 4.6983180000000004 8.4779129999999991 9.5365470000000006 O
atom 9.7708420000000000 3.4057529999999998 4.5994900000000003 O
atom 9.6578520000000001 3.2810640000000002 9.6009320000000002 O
atom 9.7014610000000001 8.4931780000000003 4.5341630000000004 O
atom 9.7315299999999993 8.5913459999999997 9.6383919999999996 O
atom 2.8014120000000000 1.3149970000000000 2.5714380000000001 O
atom 2.6609259999999999 1.1576620000000000 7.5248629999999999 O
atom 2.7045370000000002 6.3697410000000003 2.4582150000000000 O
atom 2.7616849999999999 6.5005879999999996 7.6101020000000004 O
atom 7.7100700000000000 1.1898340000000001 2.5225450000000000 O
atom 7.6815020000000001 1.2066660000000000 7.5541140000000002 O
atom 7.7250639999999997 6.4187529999999997 2.4874390000000002 O
atom 7.6704270000000001 6.3754200000000001 7.5611949999999997 O
atom 2.6791689999999999 1.3183069999999999 5.0505279999999999 O
atom 2.7012570000000000 1.4096270000000000 9.9933669999999992 O
atom 2.7448769999999998 6.6219010000000003 4.9268159999999996 O
atom 2.6395450000000000 6.5038859999999996 10.0893180000000005 O
atom 7.6833460000000002 1.3648870000000000 5.0377489999999998 O
atom 7.6906280000000002 1.3382609999999999 10.0897699999999997 O
atom 7.7341499999999996 6.5508400000000000 5.0229450000000000 O
atom 7.6437510000000000 6.5502250000000002 10.0768050000000002 O
atom 2.4428690000000000 3.8579780000000001 4.9180159999999997 O
atom 2.2402400000000000 3.9706589999999999 10.0662920000000007 O
atom 2.2836959999999999 9.1827310000000004 4.9995729999999998 O
atom 2.4032640000000001 9.0437370000000001 9.9567370000000004 O
atom 7.3356570000000003 3.9468749999999999 5.0371920000000001 O
atom 7.2458410000000004 3.9406390000000000 10.1051959999999994 O
atom 7.2893290000000004 9.1528320000000001 5.0386090000000001 O
atom 7.2959630000000004 9.1323819999999998 10.0754979999999996 O
atom 2.2685740000000001 3.8303769999999999 2.4589420000000000 O
atom 2.4158620000000002 3.6859270000000000 7.5942400000000001 O
atom 2.4595159999999998 8.8981910000000006 2.5276160000000001 O
atom 2.2287699999999999 9.0160040000000006 7.4976339999999997 O
atom 7.3228900000000001 3.8124720000000001 2.5134930000000000 O
atom 7.1762949999999996 3.7796660000000002 7.5770249999999999 O
atom 7.2196999999999996 8.9917800000000003 2.5103930000000001 O
atom 7.2830909999999998 8.9982019999999991 7.5521330000000004 O
