lattice_vector 9.9724129999999995 -0.0169380000000000 0.0153300000000000 
lattice_vector -0.0071410000000000 10.4053079999999998 -0.0560160000000000 
lattice_vector 0.0953910000000000 -0.1133510000000000 10.0273780000000006 
atom 1.1996030000000000 0.3742970000000000 1.0712480000000000 Si
atom 1.4335290000000001 0.1455190000000000 6.3099769999999999 Hf
atom 1.3144210000000001 5.3078040000000000 1.1977439999999999 Hf
atom 1.4527890000000001 5.2841930000000001 6.2800640000000003 Hf
atom 6.3295940000000002 0.1543480000000000 1.2560320000000000 Hf
atom 6.3506770000000001 0.0615100000000000 6.2620680000000002 Hf
atom 6.3607750000000003 5.3846740000000004 1.2438250000000000 Hf
atom 6.3276219999999999 5.2756790000000002 6.2246810000000004 Hf
atom 1.3515370000000000 2.2932260000000002 3.6851669999999999 Hf
atom 1.4055080000000000 2.3884159999999999 8.7858149999999995 Hf
atom 1.3982509999999999 7.5154889999999996 3.7039430000000002 Hf
atom 1.4332320000000001 7.5774609999999996 8.8518860000000004 Hf
atom 6.3543159999999999 2.3510430000000002 3.7859470000000002 Hf
atom 6.4219090000000003 2.3284220000000002 8.7260749999999998 Hf
atom 6.3448349999999998 7.6178020000000002 3.7144940000000002 Hf
atom 6.3896150000000000 7.5671720000000002 8.7363850000000003 Hf
atom 3.7508599999999999 2.7606269999999999 1.1531499999999999 Hf
atom 3.7082720000000000 2.6909960000000002 6.2507580000000003 Hf
atom 3.7052879999999999 7.9259510000000004 1.2181999999999999 Hf
atom 3.6904170000000001 7.9320680000000001 6.2791930000000002 Hf
atom 8.6213379999999997 2.7583240000000000 1.2299789999999999 Hf
atom 8.7097460000000009 2.6730119999999999 6.2353540000000001 Hf
atom 8.7287870000000005 7.9808640000000004 1.2028530000000000 Hf
atom 8.8189980000000006 7.8034879999999998 6.1687170000000000 La
atom 3.6631450000000001 4.9261670000000004 3.7313550000000002 Hf
atom 3.7501470000000001 4.9803340000000000 8.7636059999999993 Hf
atom 3.6160749999999999 10.1269639999999992 3.6790620000000001 Hf
atom 3.6538569999999999 10.1747770000000006 8.8255470000000003 Hf
atom 8.6375709999999994 4.9568690000000002 3.7570239999999999 Hf
atom 8.7014309999999995 4.9448040000000004 8.7480810000000009 Hf
atom 8.7087059999999994 10.2277310000000003 3.6442280000000000 Hf
atom 8.6913490000000007 10.1544659999999993 8.7311680000000003 Hf
atom 0.3671710000000000 1.8477280000000000 1.8088109999999999 O
atom 0.4309230000000000 1.8988419999999999 7.0065160000000004 O
atom 0.4099120000000000 7.0801759999999998 1.8670629999999999 O
atom 0.6462290000000001 6.9695299999999998 7.1026530000000001 O
atom 5.2834610000000000 1.8479520000000000 2.0300650000000000 O
atom 5.3991449999999999 1.8317639999999999 6.9543520000000001 O
atom 5.3587140000000000 7.0898000000000003 1.9618780000000000 O
atom 5.3908030000000000 7.0515580000000000 6.9367979999999996 O
atom 0.3473360000000000 0.6760000000000000 4.5682890000000000 O
atom 0.4449700000000000 0.6072570000000000 9.5737170000000003 O
atom 0.2759320000000000 5.9061029999999999 4.5806019999999998 O
atom 0.4190450000000000 5.7952000000000004 9.4794380000000000 O
atom 5.3423840000000000 0.6369610000000000 4.4569710000000002 O
atom 5.3540950000000000 0.6571680000000000 9.5514659999999996 O
atom 5.2926409999999997 5.8641850000000000 4.4272020000000003 O
atom 5.3956530000000003 5.8459690000000002 9.5155030000000007 O
atom 4.6759670000000000 4.4802200000000001 1.9110529999999999 O
atom 4.6748099999999999 4.4195979999999997 6.9586660000000000 O
atom 4.7100070000000001 9.6638000000000002 1.9346989999999999 O
atom 4.6387970000000003 9.6737120000000001 6.9646150000000002 O
atom 9.6547579999999993 4.4333299999999998 1.9851470000000000 O
atom 9.6711939999999998 4.4467569999999998 6.9393760000000002 O
atom 9.8794559999999993 9.8048660000000005 1.7411920000000001 O
atom 9.7699999999999996 9.7588570000000008 7.0355590000000001 O
atom 4.7008159999999997 3.2484229999999998 4.4903469999999999 O
atom 4.7326490000000003 3.2156750000000001 9.4224700000000006 O
atom 4.6916549999999999 8.4675530000000006 4.5060580000000003 O
atom 4.6456109999999997 8.4387220000000003 9.4270750000000003 O
atom 9.6530489999999993 3.2052339999999999 4.3938439999999996 O
atom 9.6937750000000005 3.2057579999999999 9.4762179999999994 O
atom 9.6835629999999995 8.5034849999999995 4.0712700000000002 O
atom 9.6558080000000004 8.3818950000000001 9.3769770000000001 O
atom 2.3412549999999999 0.7679290000000000 2.4284140000000001 O
atom 2.7815110000000001 1.1803740000000000 7.5528839999999997 O
atom 2.6486719999999999 6.1872140000000000 2.4752719999999999 O
atom 2.8743829999999999 6.3602280000000002 7.5230069999999998 O
atom 7.7025629999999996 1.1992119999999999 2.4589439999999998 O
atom 7.7536990000000001 1.1335900000000001 7.4874929999999997 O
atom 7.7462150000000003 6.3890549999999999 2.4469820000000002 O
atom 7.6017890000000001 6.2234749999999996 7.5541280000000004 O
atom 2.7588430000000002 1.3208169999999999 4.9415860000000000 O
atom 2.6511200000000001 1.3065850000000001 10.1065740000000002 O
atom 2.7339050000000000 6.4849819999999996 5.0000900000000001 O
atom 2.7663430000000000 6.5016249999999998 10.0266500000000001 O
atom 7.7143689999999996 1.3128949999999999 4.9856460000000000 O
atom 7.7426399999999997 1.2890690000000000 9.9926790000000008 O
atom 7.5596480000000001 6.4104210000000004 4.8828040000000001 O
atom 7.7731199999999996 6.5157930000000004 10.0005080000000000 O
atom 2.3062550000000002 3.8785020000000001 4.9567500000000004 O
atom 2.4133270000000002 3.9029379999999998 9.9708909999999999 O
atom 2.2779820000000002 9.1023259999999997 5.0441149999999997 O
atom 2.2622599999999999 9.2835540000000005 10.2326490000000003 O
atom 7.3211209999999998 3.8812400000000000 4.9982379999999997 O
atom 7.3646669999999999 3.8845090000000000 9.9954319999999992 O
atom 7.3033210000000004 9.1931089999999998 4.8584090000000000 O
atom 7.3547729999999998 9.0878040000000002 9.9782770000000003 O
atom 2.3859170000000001 3.5929190000000002 2.4418940000000000 O
atom 2.3559429999999999 3.7577219999999998 7.4955309999999997 O
atom 2.5821700000000001 8.6744509999999995 2.6385830000000001 O
atom 2.3589720000000001 8.9722190000000008 7.6039089999999998 O
atom 7.2713179999999999 3.7800780000000000 2.4828519999999998 O
atom 7.3560179999999997 3.6938689999999998 7.4793580000000004 O
atom 7.3861080000000001 9.0065229999999996 2.4003549999999998 O
atom 7.2395300000000002 9.0331480000000006 7.5182380000000002 O
