lattice_vector 5.1342470400000000 -0.0743494700000000 0.3478463800000000 
lattice_vector -0.0242880600000000 10.3455368799999992 -0.0334137700000000 
lattice_vector 0.8612083699999999 -0.0141551800000000 10.6741779799999996 
atom 1.4857755699999999 0.0656514200000000 1.5913569100000000 La
atom 1.9698888100000000 0.2150623900000000 7.0398059899999996 Hf
atom 1.6315928700000000 5.3393750200000003 1.5363945500000000 Hf
atom 1.9214203500000000 5.3536875100000003 6.9823162300000003 Hf
atom 1.7746760900000000 2.3471703100000001 4.3421005700000004 Hf
atom 2.2010884499999999 2.3802090900000001 9.6424253800000006 Hf
atom 1.6132266500000001 7.6195126699999998 4.4642042399999999 Hf
atom 2.2568101100000000 7.4896026200000003 9.5735060099999991 Hf
atom 3.7785579500000002 2.7439458000000001 1.3316660899999999 Hf
atom 4.2138954499999999 2.6965528499999998 6.7054418900000003 Hf
atom 3.9163637100000002 7.8164686799999998 1.1755171900000001 Hf
atom 4.1342083000000001 7.9327258799999996 6.7411769000000001 Hf
atom 4.0666160800000002 5.0252914400000002 4.0816904799999998 La
atom 4.4450022699999998 4.8614862600000004 9.3082878400000002 Hf
atom 3.8972830200000002 10.0973480000000002 4.1043783400000002 Hf
atom 4.4692744500000003 10.0687455299999993 9.3324390499999996 Hf
atom 0.4054404700000000 1.8878094400000001 0.7703821800000000 O
atom 0.8273269200000000 1.6745742699999999 6.2678227199999998 O
atom 0.5243097000000000 6.8876667200000004 0.7296652300000001 O
atom 0.6214374600000000 6.7654742299999997 6.1503103699999997 O
atom 0.5853463200000000 0.8297859500000000 3.6947787700000001 O
atom 1.0991537800000000 0.8681911200000000 8.8711347899999993 O
atom 0.9594538200000000 6.0943880200000002 3.3872436200000000 O
atom 1.0280196600000000 6.0585007800000001 8.7740955399999994 O
atom 4.9674128399999997 4.2624495400000004 1.9780835800000001 O
atom 5.3156939400000001 4.2086842500000001 7.4767945600000001 O
atom 4.5678151500000004 9.3413533500000003 2.2538140300000000 O
atom 5.3625876799999999 9.3639039400000001 7.5409877700000001 O
atom 5.1480151300000001 3.2037678600000001 4.9036048299999999 O
atom 5.5878667799999997 3.4021139800000002 10.0797323599999995 O
atom 5.0051134700000004 8.5492221300000004 4.9107304799999998 O
atom 5.7698853200000002 8.6572328400000007 10.1645168199999993 O
atom 3.1324242099999999 1.3459470700000000 2.8625248499999998 O
atom 3.4834714700000000 1.2702293800000000 8.0922209699999996 O
atom 3.1271514200000001 6.4961932800000000 2.4843125700000002 O
atom 3.4275079800000001 6.4444849000000000 8.0736664299999994 O
atom 3.1878145700000000 1.2130200700000000 5.4820979899999998 O
atom 3.7537994499999998 1.2525330100000001 10.6531600199999996 O
atom 3.0104570599999998 6.5293916100000002 5.5637607400000002 O
atom 3.7071597399999998 6.3096582100000003 10.6273672300000008 O
atom 2.3654571400000002 3.8782528500000000 0.1915804400000000 O
atom 2.6610525699999998 3.8245246200000000 5.6948841999999997 O
atom 2.5190311099999998 8.9071169300000008 0.0768793500000000 O
atom 2.6836322799999999 9.1124416799999999 5.6879689100000004 O
atom 2.4206021000000000 3.7458037300000000 2.8108135800000000 O
atom 2.9319661300000002 3.8059425800000000 8.2555251399999996 O
atom 2.3987188800000001 8.9445837600000004 3.1588564600000000 O
atom 2.9632626200000001 8.9774902500000007 8.2409956500000003 O
