lattice_vector 10.0177886399999991 0.0167493300000000 0.1140071400000000 
lattice_vector 0.0089745200000000 10.4730246699999991 -0.0302803300000000 
lattice_vector 0.0419419700000000 -0.0484307400000000 10.0634070300000005 
atom 1.2098971100000000 0.2759546300000000 1.2055526999999999 Si
atom 1.3526086100000001 0.0678566300000000 6.3111018899999998 La
atom 1.3509411000000000 5.4098320700000002 1.2795802999999999 Hf
atom 1.3591033400000001 5.3328032199999997 6.2823230199999998 Hf
atom 6.3492469600000003 0.1695278900000000 1.3127778800000001 Hf
atom 6.2868316599999998 0.1368779600000000 6.3222587700000004 Hf
atom 6.4321647200000003 5.4544343900000003 1.3103039599999999 Hf
atom 6.3115945800000004 5.4707358099999999 6.3383890400000000 Hf
atom 1.3285394100000001 2.3550035899999999 3.6539757800000001 Hf
atom 1.6162723999999999 2.5330868500000001 9.0901110700000007 Hf
atom 1.3936866900000000 7.5894129499999998 3.8058378500000001 Hf
atom 1.3311971899999999 7.5439850100000001 8.7809036200000001 Hf
atom 6.3136243900000002 2.3949657800000002 3.7940251900000002 Hf
atom 6.3740265999999997 2.4518145599999999 8.8019577299999998 Hf
atom 6.3764428000000004 7.7106909899999998 3.8018165900000001 Hf
atom 6.3910584600000000 7.6930952200000000 8.9104044899999995 Hf
atom 3.8540665100000000 2.9375552699999998 1.2586607400000001 Hf
atom 3.6578901699999999 2.7703836700000002 6.2985024599999999 Hf
atom 3.7141660200000000 8.0067174399999992 1.2682737799999999 Hf
atom 3.7078848799999999 8.0097164400000000 6.3571196299999997 Hf
atom 8.6839537900000003 2.8113884699999998 1.3169121399999999 Hf
atom 8.4513827500000005 2.9000193099999998 6.2074450900000002 Hf
atom 8.7613419199999996 8.0141477699999992 1.3376591099999999 Hf
atom 8.6270282900000002 8.0080526400000007 6.3339242699999998 Hf
atom 3.6977105300000002 5.0317465199999996 3.8390325800000000 Hf
atom 3.7652820999999999 5.1440198099999996 8.7786201899999998 Hf
atom 3.6611253800000001 10.2097499400000000 3.7278044100000001 Hf
atom 3.6579538999999999 10.3264971499999998 8.9502806100000001 Hf
atom 8.7090849000000006 5.0696970700000001 3.8186730299999998 Hf
atom 8.7318501200000007 5.0355042499999998 8.8330284199999998 Hf
atom 8.7119862000000001 10.3034703800000003 3.8136264700000000 Hf
atom 8.7697447600000000 10.3697299500000000 8.9454662200000001 La
atom 0.3973901300000000 1.8899654299999999 1.7757370400000001 O
atom 0.3831536500000000 7.1060662399999996 1.9895815600000000 O
atom 0.3134338800000000 7.0460964600000002 7.0009287599999999 O
atom 5.2905805700000004 1.8586772899999999 2.0823942400000002 O
atom 5.3488906700000003 1.9155318800000001 7.0211295199999997 O
atom 5.4197766300000003 7.1856534999999999 2.0194196799999999 O
atom 5.3072788099999997 7.0806772599999999 7.1456802799999997 O
atom 0.2179482700000000 0.8408833100000001 4.4460662099999997 O
atom 0.7426808400000000 0.7096487200000000 9.6725068699999994 O
atom 0.3423811600000000 5.8695183000000002 4.5027263099999999 O
atom 0.4106232100000000 5.7680330599999996 9.5010282600000000 O
atom 5.3549122200000001 0.6601093800000000 4.5085063900000000 O
atom 5.4313992999999998 0.6800540500000000 9.5203102699999995 O
atom 5.3610897099999999 5.9614290299999997 4.5355787100000002 O
atom 5.3836675999999999 5.9743353199999998 9.6254355199999999 O
atom 4.7810162099999998 4.5852777900000001 2.0589706400000001 O
atom 4.6325164799999996 4.5189470399999996 6.9881392299999998 O
atom 4.7507094800000003 9.7456670899999995 2.0236342299999999 O
atom 4.5671187299999998 9.8287933499999998 7.0080204100000003 O
atom 9.7206811000000002 4.5050933899999999 2.0675455000000000 O
atom 9.7145073199999992 4.3044757799999998 7.0545824300000000 O
atom 9.9182581299999999 9.8643891999999997 1.9238967899999999 O
atom 9.4648263600000000 9.6968678700000002 6.9230485200000000 O
atom 4.6971435699999997 3.3221260500000001 4.5318208799999997 O
atom 4.7864453999999999 3.4255355900000000 9.5378129200000004 O
atom 4.7758998799999999 8.5594688699999999 4.6242538299999998 O
atom 4.6501444400000000 8.5910067600000009 9.5390191200000007 O
atom 9.6473155899999998 3.3173212400000001 4.5193115900000000 O
atom 9.7336434300000008 3.1997423000000000 9.5268326999999999 O
atom 9.7315113800000006 8.5704259799999996 4.5184365700000004 O
atom 9.7727095800000008 8.3957505700000006 9.6733152499999999 O
atom 2.2979825900000002 0.7599974700000000 2.4877910299999999 O
atom 2.6966129500000000 1.3848588500000001 7.6897547399999997 O
atom 2.7197127800000001 6.2763916599999998 2.5128490999999999 O
atom 2.6903902300000002 6.3832631400000004 7.5251936700000002 O
atom 7.7382870900000000 1.1995463700000000 2.5380120300000000 O
atom 7.7396611100000001 1.3993696600000001 7.4800631400000004 O
atom 7.7705603200000004 6.4489931399999998 2.5532937200000001 O
atom 7.7255605799999998 6.4520273200000000 7.5986488400000001 O
atom 2.7806990100000002 1.4277642600000000 4.8870413099999999 O
atom 2.9877233900000002 1.5094546900000001 10.1871239599999992 O
atom 2.7356753299999998 6.5475345999999996 5.0660093000000002 O
atom 2.7096558200000000 6.6683330800000000 10.0576643200000007 O
atom 7.6559374099999999 1.3879252500000001 5.0224429500000003 O
atom 7.5808030100000003 1.5356969800000000 10.2001268799999991 O
atom 7.6902515200000003 6.6208486700000000 5.0559596000000004 O
atom 7.8087110199999996 6.6079376800000000 10.1103155999999998 O
atom 2.2912896200000001 3.9579452499999999 5.0266517899999998 O
atom 2.4807090999999999 4.0956284500000004 10.0966296199999999 O
atom 2.4113405499999998 9.0840145799999998 5.0474298099999997 O
atom 2.3512955099999999 9.4968137800000001 10.4322091500000003 O
atom 7.2735662200000002 4.0325129999999998 5.0496340999999996 O
atom 7.4338597899999996 4.0516148999999997 10.0839783500000006 O
atom 7.3598145400000003 9.2548615900000009 5.0471273200000004 O
atom 7.2586001099999997 9.1106061399999998 10.2047865899999994 O
atom 2.4121218999999998 3.7081867000000002 2.4959967999999999 O
atom 2.2825388400000000 3.8222931800000000 7.5787776500000001 O
atom 2.5971269800000001 8.7297365800000009 2.7118623899999998 O
atom 2.4169730399999998 8.9469688299999994 7.7764329300000004 O
atom 7.3338608199999999 3.8279375899999999 2.5543488900000000 O
atom 7.2452762599999998 3.9370653099999999 7.5601532000000002 O
atom 7.4669422699999997 9.0784225900000006 2.5672135400000000 O
atom 7.1427719999999999 9.0190194500000000 7.5316859599999999 O
