lattice_vector 10.0584320100000006 -0.0015370600000000 -0.0353579200000000 
lattice_vector -0.0019273400000000 10.3901274899999994 0.0055894400000000 
lattice_vector -0.0397698400000000 -0.0072115600000000 10.0809227999999997 
atom 1.2772709799999999 0.0415988000000000 1.1696370400000000 La
atom 1.3210583800000000 0.1447288000000000 6.2770465299999998 Hf
atom 1.3662613500000000 5.3434473999999996 1.2504029000000001 Hf
atom 1.3296402100000000 5.3748375700000004 6.3151278399999997 Hf
atom 6.3783687899999997 0.1638055300000000 1.2416559199999999 Hf
atom 6.3286598700000001 0.1500825900000000 6.2545069199999999 Hf
atom 6.3399495200000002 5.4284545599999996 1.2507978000000000 Hf
atom 6.3207292500000003 5.3668107200000001 6.3177053599999997 Hf
atom 1.2577240300000001 2.5564819499999998 3.7879253300000002 La
atom 1.3080077299999999 2.4699313500000000 8.7404319200000007 Hf
atom 1.3117412500000001 7.5962000600000001 3.7837279900000000 Hf
atom 1.3283272699999999 7.6086369200000004 8.8238718600000006 Hf
atom 6.3525113199999996 2.4382722200000000 3.7699656500000001 Hf
atom 6.2970414500000000 2.3998410300000002 8.7570665800000000 Hf
atom 6.3395198400000004 7.6269524200000003 3.8109800400000000 Hf
atom 6.3410288299999999 7.6228100500000000 8.7955021599999998 Hf
atom 3.7294666099999998 2.7493587700000002 1.2146595600000001 Hf
atom 3.6580592599999999 2.7521647599999999 6.2636199399999999 Hf
atom 3.7227277499999998 7.9434310400000001 1.2330260300000000 Hf
atom 3.6413192699999999 7.9701564200000004 6.2742347599999997 Hf
atom 8.4791556499999992 2.8867911400000001 1.1531773000000001 Hf
atom 8.6374947199999994 2.7641115400000000 6.3163646099999999 Hf
atom 8.6628350899999997 7.9601581000000001 1.2823110600000001 Hf
atom 8.6931928299999992 7.9371980100000004 6.2944886000000002 Hf
atom 3.7070422800000000 5.0502653999999998 3.7354471400000002 Hf
atom 3.6565646699999999 5.0131005100000001 8.8018484899999994 Hf
atom 3.6569312200000001 10.2295055399999999 3.7529299400000000 Hf
atom 3.6713892299999999 10.2312138200000007 8.7696864899999998 Hf
atom 8.6310523900000007 5.0309034700000002 3.8189053199999998 Hf
atom 8.6979954199999998 5.0424339700000003 8.7858144599999992 Hf
atom 8.6339130900000001 10.1713907999999993 3.8304239800000000 Hf
atom 8.6496262999999995 10.1987927599999999 8.7643528499999999 Hf
atom 0.3480913500000000 1.9432185700000000 6.8712164700000002 O
atom 0.3019548300000000 7.0113507600000000 1.9856148600000001 O
atom 0.3174494900000000 7.0805850299999999 7.0467395000000002 O
atom 5.5016718800000000 1.9386315599999999 1.8919071800000000 O
atom 5.3486819299999997 1.8867395300000001 6.9688940400000003 O
atom 5.3692545899999997 7.0941837000000003 2.0044123300000001 O
atom 5.3419562200000001 7.1062026899999999 6.9976198099999998 O
atom 0.2757064100000000 0.5620640700000000 4.4956217299999999 O
atom 0.2174268200000000 0.8343887600000000 9.3196095099999994 O
atom 0.3386573800000000 5.8228010399999999 4.5009349099999998 O
atom 0.3042783900000000 5.9118936099999999 9.5476208200000006 O
atom 5.4121139700000001 0.6694269100000000 4.3948583100000000 O
atom 5.3529935699999998 0.6780737400000000 9.4987963900000008 O
atom 5.3497373599999998 5.9058195800000002 4.5031899099999997 O
atom 5.3350213899999996 5.9045890300000003 9.5296731999999995 O
atom 4.7357232600000003 4.4944284899999998 1.9482712099999999 O
atom 4.6690835300000000 4.4778837100000004 7.0202330399999999 O
atom 4.6631860900000000 9.7197850500000005 1.8896037600000000 O
atom 4.6355014700000003 9.7065618800000006 6.9816477399999997 O
atom 9.8418179299999995 4.1763817899999998 2.0597147200000001 O
atom 9.7035811100000000 4.4889856899999998 7.0472574600000000 O
atom 9.5271390599999997 9.6085350500000004 2.0986207800000001 O
atom 9.6669521700000001 9.6641018899999995 6.9969979599999998 O
atom 4.6409813599999996 3.2553005700000002 4.4302181899999997 O
atom 4.6631856400000000 3.3000208099999999 9.4859249600000002 O
atom 4.6695814400000000 8.5076852600000006 4.5015505400000002 O
atom 4.7047653000000000 8.4922786899999991 9.5109018400000007 O
atom 9.4274115500000004 3.3397254599999999 4.5702832200000003 O
atom 9.6662877100000006 3.3274083000000001 9.5888268599999993 O
atom 9.6487034900000008 8.4005101000000000 4.4964198199999998 O
atom 9.7800327899999999 8.5796685799999999 9.6396468399999993 O
atom 2.8504085600000000 1.2794631299999999 2.4557010799999999 O
atom 2.6575193300000000 1.2211985100000000 7.5228191000000004 O
atom 2.6959271100000000 6.3905833999999997 2.4907864300000000 O
atom 2.6916213400000002 6.4138865799999998 7.5443131200000000 O
atom 7.9024502900000000 1.3013903899999999 2.4723115500000001 O
atom 7.6814654899999999 1.1873539900000001 7.5140246599999996 O
atom 7.7380465500000000 6.4347122900000002 2.4938466300000002 O
atom 7.7131941599999996 6.4030296199999999 7.5296457700000001 O
atom 2.7954930700000000 1.2694582500000000 5.0774741600000004 O
atom 2.7067161099999999 1.4519115199999999 9.9444934400000005 O
atom 2.6729786500000001 6.6071397200000002 5.0167206000000002 O
atom 2.6767901300000001 6.5375594899999996 10.0691122300000000 O
atom 7.6756901099999997 1.3719352100000000 5.0288449899999996 O
atom 7.6779170399999996 1.3832472000000000 10.0156158000000008 O
atom 7.7126443900000003 6.5452901499999996 5.0286892999999999 O
atom 7.7105776199999996 6.5769495600000001 10.0377550000000006 O
atom 2.4261301199999998 4.0925802500000001 5.0743006399999997 O
atom 2.2751942700000001 3.9785050700000002 10.0036399700000000 O
atom 2.2686191700000000 9.1554491299999992 5.0046407000000004 O
atom 2.4085675599999998 9.0692430599999998 9.9620129800000008 O
atom 7.1894736600000000 3.9875347200000002 5.0398707700000003 O
atom 7.2636158899999996 3.9995170199999999 10.0553932400000008 O
atom 7.3011430900000001 9.1236540599999998 5.0573555600000004 O
atom 7.3365112600000000 9.1624512700000000 10.0670112399999994 O
atom 2.4347515999999998 3.8974243600000000 2.3715399000000001 O
atom 2.3041799300000001 3.8243292400000000 7.5042997800000002 O
atom 2.4223824500000002 8.8771900400000003 2.5545985299999998 O
atom 2.2765012800000002 9.0010436400000007 7.5127898000000002 O
atom 7.3075959800000003 3.9077350800000001 2.5026845999999998 O
atom 7.3174656899999997 3.8173128699999999 7.5701332700000004 O
atom 7.2137948700000001 9.0252814600000004 2.5217857299999999 O
atom 7.3099992299999998 8.9922398999999995 7.5366520000000001 O
