lattice_vector 10.0797046600000009 0.0443916300000000 0.7793769100000000 
lattice_vector 0.0379577200000000 10.2374799299999992 -0.0233061900000000 
lattice_vector 0.8357586800000000 -0.0300338400000000 10.4439810099999999 
atom 1.3434373200000000 0.1309218900000000 1.8007342399999999 Si
atom 1.9314162800000001 0.2083678900000000 6.7930659000000002 Hf
atom 1.5489241800000000 5.3441584500000001 1.6347605599999999 Hf
atom 2.0211928900000000 5.2616526099999996 6.7535233300000002 Hf
atom 6.5345381199999997 0.2664996100000000 2.0322029399999999 Hf
atom 7.0129296900000000 0.2310728100000000 7.2247068700000003 Hf
atom 6.5440915799999999 5.3483216799999997 2.0112740100000002 Hf
atom 6.9883065999999996 5.3570224599999996 7.2521664100000001 Hf
atom 1.7124401300000001 2.3035809500000002 4.1412624200000003 Hf
atom 2.2057788299999999 2.2789341900000002 9.4358077500000004 Hf
atom 1.7544529700000000 7.4539774699999999 4.2334553000000001 Hf
atom 2.1330400400000000 7.5869456499999997 9.4097943399999995 La
atom 6.7947088000000004 2.3559474300000001 4.6217573500000002 Hf
atom 7.1985169000000004 2.3675845500000001 9.8795903900000006 Hf
atom 6.7986921100000002 7.4674994400000001 4.6251791200000003 Hf
atom 7.1711721099999997 7.4970492200000001 9.8717226000000000 Hf
atom 3.6876248399999998 2.7528225000000002 1.3164220099999999 Hf
atom 4.1805529600000000 2.7837292400000000 6.5570820699999999 Hf
atom 3.6965307400000000 7.9729592900000004 1.3751762800000000 Hf
atom 4.1992741999999996 7.9194212999999998 6.5542029399999997 Hf
atom 8.8879194300000002 2.7354904599999998 1.7986823599999999 Hf
atom 9.2241283599999999 2.8191454800000000 6.9903724499999997 Hf
atom 8.7436838199999993 7.9291260100000001 1.7831463100000000 Hf
atom 9.2176141699999992 7.8910495500000000 7.0124557999999997 Hf
atom 3.9711995899999999 4.8995169399999998 3.9409360300000000 Hf
atom 4.3644798900000001 4.9122678899999999 9.2109407799999996 Hf
atom 3.9383225799999999 10.0188569899999997 3.9057782699999999 Hf
atom 4.4445747300000003 10.1154664699999994 9.1595190199999994 Hf
atom 8.9959077799999996 4.9212142500000002 4.3692940100000000 Hf
atom 9.3532134399999993 4.8604535100000001 9.6416533300000005 Hf
atom 9.0087158400000007 10.0126124799999996 4.3700751999999996 Hf
atom 9.3939196200000001 10.0758884799999997 9.5648593300000009 Hf
atom 0.6036874800000001 1.4812326200000001 0.8889215000000000 O
atom 0.8399588800000000 1.6938966300000000 5.9942696499999997 O
atom 0.3080245600000000 6.7196192200000002 0.9108551499999999 O
atom 0.9043342900000000 6.8278514200000000 6.1640318699999996 O
atom 5.4572549600000002 1.7371684700000001 1.2179772700000000 O
atom 5.9010557600000002 1.7177763399999999 6.4341501599999997 O
atom 5.4595227499999996 6.8882129799999996 1.2480480100000000 O
atom 5.9129286600000004 6.8362731700000001 6.4254282700000003 O
atom 0.6497869100000000 0.7429574600000000 3.3521313099999999 O
atom 1.0601055800000001 0.7898675900000000 8.6626947300000001 O
atom 0.6701192100000000 5.9083940699999999 3.5104200900000002 O
atom 5.6275268000000001 0.8979327300000000 3.8296579199999998 O
atom 6.1682606099999999 0.8456547100000000 9.0558769699999999 O
atom 5.6938275100000002 5.9672628599999999 3.8391492100000000 O
atom 6.0846569600000002 6.0122094500000003 9.0378711799999998 O
atom 4.8363455200000001 4.2783286900000004 2.1367695100000001 O
atom 5.2862908500000003 4.2530365000000003 7.3857913899999996 O
atom 4.8570916300000002 9.4021063399999996 2.1589002499999999 O
atom 5.3718592200000002 9.3868048900000005 7.3408763500000003 O
atom 9.9514320699999992 4.2122023799999999 2.6091216899999998 O
atom 10.3409244699999991 4.3141871099999998 7.8535517400000003 O
atom 10.0042656099999991 9.4098769600000001 2.5215749100000000 O
atom 10.3280936000000008 9.4085372199999995 7.7594981900000004 O
atom 5.0847977799999997 3.4367372800000000 4.7624464900000003 O
atom 5.5464031499999997 3.5047271900000001 10.0198660200000003 O
atom 5.0660033300000000 8.5432125600000006 4.7279507100000000 O
atom 5.3491470500000000 8.5018216399999993 9.9690835500000006 O
atom 10.0914803099999997 3.4191489200000000 5.1649099999999999 O
atom 10.5723453700000007 3.4431080299999999 10.4561401000000007 O
atom 10.0920827899999992 8.5146253800000000 5.1719756200000004 O
atom 10.1978018800000001 8.4550561200000001 10.3543498199999995 O
atom 2.7886496699999999 1.1731271999999999 2.4774284600000001 O
atom 3.3806569899999999 1.3349507700000001 7.8197852399999999 O
atom 2.9944092900000001 6.4740624899999997 2.7327774699999998 O
atom 3.4294465900000000 6.3629236599999999 7.8356241000000004 O
atom 8.0451160700000006 1.3126876700000001 3.1249694699999999 O
atom 8.4755676500000003 1.3704819699999999 8.3250769800000004 O
atom 8.0253028000000004 6.4466130000000001 3.1260000500000000 O
atom 8.4807378799999995 6.4388976400000004 8.3737750099999992 O
atom 3.1887801499999999 1.2614094899999999 5.2087078000000000 O
atom 3.8587400999999999 1.4852050000000001 10.2690231500000007 O
atom 3.2346841600000000 6.3495967100000001 5.2897148600000001 O
atom 3.6858623499999998 6.3192686499999997 10.6393346700000002 O
atom 8.2769481500000008 1.2538143500000001 5.7171896000000002 O
atom 8.6806189000000007 1.2509988999999999 10.9682428900000009 O
atom 8.2722674299999994 6.3697920899999998 5.7419275299999999 O
atom 8.6317346399999995 6.3363242499999997 10.9553609999999999 O
atom 2.2538901899999999 3.9138064500000000 0.2544492400000000 O
atom 2.7019244599999999 3.8482666200000000 5.4369842899999998 O
atom 2.2651736300000000 9.4417654800000008 0.4856489500000000 O
atom 2.7111090899999999 8.9946067299999992 5.4355964999999999 O
atom 7.3732512600000000 3.8701652400000000 0.7069625000000000 O
atom 7.7503364799999996 3.8962505799999998 5.9022287499999999 O
atom 7.1819496000000003 9.0545121200000001 0.6925977000000000 O
atom 7.7642518799999998 9.0018330800000008 5.8750490700000002 O
atom 2.5149441299999999 3.7467861899999999 2.8682400200000000 O
atom 2.9119646600000002 3.7886331900000001 8.0893282899999992 O
atom 2.3821003500000000 8.9445271500000008 2.8602307200000001 O
atom 3.0643396699999998 9.0531363500000008 7.9606991899999997 O
atom 7.5610134400000000 3.7912458899999999 3.2700761100000002 O
atom 7.9602481500000000 3.8243065500000002 8.5272099099999998 O
atom 7.5760232299999997 8.9429630600000003 3.2801650400000000 O
atom 7.9551415900000002 8.9308591499999999 8.4885104899999995 O
